*SPEF "ieee 1481-1999"
*DESIGN "async_fifo"
*DATE "15:49:27 Friday August 28, 2026"
*VENDOR "The OpenROAD Project"
*PROGRAM "OpenROAD"
*VERSION "dcf36133a369abc8f3c5e5738cd4d82e4903c0e0"
*DESIGN_FLOW "NAME_SCOPE LOCAL" "PIN_CAP NONE"
*DIVIDER /
*DELIMITER :
*BUS_DELIMITER []
*T_UNIT 1 NS
*C_UNIT 1 PF
*R_UNIT 1 OHM
*L_UNIT 1 HENRY

*NAME_MAP
*3 aempty
*4 aempty_thresh[0]
*5 aempty_thresh[1]
*6 aempty_thresh[2]
*7 aempty_thresh[3]
*8 afull
*9 afull_thresh[0]
*10 afull_thresh[1]
*11 afull_thresh[2]
*12 afull_thresh[3]
*13 empty
*14 full
*15 rd_clk
*16 rd_data[0]
*17 rd_data[1]
*18 rd_data[2]
*19 rd_data[3]
*20 rd_data[4]
*21 rd_data[5]
*22 rd_data[6]
*23 rd_data[7]
*24 rd_en
*25 rd_rst_n
*26 wr_clk
*27 wr_data[0]
*28 wr_data[1]
*29 wr_data[2]
*30 wr_data[3]
*31 wr_data[4]
*32 wr_data[5]
*33 wr_data[6]
*34 wr_data[7]
*35 wr_en
*36 wr_rst_n
*37 _0000_
*38 _0001_
*39 _0002_
*40 _0003_
*41 _0004_
*42 _0005_
*43 _0006_
*44 _0007_
*45 _0008_
*46 _0009_
*47 _0010_
*48 _0011_
*49 _0012_
*50 _0013_
*51 _0014_
*52 _0015_
*53 _0016_
*54 _0017_
*55 _0018_
*56 _0019_
*57 _0020_
*58 _0021_
*59 _0022_
*60 _0023_
*61 _0024_
*62 _0025_
*63 _0026_
*64 _0027_
*65 _0028_
*66 _0029_
*67 _0030_
*68 _0031_
*69 _0032_
*70 _0033_
*71 _0034_
*72 _0035_
*73 _0036_
*74 _0037_
*75 _0038_
*76 _0039_
*77 _0040_
*78 _0041_
*79 _0042_
*80 _0043_
*81 _0044_
*82 _0045_
*83 _0046_
*84 _0047_
*85 _0048_
*86 _0049_
*87 _0050_
*88 _0051_
*89 _0052_
*90 _0053_
*91 _0054_
*92 _0055_
*93 _0056_
*94 _0057_
*95 _0058_
*96 _0059_
*97 _0060_
*98 _0061_
*99 _0062_
*100 _0063_
*101 _0064_
*102 _0065_
*103 _0066_
*104 _0067_
*105 _0068_
*106 _0069_
*107 _0070_
*108 _0071_
*109 _0072_
*110 _0073_
*111 _0074_
*112 _0075_
*113 _0076_
*114 _0077_
*115 _0078_
*116 _0079_
*117 _0080_
*118 _0081_
*119 _0082_
*120 _0083_
*121 _0084_
*122 _0085_
*123 _0086_
*124 _0087_
*125 _0088_
*126 _0089_
*127 _0090_
*128 _0091_
*129 _0092_
*130 _0093_
*131 _0094_
*132 _0095_
*133 _0096_
*134 _0097_
*135 _0098_
*136 _0099_
*137 _0100_
*138 _0101_
*139 _0102_
*140 _0103_
*141 _0104_
*142 _0105_
*143 _0106_
*144 _0107_
*145 _0108_
*146 _0109_
*147 _0110_
*148 _0111_
*149 _0112_
*150 _0113_
*151 _0114_
*152 _0115_
*153 _0116_
*154 _0117_
*155 _0118_
*156 _0119_
*157 _0120_
*158 _0121_
*159 _0122_
*160 _0123_
*161 _0124_
*162 _0125_
*163 _0126_
*164 _0127_
*165 _0128_
*166 _0129_
*167 _0130_
*168 _0131_
*169 _0132_
*170 _0133_
*171 _0134_
*172 _0135_
*173 _0136_
*174 _0137_
*175 _0138_
*176 _0139_
*177 _0140_
*178 _0141_
*179 _0142_
*180 _0143_
*181 _0144_
*182 _0145_
*183 _0146_
*184 _0147_
*185 _0148_
*186 _0149_
*187 _0150_
*188 _0151_
*189 _0152_
*190 _0153_
*191 _0154_
*192 _0155_
*193 _0156_
*194 _0157_
*195 _0158_
*196 _0159_
*197 _0160_
*198 _0161_
*199 _0162_
*200 _0163_
*201 _0164_
*202 _0165_
*203 _0166_
*204 _0167_
*205 _0168_
*206 _0169_
*207 _0170_
*208 _0171_
*209 _0172_
*210 _0173_
*211 _0174_
*212 _0175_
*213 _0176_
*214 _0177_
*215 _0178_
*216 _0179_
*217 _0180_
*218 _0181_
*219 _0182_
*220 _0183_
*221 _0184_
*222 _0185_
*223 _0186_
*224 _0187_
*225 _0188_
*226 _0189_
*227 _0190_
*228 _0191_
*229 _0192_
*230 _0193_
*231 _0194_
*232 _0195_
*233 _0196_
*234 _0197_
*235 _0198_
*236 _0199_
*237 _0200_
*238 _0201_
*239 _0202_
*240 _0203_
*241 _0204_
*242 _0205_
*243 _0206_
*244 _0207_
*245 _0208_
*246 _0209_
*247 _0210_
*248 _0211_
*249 _0212_
*250 _0213_
*251 _0214_
*252 _0215_
*253 _0216_
*254 _0217_
*255 _0218_
*256 _0219_
*257 _0220_
*258 _0221_
*259 _0222_
*260 _0223_
*261 _0224_
*262 _0225_
*263 _0226_
*264 _0227_
*265 _0228_
*266 _0229_
*267 _0230_
*268 _0231_
*269 _0232_
*270 _0233_
*271 _0234_
*272 _0235_
*273 _0236_
*274 _0237_
*275 _0238_
*276 _0239_
*277 _0240_
*278 _0241_
*279 _0242_
*280 _0243_
*281 _0244_
*282 _0245_
*283 _0246_
*284 _0247_
*285 _0248_
*286 _0249_
*287 _0250_
*288 _0251_
*289 _0252_
*290 _0253_
*291 _0254_
*292 _0255_
*293 _0256_
*294 _0257_
*295 _0258_
*296 _0259_
*297 _0260_
*298 _0261_
*299 _0262_
*300 _0263_
*301 _0264_
*302 _0265_
*303 _0266_
*304 _0267_
*305 _0268_
*306 _0269_
*307 _0270_
*308 _0271_
*309 _0272_
*310 _0273_
*311 _0274_
*312 _0275_
*313 _0276_
*314 _0277_
*315 _0278_
*316 _0279_
*317 _0280_
*318 _0281_
*319 _0282_
*320 _0283_
*321 _0284_
*322 _0285_
*323 _0286_
*324 _0287_
*325 _0288_
*326 _0289_
*327 _0290_
*328 _0291_
*329 _0292_
*330 _0293_
*331 _0294_
*332 _0295_
*333 _0296_
*334 _0297_
*335 _0298_
*336 _0299_
*337 _0300_
*338 _0301_
*339 _0302_
*340 _0303_
*341 _0304_
*342 _0305_
*343 _0306_
*344 _0307_
*345 _0308_
*346 _0309_
*347 _0310_
*348 _0311_
*349 _0312_
*350 _0313_
*351 _0314_
*352 _0315_
*353 _0316_
*354 _0317_
*355 _0318_
*356 _0319_
*357 _0320_
*358 _0321_
*359 _0322_
*360 _0323_
*361 _0324_
*362 _0325_
*363 _0326_
*364 _0327_
*365 _0328_
*366 _0329_
*367 _0330_
*368 _0331_
*369 _0332_
*370 _0333_
*371 _0334_
*372 _0335_
*373 _0336_
*374 _0337_
*375 _0338_
*376 _0339_
*377 _0340_
*378 _0341_
*379 _0342_
*380 _0343_
*381 _0344_
*382 _0345_
*383 _0346_
*384 _0347_
*385 _0348_
*386 _0349_
*387 _0350_
*388 _0351_
*389 _0352_
*390 _0353_
*391 _0354_
*392 _0355_
*393 _0356_
*394 _0357_
*395 _0358_
*396 _0359_
*397 _0360_
*398 _0361_
*399 _0362_
*400 _0363_
*401 _0364_
*402 _0365_
*403 _0366_
*404 _0367_
*405 _0368_
*406 _0369_
*407 _0370_
*408 _0371_
*409 _0372_
*410 _0373_
*411 _0374_
*412 _0375_
*413 _0376_
*414 _0377_
*415 _0378_
*416 _0379_
*417 _0380_
*418 _0381_
*419 _0382_
*420 _0383_
*421 _0384_
*422 _0385_
*423 _0386_
*424 _0387_
*425 _0388_
*426 _0389_
*427 _0390_
*428 _0391_
*429 _0392_
*430 _0393_
*431 _0394_
*432 _0395_
*433 _0396_
*434 _0397_
*435 _0398_
*436 _0399_
*437 _0400_
*438 _0401_
*439 _0402_
*440 _0403_
*441 _0404_
*442 _0405_
*443 _0406_
*444 _0407_
*445 _0408_
*446 _0409_
*447 _0410_
*448 _0411_
*449 _0412_
*450 _0413_
*451 _0414_
*452 _0415_
*453 _0416_
*454 _0417_
*455 _0418_
*456 _0419_
*457 _0420_
*458 _0421_
*459 _0422_
*460 _0423_
*461 _0424_
*462 _0425_
*463 _0426_
*464 _0427_
*465 _0428_
*466 _0429_
*467 _0430_
*468 _0431_
*469 _0432_
*470 _0433_
*471 _0434_
*472 _0435_
*473 _0436_
*474 _0437_
*475 _0438_
*476 _0439_
*477 _0440_
*478 _0441_
*479 _0442_
*480 _0443_
*481 _0444_
*482 _0445_
*483 _0446_
*484 _0447_
*485 _0448_
*486 _0449_
*487 _0450_
*488 _0451_
*489 _0452_
*490 _0453_
*491 _0454_
*492 _0455_
*493 _0456_
*494 _0457_
*495 _0458_
*496 _0459_
*497 _0460_
*498 _0461_
*499 _0462_
*500 _0463_
*501 _0464_
*502 _0465_
*503 _0466_
*504 _0467_
*505 _0468_
*506 _0469_
*507 _0470_
*508 _0471_
*509 _0472_
*510 _0473_
*511 _0474_
*512 _0475_
*513 _0476_
*514 _0477_
*515 _0478_
*516 _0479_
*517 _0480_
*518 _0481_
*519 _0482_
*520 _0483_
*521 _0484_
*522 _0485_
*523 _0486_
*524 _0487_
*525 _0488_
*526 _0489_
*527 _0490_
*528 _0491_
*529 _0492_
*530 _0493_
*531 _0494_
*532 _0495_
*533 _0496_
*534 _0497_
*535 _0498_
*536 _0499_
*537 _0500_
*538 _0501_
*539 _0502_
*540 _0503_
*541 _0504_
*542 _0505_
*543 _0506_
*544 _0507_
*545 _0508_
*546 _0509_
*547 _0510_
*548 _0511_
*549 _0512_
*550 _0513_
*551 _0514_
*552 _0515_
*553 aempty_thresh_latched\[0\]
*554 aempty_thresh_latched\[1\]
*555 aempty_thresh_latched\[2\]
*556 aempty_thresh_latched\[3\]
*557 afull_thresh_latched\[0\]
*558 afull_thresh_latched\[1\]
*559 afull_thresh_latched\[2\]
*560 afull_thresh_latched\[3\]
*561 clknet_0_rd_clk
*562 clknet_0_wr_clk
*563 clknet_2_0__leaf_rd_clk
*564 clknet_2_1__leaf_rd_clk
*565 clknet_2_2__leaf_rd_clk
*566 clknet_2_3__leaf_rd_clk
*567 clknet_4_0_0_wr_clk
*568 clknet_4_10_0_wr_clk
*569 clknet_4_11_0_wr_clk
*570 clknet_4_12_0_wr_clk
*571 clknet_4_13_0_wr_clk
*572 clknet_4_14_0_wr_clk
*573 clknet_4_15_0_wr_clk
*574 clknet_4_1_0_wr_clk
*575 clknet_4_2_0_wr_clk
*576 clknet_4_3_0_wr_clk
*577 clknet_4_4_0_wr_clk
*578 clknet_4_5_0_wr_clk
*579 clknet_4_6_0_wr_clk
*580 clknet_4_7_0_wr_clk
*581 clknet_4_8_0_wr_clk
*582 clknet_4_9_0_wr_clk
*583 clknet_5_0__leaf_wr_clk
*584 clknet_5_10__leaf_wr_clk
*585 clknet_5_11__leaf_wr_clk
*586 clknet_5_12__leaf_wr_clk
*587 clknet_5_13__leaf_wr_clk
*588 clknet_5_14__leaf_wr_clk
*589 clknet_5_15__leaf_wr_clk
*590 clknet_5_16__leaf_wr_clk
*591 clknet_5_17__leaf_wr_clk
*592 clknet_5_18__leaf_wr_clk
*593 clknet_5_19__leaf_wr_clk
*594 clknet_5_1__leaf_wr_clk
*595 clknet_5_20__leaf_wr_clk
*596 clknet_5_21__leaf_wr_clk
*597 clknet_5_22__leaf_wr_clk
*598 clknet_5_23__leaf_wr_clk
*599 clknet_5_24__leaf_wr_clk
*600 clknet_5_25__leaf_wr_clk
*601 clknet_5_26__leaf_wr_clk
*602 clknet_5_27__leaf_wr_clk
*603 clknet_5_28__leaf_wr_clk
*604 clknet_5_29__leaf_wr_clk
*605 clknet_5_2__leaf_wr_clk
*606 clknet_5_30__leaf_wr_clk
*607 clknet_5_31__leaf_wr_clk
*608 clknet_5_3__leaf_wr_clk
*609 clknet_5_4__leaf_wr_clk
*610 clknet_5_5__leaf_wr_clk
*611 clknet_5_6__leaf_wr_clk
*612 clknet_5_7__leaf_wr_clk
*613 clknet_5_8__leaf_wr_clk
*614 clknet_5_9__leaf_wr_clk
*615 net
*616 net1
*617 net10
*618 net100
*619 net101
*620 net102
*621 net103
*622 net104
*623 net105
*624 net106
*625 net107
*626 net108
*627 net109
*628 net11
*629 net110
*630 net12
*631 net13
*632 net14
*633 net15
*634 net16
*635 net17
*636 net18
*637 net19
*638 net2
*639 net20
*640 net21
*641 net22
*642 net23
*643 net24
*644 net25
*645 net26
*646 net27
*647 net28
*648 net29
*649 net3
*650 net30
*651 net31
*652 net32
*653 net33
*654 net34
*655 net35
*656 net36
*657 net37
*658 net38
*659 net39
*660 net4
*661 net40
*662 net41
*663 net42
*664 net43
*665 net44
*666 net45
*667 net46
*668 net47
*669 net48
*670 net49
*671 net5
*672 net50
*673 net51
*674 net52
*675 net53
*676 net54
*677 net55
*678 net56
*679 net57
*680 net58
*681 net59
*682 net6
*683 net60
*684 net61
*685 net62
*686 net63
*687 net64
*688 net65
*689 net66
*690 net67
*691 net68
*692 net69
*693 net7
*694 net70
*695 net71
*696 net72
*697 net73
*698 net74
*699 net75
*700 net76
*701 net77
*702 net78
*703 net79
*704 net8
*705 net80
*706 net81
*707 net82
*708 net83
*709 net84
*710 net85
*711 net86
*712 net87
*713 net88
*714 net89
*715 net9
*716 net90
*717 net91
*718 net92
*719 net93
*720 net94
*721 net95
*722 net96
*723 net97
*724 net98
*725 net99
*726 rd_ptr_bin\[0\]
*727 rd_ptr_bin\[1\]
*728 rd_ptr_bin\[2\]
*729 rd_ptr_bin\[3\]
*730 rd_ptr_bin\[4\]
*731 rd_ptr_bin_next_wm\[0\]
*732 rd_ptr_bin_next_wm\[1\]
*733 rd_ptr_bin_next_wm\[2\]
*734 rd_ptr_bin_next_wm\[3\]
*735 rd_ptr_bin_next_wm\[4\]
*736 rd_ptr_gray\[0\]
*737 rd_ptr_gray\[1\]
*738 rd_ptr_gray\[2\]
*739 rd_ptr_gray\[3\]
*740 u_fifomem\.mem\[0\]\[0\]
*741 u_fifomem\.mem\[0\]\[1\]
*742 u_fifomem\.mem\[0\]\[2\]
*743 u_fifomem\.mem\[0\]\[3\]
*744 u_fifomem\.mem\[0\]\[4\]
*745 u_fifomem\.mem\[0\]\[5\]
*746 u_fifomem\.mem\[0\]\[6\]
*747 u_fifomem\.mem\[0\]\[7\]
*748 u_fifomem\.mem\[10\]\[0\]
*749 u_fifomem\.mem\[10\]\[1\]
*750 u_fifomem\.mem\[10\]\[2\]
*751 u_fifomem\.mem\[10\]\[3\]
*752 u_fifomem\.mem\[10\]\[4\]
*753 u_fifomem\.mem\[10\]\[5\]
*754 u_fifomem\.mem\[10\]\[6\]
*755 u_fifomem\.mem\[10\]\[7\]
*756 u_fifomem\.mem\[11\]\[0\]
*757 u_fifomem\.mem\[11\]\[1\]
*758 u_fifomem\.mem\[11\]\[2\]
*759 u_fifomem\.mem\[11\]\[3\]
*760 u_fifomem\.mem\[11\]\[4\]
*761 u_fifomem\.mem\[11\]\[5\]
*762 u_fifomem\.mem\[11\]\[6\]
*763 u_fifomem\.mem\[11\]\[7\]
*764 u_fifomem\.mem\[12\]\[0\]
*765 u_fifomem\.mem\[12\]\[1\]
*766 u_fifomem\.mem\[12\]\[2\]
*767 u_fifomem\.mem\[12\]\[3\]
*768 u_fifomem\.mem\[12\]\[4\]
*769 u_fifomem\.mem\[12\]\[5\]
*770 u_fifomem\.mem\[12\]\[6\]
*771 u_fifomem\.mem\[12\]\[7\]
*772 u_fifomem\.mem\[13\]\[0\]
*773 u_fifomem\.mem\[13\]\[1\]
*774 u_fifomem\.mem\[13\]\[2\]
*775 u_fifomem\.mem\[13\]\[3\]
*776 u_fifomem\.mem\[13\]\[4\]
*777 u_fifomem\.mem\[13\]\[5\]
*778 u_fifomem\.mem\[13\]\[6\]
*779 u_fifomem\.mem\[13\]\[7\]
*780 u_fifomem\.mem\[14\]\[0\]
*781 u_fifomem\.mem\[14\]\[1\]
*782 u_fifomem\.mem\[14\]\[2\]
*783 u_fifomem\.mem\[14\]\[3\]
*784 u_fifomem\.mem\[14\]\[4\]
*785 u_fifomem\.mem\[14\]\[5\]
*786 u_fifomem\.mem\[14\]\[6\]
*787 u_fifomem\.mem\[14\]\[7\]
*788 u_fifomem\.mem\[15\]\[0\]
*789 u_fifomem\.mem\[15\]\[1\]
*790 u_fifomem\.mem\[15\]\[2\]
*791 u_fifomem\.mem\[15\]\[3\]
*792 u_fifomem\.mem\[15\]\[4\]
*793 u_fifomem\.mem\[15\]\[5\]
*794 u_fifomem\.mem\[15\]\[6\]
*795 u_fifomem\.mem\[15\]\[7\]
*796 u_fifomem\.mem\[1\]\[0\]
*797 u_fifomem\.mem\[1\]\[1\]
*798 u_fifomem\.mem\[1\]\[2\]
*799 u_fifomem\.mem\[1\]\[3\]
*800 u_fifomem\.mem\[1\]\[4\]
*801 u_fifomem\.mem\[1\]\[5\]
*802 u_fifomem\.mem\[1\]\[6\]
*803 u_fifomem\.mem\[1\]\[7\]
*804 u_fifomem\.mem\[2\]\[0\]
*805 u_fifomem\.mem\[2\]\[1\]
*806 u_fifomem\.mem\[2\]\[2\]
*807 u_fifomem\.mem\[2\]\[3\]
*808 u_fifomem\.mem\[2\]\[4\]
*809 u_fifomem\.mem\[2\]\[5\]
*810 u_fifomem\.mem\[2\]\[6\]
*811 u_fifomem\.mem\[2\]\[7\]
*812 u_fifomem\.mem\[3\]\[0\]
*813 u_fifomem\.mem\[3\]\[1\]
*814 u_fifomem\.mem\[3\]\[2\]
*815 u_fifomem\.mem\[3\]\[3\]
*816 u_fifomem\.mem\[3\]\[4\]
*817 u_fifomem\.mem\[3\]\[5\]
*818 u_fifomem\.mem\[3\]\[6\]
*819 u_fifomem\.mem\[3\]\[7\]
*820 u_fifomem\.mem\[4\]\[0\]
*821 u_fifomem\.mem\[4\]\[1\]
*822 u_fifomem\.mem\[4\]\[2\]
*823 u_fifomem\.mem\[4\]\[3\]
*824 u_fifomem\.mem\[4\]\[4\]
*825 u_fifomem\.mem\[4\]\[5\]
*826 u_fifomem\.mem\[4\]\[6\]
*827 u_fifomem\.mem\[4\]\[7\]
*828 u_fifomem\.mem\[5\]\[0\]
*829 u_fifomem\.mem\[5\]\[1\]
*830 u_fifomem\.mem\[5\]\[2\]
*831 u_fifomem\.mem\[5\]\[3\]
*832 u_fifomem\.mem\[5\]\[4\]
*833 u_fifomem\.mem\[5\]\[5\]
*834 u_fifomem\.mem\[5\]\[6\]
*835 u_fifomem\.mem\[5\]\[7\]
*836 u_fifomem\.mem\[6\]\[0\]
*837 u_fifomem\.mem\[6\]\[1\]
*838 u_fifomem\.mem\[6\]\[2\]
*839 u_fifomem\.mem\[6\]\[3\]
*840 u_fifomem\.mem\[6\]\[4\]
*841 u_fifomem\.mem\[6\]\[5\]
*842 u_fifomem\.mem\[6\]\[6\]
*843 u_fifomem\.mem\[6\]\[7\]
*844 u_fifomem\.mem\[7\]\[0\]
*845 u_fifomem\.mem\[7\]\[1\]
*846 u_fifomem\.mem\[7\]\[2\]
*847 u_fifomem\.mem\[7\]\[3\]
*848 u_fifomem\.mem\[7\]\[4\]
*849 u_fifomem\.mem\[7\]\[5\]
*850 u_fifomem\.mem\[7\]\[6\]
*851 u_fifomem\.mem\[7\]\[7\]
*852 u_fifomem\.mem\[8\]\[0\]
*853 u_fifomem\.mem\[8\]\[1\]
*854 u_fifomem\.mem\[8\]\[2\]
*855 u_fifomem\.mem\[8\]\[3\]
*856 u_fifomem\.mem\[8\]\[4\]
*857 u_fifomem\.mem\[8\]\[5\]
*858 u_fifomem\.mem\[8\]\[6\]
*859 u_fifomem\.mem\[8\]\[7\]
*860 u_fifomem\.mem\[9\]\[0\]
*861 u_fifomem\.mem\[9\]\[1\]
*862 u_fifomem\.mem\[9\]\[2\]
*863 u_fifomem\.mem\[9\]\[3\]
*864 u_fifomem\.mem\[9\]\[4\]
*865 u_fifomem\.mem\[9\]\[5\]
*866 u_fifomem\.mem\[9\]\[6\]
*867 u_fifomem\.mem\[9\]\[7\]
*868 u_fifomem\.wr_addr\[0\]
*869 u_fifomem\.wr_addr\[1\]
*870 u_fifomem\.wr_addr\[2\]
*871 u_fifomem\.wr_addr\[3\]
*872 u_rd_ptr_empty\.empty_val
*873 u_rd_ptr_empty\.rd_ptr_gray_next\[0\]
*874 u_rd_ptr_empty\.rd_ptr_gray_next\[1\]
*875 u_rd_ptr_empty\.rd_ptr_gray_next\[2\]
*876 u_rd_ptr_empty\.rd_ptr_gray_next\[3\]
*877 u_rd_reset_sync\.sync_ff1
*878 u_rd_reset_sync\.sync_ff2
*879 u_sync_r2w\.sync_stage1\[0\]
*880 u_sync_r2w\.sync_stage1\[1\]
*881 u_sync_r2w\.sync_stage1\[2\]
*882 u_sync_r2w\.sync_stage1\[3\]
*883 u_sync_r2w\.sync_stage1\[4\]
*884 u_sync_r2w\.sync_stage2\[0\]
*885 u_sync_r2w\.sync_stage2\[1\]
*886 u_sync_r2w\.sync_stage2\[2\]
*887 u_sync_r2w\.sync_stage2\[3\]
*888 u_sync_r2w\.sync_stage2\[4\]
*889 u_sync_w2r\.sync_stage1\[0\]
*890 u_sync_w2r\.sync_stage1\[1\]
*891 u_sync_w2r\.sync_stage1\[2\]
*892 u_sync_w2r\.sync_stage1\[3\]
*893 u_sync_w2r\.sync_stage1\[4\]
*894 u_sync_w2r\.sync_stage2\[0\]
*895 u_sync_w2r\.sync_stage2\[1\]
*896 u_sync_w2r\.sync_stage2\[2\]
*897 u_sync_w2r\.sync_stage2\[3\]
*898 u_sync_w2r\.sync_stage2\[4\]
*899 u_sync_w2r\.wr_ptr_gray\[0\]
*900 u_sync_w2r\.wr_ptr_gray\[1\]
*901 u_sync_w2r\.wr_ptr_gray\[2\]
*902 u_sync_w2r\.wr_ptr_gray\[3\]
*903 u_sync_w2r\.wr_ptr_gray\[4\]
*904 u_wr_ptr_full\.full_val
*905 u_wr_ptr_full\.wr_ptr_bin_next\[0\]
*906 u_wr_ptr_full\.wr_ptr_bin_next\[1\]
*907 u_wr_ptr_full\.wr_ptr_bin_next\[2\]
*908 u_wr_ptr_full\.wr_ptr_bin_next\[3\]
*909 u_wr_ptr_full\.wr_ptr_bin_next\[4\]
*910 u_wr_ptr_full\.wr_ptr_gray_next\[0\]
*911 u_wr_ptr_full\.wr_ptr_gray_next\[1\]
*912 u_wr_ptr_full\.wr_ptr_gray_next\[2\]
*913 u_wr_ptr_full\.wr_ptr_gray_next\[3\]
*914 u_wr_reset_sync\.sync_ff1
*915 u_wr_reset_sync\.sync_ff2
*916 FILLER_0_101
*917 FILLER_0_104
*918 FILLER_0_107
*919 FILLER_0_110
*920 FILLER_0_113
*921 FILLER_0_116
*922 FILLER_0_12
*923 FILLER_0_125
*924 FILLER_0_128
*925 FILLER_0_132
*926 FILLER_0_135
*927 FILLER_0_138
*928 FILLER_0_141
*929 FILLER_0_144
*930 FILLER_0_147
*931 FILLER_0_15
*932 FILLER_0_150
*933 FILLER_0_153
*934 FILLER_0_156
*935 FILLER_0_159
*936 FILLER_0_172
*937 FILLER_0_175
*938 FILLER_0_178
*939 FILLER_0_18
*940 FILLER_0_181
*941 FILLER_0_184
*942 FILLER_0_187
*943 FILLER_0_205
*944 FILLER_0_208
*945 FILLER_0_21
*946 FILLER_0_211
*947 FILLER_0_214
*948 FILLER_0_217
*949 FILLER_0_220
*950 FILLER_0_223
*951 FILLER_0_225
*952 FILLER_0_228
*953 FILLER_0_231
*954 FILLER_0_234
*955 FILLER_0_237
*956 FILLER_0_24
*957 FILLER_0_240
*958 FILLER_0_243
*959 FILLER_0_261
*960 FILLER_0_264
*961 FILLER_0_267
*962 FILLER_0_27
*963 FILLER_0_270
*964 FILLER_0_273
*965 FILLER_0_276
*966 FILLER_0_279
*967 FILLER_0_281
*968 FILLER_0_284
*969 FILLER_0_287
*970 FILLER_0_29
*971 FILLER_0_290
*972 FILLER_0_293
*973 FILLER_0_3
*974 FILLER_0_32
*975 FILLER_0_35
*976 FILLER_0_38
*977 FILLER_0_41
*978 FILLER_0_44
*979 FILLER_0_57
*980 FILLER_0_6
*981 FILLER_0_67
*982 FILLER_0_76
*983 FILLER_0_79
*984 FILLER_0_85
*985 FILLER_0_9
*986 FILLER_0_95
*987 FILLER_0_98
*988 FILLER_10_102
*989 FILLER_10_141
*990 FILLER_10_144
*991 FILLER_10_147
*992 FILLER_10_151
*993 FILLER_10_154
*994 FILLER_10_190
*995 FILLER_10_193
*996 FILLER_10_197
*997 FILLER_10_200
*998 FILLER_10_22
*999 FILLER_10_227
*1000 FILLER_10_230
*1001 FILLER_10_233
*1002 FILLER_10_236
*1003 FILLER_10_239
*1004 FILLER_10_242
*1005 FILLER_10_245
*1006 FILLER_10_248
*1007 FILLER_10_25
*1008 FILLER_10_251
*1009 FILLER_10_253
*1010 FILLER_10_256
*1011 FILLER_10_259
*1012 FILLER_10_262
*1013 FILLER_10_265
*1014 FILLER_10_268
*1015 FILLER_10_271
*1016 FILLER_10_274
*1017 FILLER_10_277
*1018 FILLER_10_280
*1019 FILLER_10_283
*1020 FILLER_10_286
*1021 FILLER_10_289
*1022 FILLER_10_29
*1023 FILLER_10_292
*1024 FILLER_10_295
*1025 FILLER_10_3
*1026 FILLER_10_32
*1027 FILLER_10_51
*1028 FILLER_10_61
*1029 FILLER_10_64
*1030 FILLER_11_109
*1031 FILLER_11_113
*1032 FILLER_11_131
*1033 FILLER_11_142
*1034 FILLER_11_145
*1035 FILLER_11_148
*1036 FILLER_11_151
*1037 FILLER_11_154
*1038 FILLER_11_157
*1039 FILLER_11_160
*1040 FILLER_11_163
*1041 FILLER_11_178
*1042 FILLER_11_181
*1043 FILLER_11_184
*1044 FILLER_11_187
*1045 FILLER_11_190
*1046 FILLER_11_193
*1047 FILLER_11_20
*1048 FILLER_11_220
*1049 FILLER_11_223
*1050 FILLER_11_23
*1051 FILLER_11_233
*1052 FILLER_11_236
*1053 FILLER_11_248
*1054 FILLER_11_258
*1055 FILLER_11_26
*1056 FILLER_11_264
*1057 FILLER_11_271
*1058 FILLER_11_274
*1059 FILLER_11_277
*1060 FILLER_11_288
*1061 FILLER_11_29
*1062 FILLER_11_291
*1063 FILLER_11_294
*1064 FILLER_11_3
*1065 FILLER_11_32
*1066 FILLER_11_35
*1067 FILLER_11_38
*1068 FILLER_11_41
*1069 FILLER_11_51
*1070 FILLER_11_54
*1071 FILLER_11_57
*1072 FILLER_11_60
*1073 FILLER_11_83
*1074 FILLER_11_86
*1075 FILLER_11_96
*1076 FILLER_12_111
*1077 FILLER_12_114
*1078 FILLER_12_12
*1079 FILLER_12_120
*1080 FILLER_12_123
*1081 FILLER_12_126
*1082 FILLER_12_129
*1083 FILLER_12_148
*1084 FILLER_12_15
*1085 FILLER_12_151
*1086 FILLER_12_154
*1087 FILLER_12_157
*1088 FILLER_12_160
*1089 FILLER_12_163
*1090 FILLER_12_166
*1091 FILLER_12_169
*1092 FILLER_12_172
*1093 FILLER_12_175
*1094 FILLER_12_178
*1095 FILLER_12_18
*1096 FILLER_12_181
*1097 FILLER_12_184
*1098 FILLER_12_187
*1099 FILLER_12_190
*1100 FILLER_12_193
*1101 FILLER_12_197
*1102 FILLER_12_226
*1103 FILLER_12_229
*1104 FILLER_12_261
*1105 FILLER_12_269
*1106 FILLER_12_272
*1107 FILLER_12_275
*1108 FILLER_12_29
*1109 FILLER_12_293
*1110 FILLER_12_3
*1111 FILLER_12_32
*1112 FILLER_12_35
*1113 FILLER_12_38
*1114 FILLER_12_41
*1115 FILLER_12_44
*1116 FILLER_12_47
*1117 FILLER_12_6
*1118 FILLER_12_68
*1119 FILLER_12_71
*1120 FILLER_12_74
*1121 FILLER_12_77
*1122 FILLER_12_80
*1123 FILLER_12_83
*1124 FILLER_12_85
*1125 FILLER_12_88
*1126 FILLER_12_9
*1127 FILLER_12_91
*1128 FILLER_12_94
*1129 FILLER_12_97
*1130 FILLER_13_100
*1131 FILLER_13_103
*1132 FILLER_13_106
*1133 FILLER_13_109
*1134 FILLER_13_113
*1135 FILLER_13_116
*1136 FILLER_13_119
*1137 FILLER_13_12
*1138 FILLER_13_122
*1139 FILLER_13_125
*1140 FILLER_13_128
*1141 FILLER_13_15
*1142 FILLER_13_150
*1143 FILLER_13_160
*1144 FILLER_13_163
*1145 FILLER_13_166
*1146 FILLER_13_169
*1147 FILLER_13_172
*1148 FILLER_13_175
*1149 FILLER_13_178
*1150 FILLER_13_181
*1151 FILLER_13_184
*1152 FILLER_13_187
*1153 FILLER_13_212
*1154 FILLER_13_215
*1155 FILLER_13_218
*1156 FILLER_13_221
*1157 FILLER_13_225
*1158 FILLER_13_228
*1159 FILLER_13_231
*1160 FILLER_13_234
*1161 FILLER_13_258
*1162 FILLER_13_3
*1163 FILLER_13_34
*1164 FILLER_13_46
*1165 FILLER_13_57
*1166 FILLER_13_6
*1167 FILLER_13_69
*1168 FILLER_13_72
*1169 FILLER_13_75
*1170 FILLER_13_78
*1171 FILLER_13_81
*1172 FILLER_13_84
*1173 FILLER_13_9
*1174 FILLER_13_94
*1175 FILLER_13_97
*1176 FILLER_14_106
*1177 FILLER_14_109
*1178 FILLER_14_112
*1179 FILLER_14_115
*1180 FILLER_14_118
*1181 FILLER_14_121
*1182 FILLER_14_141
*1183 FILLER_14_144
*1184 FILLER_14_167
*1185 FILLER_14_170
*1186 FILLER_14_173
*1187 FILLER_14_179
*1188 FILLER_14_182
*1189 FILLER_14_185
*1190 FILLER_14_188
*1191 FILLER_14_191
*1192 FILLER_14_194
*1193 FILLER_14_197
*1194 FILLER_14_203
*1195 FILLER_14_206
*1196 FILLER_14_209
*1197 FILLER_14_212
*1198 FILLER_14_215
*1199 FILLER_14_218
*1200 FILLER_14_221
*1201 FILLER_14_224
*1202 FILLER_14_227
*1203 FILLER_14_230
*1204 FILLER_14_233
*1205 FILLER_14_236
*1206 FILLER_14_239
*1207 FILLER_14_249
*1208 FILLER_14_253
*1209 FILLER_14_256
*1210 FILLER_14_3
*1211 FILLER_14_49
*1212 FILLER_14_6
*1213 FILLER_14_77
*1214 FILLER_14_80
*1215 FILLER_14_83
*1216 FILLER_15_116
*1217 FILLER_15_119
*1218 FILLER_15_144
*1219 FILLER_15_186
*1220 FILLER_15_189
*1221 FILLER_15_192
*1222 FILLER_15_195
*1223 FILLER_15_198
*1224 FILLER_15_215
*1225 FILLER_15_218
*1226 FILLER_15_225
*1227 FILLER_15_228
*1228 FILLER_15_250
*1229 FILLER_15_253
*1230 FILLER_15_256
*1231 FILLER_15_259
*1232 FILLER_15_262
*1233 FILLER_15_265
*1234 FILLER_15_268
*1235 FILLER_15_278
*1236 FILLER_15_281
*1237 FILLER_15_284
*1238 FILLER_15_287
*1239 FILLER_15_3
*1240 FILLER_15_31
*1241 FILLER_15_52
*1242 FILLER_15_57
*1243 FILLER_16_114
*1244 FILLER_16_12
*1245 FILLER_16_135
*1246 FILLER_16_138
*1247 FILLER_16_187
*1248 FILLER_16_207
*1249 FILLER_16_210
*1250 FILLER_16_224
*1251 FILLER_16_227
*1252 FILLER_16_23
*1253 FILLER_16_250
*1254 FILLER_16_26
*1255 FILLER_16_266
*1256 FILLER_16_289
*1257 FILLER_16_29
*1258 FILLER_16_292
*1259 FILLER_16_295
*1260 FILLER_16_3
*1261 FILLER_16_6
*1262 FILLER_16_73
*1263 FILLER_16_76
*1264 FILLER_16_85
*1265 FILLER_16_9
*1266 FILLER_17_113
*1267 FILLER_17_140
*1268 FILLER_17_143
*1269 FILLER_17_146
*1270 FILLER_17_149
*1271 FILLER_17_152
*1272 FILLER_17_220
*1273 FILLER_17_223
*1274 FILLER_17_225
*1275 FILLER_17_228
*1276 FILLER_17_231
*1277 FILLER_17_255
*1278 FILLER_17_258
*1279 FILLER_17_28
*1280 FILLER_17_290
*1281 FILLER_17_3
*1282 FILLER_17_31
*1283 FILLER_17_34
*1284 FILLER_17_37
*1285 FILLER_17_57
*1286 FILLER_17_6
*1287 FILLER_17_62
*1288 FILLER_17_65
*1289 FILLER_17_68
*1290 FILLER_17_71
*1291 FILLER_17_74
*1292 FILLER_17_77
*1293 FILLER_17_80
*1294 FILLER_17_83
*1295 FILLER_18_108
*1296 FILLER_18_111
*1297 FILLER_18_114
*1298 FILLER_18_117
*1299 FILLER_18_120
*1300 FILLER_18_123
*1301 FILLER_18_126
*1302 FILLER_18_129
*1303 FILLER_18_134
*1304 FILLER_18_137
*1305 FILLER_18_141
*1306 FILLER_18_144
*1307 FILLER_18_147
*1308 FILLER_18_150
*1309 FILLER_18_153
*1310 FILLER_18_156
*1311 FILLER_18_159
*1312 FILLER_18_164
*1313 FILLER_18_167
*1314 FILLER_18_178
*1315 FILLER_18_181
*1316 FILLER_18_184
*1317 FILLER_18_187
*1318 FILLER_18_206
*1319 FILLER_18_248
*1320 FILLER_18_251
*1321 FILLER_18_253
*1322 FILLER_18_26
*1323 FILLER_18_273
*1324 FILLER_18_3
*1325 FILLER_18_46
*1326 FILLER_18_49
*1327 FILLER_18_52
*1328 FILLER_18_55
*1329 FILLER_18_58
*1330 FILLER_18_70
*1331 FILLER_18_73
*1332 FILLER_18_76
*1333 FILLER_18_79
*1334 FILLER_18_82
*1335 FILLER_18_85
*1336 FILLER_18_88
*1337 FILLER_18_93
*1338 FILLER_18_96
*1339 FILLER_19_101
*1340 FILLER_19_104
*1341 FILLER_19_107
*1342 FILLER_19_110
*1343 FILLER_19_113
*1344 FILLER_19_116
*1345 FILLER_19_119
*1346 FILLER_19_122
*1347 FILLER_19_125
*1348 FILLER_19_132
*1349 FILLER_19_150
*1350 FILLER_19_156
*1351 FILLER_19_159
*1352 FILLER_19_184
*1353 FILLER_19_195
*1354 FILLER_19_198
*1355 FILLER_19_207
*1356 FILLER_19_211
*1357 FILLER_19_214
*1358 FILLER_19_238
*1359 FILLER_19_272
*1360 FILLER_19_275
*1361 FILLER_19_278
*1362 FILLER_19_281
*1363 FILLER_19_38
*1364 FILLER_19_41
*1365 FILLER_19_44
*1366 FILLER_19_57
*1367 FILLER_19_60
*1368 FILLER_19_74
*1369 FILLER_19_77
*1370 FILLER_19_80
*1371 FILLER_19_83
*1372 FILLER_19_86
*1373 FILLER_19_89
*1374 FILLER_19_92
*1375 FILLER_19_95
*1376 FILLER_19_98
*1377 FILLER_1_102
*1378 FILLER_1_105
*1379 FILLER_1_108
*1380 FILLER_1_111
*1381 FILLER_1_12
*1382 FILLER_1_139
*1383 FILLER_1_142
*1384 FILLER_1_145
*1385 FILLER_1_15
*1386 FILLER_1_162
*1387 FILLER_1_178
*1388 FILLER_1_18
*1389 FILLER_1_181
*1390 FILLER_1_184
*1391 FILLER_1_206
*1392 FILLER_1_209
*1393 FILLER_1_21
*1394 FILLER_1_225
*1395 FILLER_1_228
*1396 FILLER_1_231
*1397 FILLER_1_234
*1398 FILLER_1_237
*1399 FILLER_1_24
*1400 FILLER_1_240
*1401 FILLER_1_264
*1402 FILLER_1_267
*1403 FILLER_1_27
*1404 FILLER_1_270
*1405 FILLER_1_273
*1406 FILLER_1_279
*1407 FILLER_1_281
*1408 FILLER_1_284
*1409 FILLER_1_287
*1410 FILLER_1_3
*1411 FILLER_1_30
*1412 FILLER_1_33
*1413 FILLER_1_36
*1414 FILLER_1_55
*1415 FILLER_1_6
*1416 FILLER_1_74
*1417 FILLER_1_9
*1418 FILLER_1_96
*1419 FILLER_1_99
*1420 FILLER_20_114
*1421 FILLER_20_117
*1422 FILLER_20_120
*1423 FILLER_20_150
*1424 FILLER_20_161
*1425 FILLER_20_182
*1426 FILLER_20_185
*1427 FILLER_20_188
*1428 FILLER_20_191
*1429 FILLER_20_194
*1430 FILLER_20_219
*1431 FILLER_20_222
*1432 FILLER_20_231
*1433 FILLER_20_234
*1434 FILLER_20_242
*1435 FILLER_20_245
*1436 FILLER_20_248
*1437 FILLER_20_251
*1438 FILLER_20_295
*1439 FILLER_20_3
*1440 FILLER_20_49
*1441 FILLER_20_76
*1442 FILLER_20_79
*1443 FILLER_20_82
*1444 FILLER_20_85
*1445 FILLER_21_116
*1446 FILLER_21_156
*1447 FILLER_21_169
*1448 FILLER_21_184
*1449 FILLER_21_187
*1450 FILLER_21_190
*1451 FILLER_21_193
*1452 FILLER_21_196
*1453 FILLER_21_199
*1454 FILLER_21_202
*1455 FILLER_21_225
*1456 FILLER_21_23
*1457 FILLER_21_243
*1458 FILLER_21_246
*1459 FILLER_21_249
*1460 FILLER_21_281
*1461 FILLER_21_284
*1462 FILLER_21_287
*1463 FILLER_21_290
*1464 FILLER_21_293
*1465 FILLER_21_57
*1466 FILLER_22_12
*1467 FILLER_22_129
*1468 FILLER_22_139
*1469 FILLER_22_147
*1470 FILLER_22_15
*1471 FILLER_22_165
*1472 FILLER_22_18
*1473 FILLER_22_188
*1474 FILLER_22_191
*1475 FILLER_22_194
*1476 FILLER_22_197
*1477 FILLER_22_21
*1478 FILLER_22_219
*1479 FILLER_22_24
*1480 FILLER_22_253
*1481 FILLER_22_256
*1482 FILLER_22_259
*1483 FILLER_22_27
*1484 FILLER_22_281
*1485 FILLER_22_284
*1486 FILLER_22_287
*1487 FILLER_22_290
*1488 FILLER_22_293
*1489 FILLER_22_49
*1490 FILLER_22_71
*1491 FILLER_22_74
*1492 FILLER_22_77
*1493 FILLER_23_121
*1494 FILLER_23_124
*1495 FILLER_23_15
*1496 FILLER_23_156
*1497 FILLER_23_166
*1498 FILLER_23_169
*1499 FILLER_23_188
*1500 FILLER_23_19
*1501 FILLER_23_191
*1502 FILLER_23_215
*1503 FILLER_23_218
*1504 FILLER_23_22
*1505 FILLER_23_221
*1506 FILLER_23_225
*1507 FILLER_23_25
*1508 FILLER_23_254
*1509 FILLER_23_257
*1510 FILLER_23_28
*1511 FILLER_23_281
*1512 FILLER_23_284
*1513 FILLER_23_287
*1514 FILLER_23_290
*1515 FILLER_23_293
*1516 FILLER_23_31
*1517 FILLER_23_34
*1518 FILLER_23_54
*1519 FILLER_23_57
*1520 FILLER_23_60
*1521 FILLER_23_71
*1522 FILLER_23_74
*1523 FILLER_23_77
*1524 FILLER_23_80
*1525 FILLER_24_108
*1526 FILLER_24_111
*1527 FILLER_24_114
*1528 FILLER_24_117
*1529 FILLER_24_120
*1530 FILLER_24_123
*1531 FILLER_24_126
*1532 FILLER_24_129
*1533 FILLER_24_141
*1534 FILLER_24_150
*1535 FILLER_24_168
*1536 FILLER_24_171
*1537 FILLER_24_174
*1538 FILLER_24_185
*1539 FILLER_24_188
*1540 FILLER_24_191
*1541 FILLER_24_194
*1542 FILLER_24_238
*1543 FILLER_24_24
*1544 FILLER_24_253
*1545 FILLER_24_256
*1546 FILLER_24_259
*1547 FILLER_24_267
*1548 FILLER_24_27
*1549 FILLER_24_270
*1550 FILLER_24_29
*1551 FILLER_24_294
*1552 FILLER_24_32
*1553 FILLER_24_35
*1554 FILLER_24_47
*1555 FILLER_24_50
*1556 FILLER_24_53
*1557 FILLER_24_56
*1558 FILLER_24_59
*1559 FILLER_24_62
*1560 FILLER_24_65
*1561 FILLER_24_68
*1562 FILLER_24_71
*1563 FILLER_24_74
*1564 FILLER_24_77
*1565 FILLER_24_80
*1566 FILLER_24_83
*1567 FILLER_24_85
*1568 FILLER_24_88
*1569 FILLER_24_9
*1570 FILLER_24_93
*1571 FILLER_24_96
*1572 FILLER_25_113
*1573 FILLER_25_116
*1574 FILLER_25_127
*1575 FILLER_25_130
*1576 FILLER_25_133
*1577 FILLER_25_136
*1578 FILLER_25_139
*1579 FILLER_25_142
*1580 FILLER_25_145
*1581 FILLER_25_169
*1582 FILLER_25_187
*1583 FILLER_25_190
*1584 FILLER_25_21
*1585 FILLER_25_214
*1586 FILLER_25_217
*1587 FILLER_25_220
*1588 FILLER_25_223
*1589 FILLER_25_24
*1590 FILLER_25_246
*1591 FILLER_25_249
*1592 FILLER_25_252
*1593 FILLER_25_255
*1594 FILLER_25_258
*1595 FILLER_25_27
*1596 FILLER_25_281
*1597 FILLER_25_284
*1598 FILLER_25_287
*1599 FILLER_25_290
*1600 FILLER_25_293
*1601 FILLER_25_3
*1602 FILLER_25_30
*1603 FILLER_25_33
*1604 FILLER_25_36
*1605 FILLER_25_39
*1606 FILLER_25_42
*1607 FILLER_25_45
*1608 FILLER_25_48
*1609 FILLER_25_51
*1610 FILLER_25_54
*1611 FILLER_25_57
*1612 FILLER_25_60
*1613 FILLER_25_71
*1614 FILLER_25_74
*1615 FILLER_25_84
*1616 FILLER_25_87
*1617 FILLER_25_90
*1618 FILLER_25_93
*1619 FILLER_25_96
*1620 FILLER_26_102
*1621 FILLER_26_112
*1622 FILLER_26_115
*1623 FILLER_26_136
*1624 FILLER_26_139
*1625 FILLER_26_141
*1626 FILLER_26_144
*1627 FILLER_26_152
*1628 FILLER_26_155
*1629 FILLER_26_169
*1630 FILLER_26_183
*1631 FILLER_26_186
*1632 FILLER_26_189
*1633 FILLER_26_192
*1634 FILLER_26_195
*1635 FILLER_26_197
*1636 FILLER_26_200
*1637 FILLER_26_203
*1638 FILLER_26_206
*1639 FILLER_26_209
*1640 FILLER_26_212
*1641 FILLER_26_215
*1642 FILLER_26_218
*1643 FILLER_26_221
*1644 FILLER_26_227
*1645 FILLER_26_230
*1646 FILLER_26_239
*1647 FILLER_26_242
*1648 FILLER_26_245
*1649 FILLER_26_248
*1650 FILLER_26_251
*1651 FILLER_26_253
*1652 FILLER_26_256
*1653 FILLER_26_259
*1654 FILLER_26_262
*1655 FILLER_26_265
*1656 FILLER_26_289
*1657 FILLER_26_292
*1658 FILLER_26_295
*1659 FILLER_26_38
*1660 FILLER_26_41
*1661 FILLER_26_44
*1662 FILLER_26_47
*1663 FILLER_26_50
*1664 FILLER_26_57
*1665 FILLER_26_68
*1666 FILLER_26_80
*1667 FILLER_26_9
*1668 FILLER_26_96
*1669 FILLER_26_99
*1670 FILLER_27_105
*1671 FILLER_27_113
*1672 FILLER_27_116
*1673 FILLER_27_153
*1674 FILLER_27_156
*1675 FILLER_27_180
*1676 FILLER_27_183
*1677 FILLER_27_186
*1678 FILLER_27_211
*1679 FILLER_27_214
*1680 FILLER_27_217
*1681 FILLER_27_220
*1682 FILLER_27_223
*1683 FILLER_27_225
*1684 FILLER_27_228
*1685 FILLER_27_231
*1686 FILLER_27_234
*1687 FILLER_27_237
*1688 FILLER_27_281
*1689 FILLER_27_287
*1690 FILLER_27_3
*1691 FILLER_27_47
*1692 FILLER_27_6
*1693 FILLER_28_129
*1694 FILLER_28_132
*1695 FILLER_28_135
*1696 FILLER_28_139
*1697 FILLER_28_185
*1698 FILLER_28_188
*1699 FILLER_28_191
*1700 FILLER_28_194
*1701 FILLER_28_218
*1702 FILLER_28_221
*1703 FILLER_28_224
*1704 FILLER_28_227
*1705 FILLER_28_23
*1706 FILLER_28_230
*1707 FILLER_28_253
*1708 FILLER_28_85
*1709 FILLER_28_88
*1710 FILLER_29_101
*1711 FILLER_29_116
*1712 FILLER_29_119
*1713 FILLER_29_138
*1714 FILLER_29_141
*1715 FILLER_29_144
*1716 FILLER_29_147
*1717 FILLER_29_150
*1718 FILLER_29_153
*1719 FILLER_29_169
*1720 FILLER_29_178
*1721 FILLER_29_181
*1722 FILLER_29_184
*1723 FILLER_29_187
*1724 FILLER_29_193
*1725 FILLER_29_196
*1726 FILLER_29_199
*1727 FILLER_29_202
*1728 FILLER_29_23
*1729 FILLER_29_238
*1730 FILLER_29_26
*1731 FILLER_29_275
*1732 FILLER_29_278
*1733 FILLER_29_281
*1734 FILLER_29_284
*1735 FILLER_29_287
*1736 FILLER_29_29
*1737 FILLER_29_290
*1738 FILLER_29_40
*1739 FILLER_29_43
*1740 FILLER_29_46
*1741 FILLER_29_49
*1742 FILLER_29_74
*1743 FILLER_29_9
*1744 FILLER_29_93
*1745 FILLER_29_96
*1746 FILLER_2_102
*1747 FILLER_2_105
*1748 FILLER_2_141
*1749 FILLER_2_144
*1750 FILLER_2_181
*1751 FILLER_2_184
*1752 FILLER_2_187
*1753 FILLER_2_190
*1754 FILLER_2_193
*1755 FILLER_2_197
*1756 FILLER_2_216
*1757 FILLER_2_233
*1758 FILLER_2_243
*1759 FILLER_2_246
*1760 FILLER_2_249
*1761 FILLER_2_295
*1762 FILLER_2_3
*1763 FILLER_2_38
*1764 FILLER_2_6
*1765 FILLER_2_66
*1766 FILLER_2_9
*1767 FILLER_30_100
*1768 FILLER_30_103
*1769 FILLER_30_12
*1770 FILLER_30_122
*1771 FILLER_30_127
*1772 FILLER_30_130
*1773 FILLER_30_139
*1774 FILLER_30_141
*1775 FILLER_30_144
*1776 FILLER_30_147
*1777 FILLER_30_15
*1778 FILLER_30_150
*1779 FILLER_30_175
*1780 FILLER_30_178
*1781 FILLER_30_18
*1782 FILLER_30_181
*1783 FILLER_30_184
*1784 FILLER_30_187
*1785 FILLER_30_190
*1786 FILLER_30_197
*1787 FILLER_30_205
*1788 FILLER_30_208
*1789 FILLER_30_21
*1790 FILLER_30_211
*1791 FILLER_30_235
*1792 FILLER_30_24
*1793 FILLER_30_251
*1794 FILLER_30_27
*1795 FILLER_30_272
*1796 FILLER_30_29
*1797 FILLER_30_32
*1798 FILLER_30_35
*1799 FILLER_30_38
*1800 FILLER_30_41
*1801 FILLER_30_44
*1802 FILLER_30_47
*1803 FILLER_30_67
*1804 FILLER_30_70
*1805 FILLER_30_73
*1806 FILLER_30_83
*1807 FILLER_30_9
*1808 FILLER_30_94
*1809 FILLER_30_97
*1810 FILLER_31_113
*1811 FILLER_31_116
*1812 FILLER_31_119
*1813 FILLER_31_122
*1814 FILLER_31_125
*1815 FILLER_31_128
*1816 FILLER_31_131
*1817 FILLER_31_134
*1818 FILLER_31_137
*1819 FILLER_31_140
*1820 FILLER_31_143
*1821 FILLER_31_146
*1822 FILLER_31_149
*1823 FILLER_31_15
*1824 FILLER_31_178
*1825 FILLER_31_181
*1826 FILLER_31_184
*1827 FILLER_31_187
*1828 FILLER_31_190
*1829 FILLER_31_193
*1830 FILLER_31_200
*1831 FILLER_31_208
*1832 FILLER_31_225
*1833 FILLER_31_281
*1834 FILLER_31_35
*1835 FILLER_31_38
*1836 FILLER_31_41
*1837 FILLER_31_44
*1838 FILLER_31_51
*1839 FILLER_31_54
*1840 FILLER_31_57
*1841 FILLER_31_6
*1842 FILLER_31_60
*1843 FILLER_31_63
*1844 FILLER_31_66
*1845 FILLER_31_69
*1846 FILLER_31_72
*1847 FILLER_31_75
*1848 FILLER_31_78
*1849 FILLER_31_81
*1850 FILLER_31_84
*1851 FILLER_31_87
*1852 FILLER_31_9
*1853 FILLER_31_90
*1854 FILLER_31_93
*1855 FILLER_31_96
*1856 FILLER_31_99
*1857 FILLER_32_112
*1858 FILLER_32_115
*1859 FILLER_32_118
*1860 FILLER_32_121
*1861 FILLER_32_124
*1862 FILLER_32_127
*1863 FILLER_32_130
*1864 FILLER_32_133
*1865 FILLER_32_136
*1866 FILLER_32_139
*1867 FILLER_32_141
*1868 FILLER_32_144
*1869 FILLER_32_185
*1870 FILLER_32_188
*1871 FILLER_32_209
*1872 FILLER_32_212
*1873 FILLER_32_215
*1874 FILLER_32_26
*1875 FILLER_32_274
*1876 FILLER_32_29
*1877 FILLER_32_48
*1878 FILLER_32_83
*1879 FILLER_32_85
*1880 FILLER_32_88
*1881 FILLER_32_91
*1882 FILLER_32_94
*1883 FILLER_33_107
*1884 FILLER_33_110
*1885 FILLER_33_113
*1886 FILLER_33_131
*1887 FILLER_33_134
*1888 FILLER_33_137
*1889 FILLER_33_160
*1890 FILLER_33_163
*1891 FILLER_33_166
*1892 FILLER_33_169
*1893 FILLER_33_172
*1894 FILLER_33_175
*1895 FILLER_33_178
*1896 FILLER_33_181
*1897 FILLER_33_184
*1898 FILLER_33_201
*1899 FILLER_33_215
*1900 FILLER_33_218
*1901 FILLER_33_221
*1902 FILLER_33_225
*1903 FILLER_33_228
*1904 FILLER_33_231
*1905 FILLER_33_234
*1906 FILLER_33_238
*1907 FILLER_33_241
*1908 FILLER_33_244
*1909 FILLER_33_247
*1910 FILLER_33_250
*1911 FILLER_33_253
*1912 FILLER_33_256
*1913 FILLER_33_279
*1914 FILLER_33_281
*1915 FILLER_33_291
*1916 FILLER_33_50
*1917 FILLER_33_69
*1918 FILLER_34_141
*1919 FILLER_34_164
*1920 FILLER_34_167
*1921 FILLER_34_179
*1922 FILLER_34_197
*1923 FILLER_34_207
*1924 FILLER_34_210
*1925 FILLER_34_213
*1926 FILLER_34_216
*1927 FILLER_34_219
*1928 FILLER_34_222
*1929 FILLER_34_233
*1930 FILLER_34_236
*1931 FILLER_34_239
*1932 FILLER_34_242
*1933 FILLER_34_245
*1934 FILLER_34_248
*1935 FILLER_34_251
*1936 FILLER_34_253
*1937 FILLER_34_256
*1938 FILLER_34_259
*1939 FILLER_34_262
*1940 FILLER_34_265
*1941 FILLER_34_268
*1942 FILLER_34_291
*1943 FILLER_34_294
*1944 FILLER_34_9
*1945 FILLER_34_94
*1946 FILLER_35_113
*1947 FILLER_35_116
*1948 FILLER_35_135
*1949 FILLER_35_138
*1950 FILLER_35_141
*1951 FILLER_35_144
*1952 FILLER_35_147
*1953 FILLER_35_150
*1954 FILLER_35_160
*1955 FILLER_35_163
*1956 FILLER_35_192
*1957 FILLER_35_212
*1958 FILLER_35_215
*1959 FILLER_35_218
*1960 FILLER_35_221
*1961 FILLER_35_225
*1962 FILLER_35_228
*1963 FILLER_35_231
*1964 FILLER_35_234
*1965 FILLER_35_237
*1966 FILLER_35_259
*1967 FILLER_35_262
*1968 FILLER_35_265
*1969 FILLER_35_279
*1970 FILLER_35_281
*1971 FILLER_35_292
*1972 FILLER_35_295
*1973 FILLER_35_3
*1974 FILLER_35_38
*1975 FILLER_35_41
*1976 FILLER_35_44
*1977 FILLER_35_47
*1978 FILLER_35_50
*1979 FILLER_35_53
*1980 FILLER_35_6
*1981 FILLER_35_66
*1982 FILLER_35_69
*1983 FILLER_35_88
*1984 FILLER_35_91
*1985 FILLER_35_94
*1986 FILLER_36_11
*1987 FILLER_36_124
*1988 FILLER_36_127
*1989 FILLER_36_130
*1990 FILLER_36_133
*1991 FILLER_36_136
*1992 FILLER_36_139
*1993 FILLER_36_14
*1994 FILLER_36_141
*1995 FILLER_36_144
*1996 FILLER_36_148
*1997 FILLER_36_151
*1998 FILLER_36_154
*1999 FILLER_36_157
*2000 FILLER_36_17
*2001 FILLER_36_176
*2002 FILLER_36_179
*2003 FILLER_36_182
*2004 FILLER_36_185
*2005 FILLER_36_207
*2006 FILLER_36_210
*2007 FILLER_36_213
*2008 FILLER_36_233
*2009 FILLER_36_236
*2010 FILLER_36_239
*2011 FILLER_36_242
*2012 FILLER_36_245
*2013 FILLER_36_258
*2014 FILLER_36_261
*2015 FILLER_36_264
*2016 FILLER_36_277
*2017 FILLER_36_280
*2018 FILLER_36_283
*2019 FILLER_36_286
*2020 FILLER_36_289
*2021 FILLER_36_29
*2022 FILLER_36_292
*2023 FILLER_36_295
*2024 FILLER_36_34
*2025 FILLER_36_37
*2026 FILLER_36_40
*2027 FILLER_36_43
*2028 FILLER_36_46
*2029 FILLER_36_49
*2030 FILLER_36_52
*2031 FILLER_36_66
*2032 FILLER_36_69
*2033 FILLER_36_72
*2034 FILLER_36_75
*2035 FILLER_36_78
*2036 FILLER_36_81
*2037 FILLER_36_85
*2038 FILLER_36_88
*2039 FILLER_36_91
*2040 FILLER_36_94
*2041 FILLER_36_97
*2042 FILLER_37_105
*2043 FILLER_37_108
*2044 FILLER_37_111
*2045 FILLER_37_113
*2046 FILLER_37_149
*2047 FILLER_37_169
*2048 FILLER_37_172
*2049 FILLER_37_175
*2050 FILLER_37_178
*2051 FILLER_37_18
*2052 FILLER_37_181
*2053 FILLER_37_184
*2054 FILLER_37_187
*2055 FILLER_37_207
*2056 FILLER_37_21
*2057 FILLER_37_210
*2058 FILLER_37_213
*2059 FILLER_37_225
*2060 FILLER_37_232
*2061 FILLER_37_235
*2062 FILLER_37_238
*2063 FILLER_37_241
*2064 FILLER_37_244
*2065 FILLER_37_247
*2066 FILLER_37_260
*2067 FILLER_37_263
*2068 FILLER_37_272
*2069 FILLER_37_281
*2070 FILLER_37_293
*2071 FILLER_37_3
*2072 FILLER_37_49
*2073 FILLER_37_52
*2074 FILLER_37_55
*2075 FILLER_37_57
*2076 FILLER_37_6
*2077 FILLER_37_71
*2078 FILLER_37_74
*2079 FILLER_37_77
*2080 FILLER_37_80
*2081 FILLER_37_83
*2082 FILLER_37_86
*2083 FILLER_38_112
*2084 FILLER_38_125
*2085 FILLER_38_128
*2086 FILLER_38_181
*2087 FILLER_38_184
*2088 FILLER_38_187
*2089 FILLER_38_197
*2090 FILLER_38_200
*2091 FILLER_38_203
*2092 FILLER_38_206
*2093 FILLER_38_209
*2094 FILLER_38_212
*2095 FILLER_38_215
*2096 FILLER_38_218
*2097 FILLER_38_237
*2098 FILLER_38_240
*2099 FILLER_38_243
*2100 FILLER_38_246
*2101 FILLER_38_249
*2102 FILLER_38_26
*2103 FILLER_38_264
*2104 FILLER_38_274
*2105 FILLER_38_277
*2106 FILLER_38_288
*2107 FILLER_38_291
*2108 FILLER_38_294
*2109 FILLER_38_3
*2110 FILLER_38_46
*2111 FILLER_38_49
*2112 FILLER_38_52
*2113 FILLER_38_79
*2114 FILLER_38_82
*2115 FILLER_38_85
*2116 FILLER_39_109
*2117 FILLER_39_122
*2118 FILLER_39_125
*2119 FILLER_39_128
*2120 FILLER_39_131
*2121 FILLER_39_134
*2122 FILLER_39_137
*2123 FILLER_39_140
*2124 FILLER_39_169
*2125 FILLER_39_172
*2126 FILLER_39_175
*2127 FILLER_39_178
*2128 FILLER_39_181
*2129 FILLER_39_184
*2130 FILLER_39_215
*2131 FILLER_39_218
*2132 FILLER_39_22
*2133 FILLER_39_221
*2134 FILLER_39_225
*2135 FILLER_39_245
*2136 FILLER_39_248
*2137 FILLER_39_25
*2138 FILLER_39_251
*2139 FILLER_39_254
*2140 FILLER_39_277
*2141 FILLER_39_286
*2142 FILLER_39_289
*2143 FILLER_39_292
*2144 FILLER_39_295
*2145 FILLER_39_3
*2146 FILLER_39_60
*2147 FILLER_39_82
*2148 FILLER_39_85
*2149 FILLER_3_101
*2150 FILLER_3_104
*2151 FILLER_3_107
*2152 FILLER_3_119
*2153 FILLER_3_143
*2154 FILLER_3_146
*2155 FILLER_3_210
*2156 FILLER_3_221
*2157 FILLER_3_231
*2158 FILLER_3_234
*2159 FILLER_3_248
*2160 FILLER_3_251
*2161 FILLER_3_254
*2162 FILLER_3_257
*2163 FILLER_3_260
*2164 FILLER_3_273
*2165 FILLER_3_276
*2166 FILLER_3_279
*2167 FILLER_3_281
*2168 FILLER_3_284
*2169 FILLER_3_287
*2170 FILLER_3_290
*2171 FILLER_3_293
*2172 FILLER_3_3
*2173 FILLER_3_55
*2174 FILLER_3_57
*2175 FILLER_3_6
*2176 FILLER_3_60
*2177 FILLER_3_71
*2178 FILLER_3_9
*2179 FILLER_3_95
*2180 FILLER_3_98
*2181 FILLER_40_135
*2182 FILLER_40_138
*2183 FILLER_40_141
*2184 FILLER_40_144
*2185 FILLER_40_147
*2186 FILLER_40_150
*2187 FILLER_40_153
*2188 FILLER_40_156
*2189 FILLER_40_165
*2190 FILLER_40_168
*2191 FILLER_40_171
*2192 FILLER_40_174
*2193 FILLER_40_177
*2194 FILLER_40_214
*2195 FILLER_40_238
*2196 FILLER_40_241
*2197 FILLER_40_244
*2198 FILLER_40_247
*2199 FILLER_40_250
*2200 FILLER_40_253
*2201 FILLER_40_256
*2202 FILLER_40_278
*2203 FILLER_40_281
*2204 FILLER_40_284
*2205 FILLER_40_287
*2206 FILLER_40_290
*2207 FILLER_40_293
*2208 FILLER_40_3
*2209 FILLER_40_32
*2210 FILLER_40_35
*2211 FILLER_40_38
*2212 FILLER_40_6
*2213 FILLER_40_79
*2214 FILLER_40_82
*2215 FILLER_40_85
*2216 FILLER_41_107
*2217 FILLER_41_11
*2218 FILLER_41_113
*2219 FILLER_41_116
*2220 FILLER_41_119
*2221 FILLER_41_14
*2222 FILLER_41_157
*2223 FILLER_41_160
*2224 FILLER_41_163
*2225 FILLER_41_166
*2226 FILLER_41_169
*2227 FILLER_41_17
*2228 FILLER_41_172
*2229 FILLER_41_175
*2230 FILLER_41_178
*2231 FILLER_41_181
*2232 FILLER_41_212
*2233 FILLER_41_225
*2234 FILLER_41_232
*2235 FILLER_41_235
*2236 FILLER_41_238
*2237 FILLER_41_241
*2238 FILLER_41_244
*2239 FILLER_41_26
*2240 FILLER_41_281
*2241 FILLER_41_284
*2242 FILLER_41_287
*2243 FILLER_41_29
*2244 FILLER_41_290
*2245 FILLER_41_293
*2246 FILLER_41_32
*2247 FILLER_41_35
*2248 FILLER_41_38
*2249 FILLER_41_57
*2250 FILLER_41_60
*2251 FILLER_41_80
*2252 FILLER_41_83
*2253 FILLER_41_86
*2254 FILLER_41_89
*2255 FILLER_42_112
*2256 FILLER_42_12
*2257 FILLER_42_122
*2258 FILLER_42_125
*2259 FILLER_42_141
*2260 FILLER_42_15
*2261 FILLER_42_151
*2262 FILLER_42_154
*2263 FILLER_42_157
*2264 FILLER_42_176
*2265 FILLER_42_179
*2266 FILLER_42_18
*2267 FILLER_42_182
*2268 FILLER_42_185
*2269 FILLER_42_188
*2270 FILLER_42_191
*2271 FILLER_42_194
*2272 FILLER_42_197
*2273 FILLER_42_21
*2274 FILLER_42_211
*2275 FILLER_42_214
*2276 FILLER_42_24
*2277 FILLER_42_242
*2278 FILLER_42_245
*2279 FILLER_42_248
*2280 FILLER_42_251
*2281 FILLER_42_253
*2282 FILLER_42_256
*2283 FILLER_42_259
*2284 FILLER_42_27
*2285 FILLER_42_279
*2286 FILLER_42_282
*2287 FILLER_42_285
*2288 FILLER_42_288
*2289 FILLER_42_29
*2290 FILLER_42_291
*2291 FILLER_42_294
*2292 FILLER_42_3
*2293 FILLER_42_32
*2294 FILLER_42_35
*2295 FILLER_42_38
*2296 FILLER_42_41
*2297 FILLER_42_44
*2298 FILLER_42_6
*2299 FILLER_42_65
*2300 FILLER_42_77
*2301 FILLER_42_80
*2302 FILLER_42_83
*2303 FILLER_42_85
*2304 FILLER_42_88
*2305 FILLER_42_9
*2306 FILLER_42_91
*2307 FILLER_43_113
*2308 FILLER_43_116
*2309 FILLER_43_119
*2310 FILLER_43_122
*2311 FILLER_43_125
*2312 FILLER_43_140
*2313 FILLER_43_143
*2314 FILLER_43_146
*2315 FILLER_43_149
*2316 FILLER_43_172
*2317 FILLER_43_175
*2318 FILLER_43_178
*2319 FILLER_43_181
*2320 FILLER_43_184
*2321 FILLER_43_187
*2322 FILLER_43_20
*2323 FILLER_43_204
*2324 FILLER_43_221
*2325 FILLER_43_225
*2326 FILLER_43_229
*2327 FILLER_43_232
*2328 FILLER_43_235
*2329 FILLER_43_238
*2330 FILLER_43_241
*2331 FILLER_43_244
*2332 FILLER_43_247
*2333 FILLER_43_250
*2334 FILLER_43_253
*2335 FILLER_43_256
*2336 FILLER_43_259
*2337 FILLER_43_281
*2338 FILLER_43_284
*2339 FILLER_43_287
*2340 FILLER_43_290
*2341 FILLER_43_293
*2342 FILLER_43_3
*2343 FILLER_43_40
*2344 FILLER_43_43
*2345 FILLER_43_46
*2346 FILLER_43_52
*2347 FILLER_43_55
*2348 FILLER_43_57
*2349 FILLER_43_6
*2350 FILLER_43_60
*2351 FILLER_43_63
*2352 FILLER_43_66
*2353 FILLER_43_69
*2354 FILLER_43_72
*2355 FILLER_43_75
*2356 FILLER_43_78
*2357 FILLER_43_81
*2358 FILLER_43_84
*2359 FILLER_43_87
*2360 FILLER_43_90
*2361 FILLER_43_93
*2362 FILLER_43_96
*2363 FILLER_43_99
*2364 FILLER_44_101
*2365 FILLER_44_104
*2366 FILLER_44_116
*2367 FILLER_44_119
*2368 FILLER_44_122
*2369 FILLER_44_141
*2370 FILLER_44_144
*2371 FILLER_44_147
*2372 FILLER_44_183
*2373 FILLER_44_186
*2374 FILLER_44_189
*2375 FILLER_44_192
*2376 FILLER_44_195
*2377 FILLER_44_197
*2378 FILLER_44_200
*2379 FILLER_44_203
*2380 FILLER_44_22
*2381 FILLER_44_221
*2382 FILLER_44_224
*2383 FILLER_44_230
*2384 FILLER_44_242
*2385 FILLER_44_245
*2386 FILLER_44_248
*2387 FILLER_44_251
*2388 FILLER_44_253
*2389 FILLER_44_3
*2390 FILLER_44_38
*2391 FILLER_44_41
*2392 FILLER_44_51
*2393 FILLER_44_54
*2394 FILLER_44_57
*2395 FILLER_44_60
*2396 FILLER_44_83
*2397 FILLER_44_85
*2398 FILLER_44_88
*2399 FILLER_44_91
*2400 FILLER_45_113
*2401 FILLER_45_144
*2402 FILLER_45_147
*2403 FILLER_45_150
*2404 FILLER_45_153
*2405 FILLER_45_177
*2406 FILLER_45_180
*2407 FILLER_45_183
*2408 FILLER_45_225
*2409 FILLER_45_236
*2410 FILLER_45_239
*2411 FILLER_45_242
*2412 FILLER_45_245
*2413 FILLER_45_248
*2414 FILLER_45_251
*2415 FILLER_45_254
*2416 FILLER_45_257
*2417 FILLER_45_260
*2418 FILLER_45_278
*2419 FILLER_45_281
*2420 FILLER_45_284
*2421 FILLER_45_287
*2422 FILLER_45_3
*2423 FILLER_45_37
*2424 FILLER_45_40
*2425 FILLER_45_43
*2426 FILLER_45_46
*2427 FILLER_45_50
*2428 FILLER_45_53
*2429 FILLER_45_57
*2430 FILLER_45_6
*2431 FILLER_45_60
*2432 FILLER_45_73
*2433 FILLER_45_76
*2434 FILLER_46_129
*2435 FILLER_46_132
*2436 FILLER_46_135
*2437 FILLER_46_138
*2438 FILLER_46_141
*2439 FILLER_46_144
*2440 FILLER_46_147
*2441 FILLER_46_150
*2442 FILLER_46_153
*2443 FILLER_46_156
*2444 FILLER_46_159
*2445 FILLER_46_178
*2446 FILLER_46_181
*2447 FILLER_46_184
*2448 FILLER_46_187
*2449 FILLER_46_190
*2450 FILLER_46_193
*2451 FILLER_46_234
*2452 FILLER_46_24
*2453 FILLER_46_242
*2454 FILLER_46_261
*2455 FILLER_46_269
*2456 FILLER_46_27
*2457 FILLER_46_29
*2458 FILLER_46_291
*2459 FILLER_46_3
*2460 FILLER_46_32
*2461 FILLER_46_50
*2462 FILLER_46_6
*2463 FILLER_46_78
*2464 FILLER_46_85
*2465 FILLER_46_88
*2466 FILLER_47_121
*2467 FILLER_47_148
*2468 FILLER_47_187
*2469 FILLER_47_190
*2470 FILLER_47_212
*2471 FILLER_47_225
*2472 FILLER_47_281
*2473 FILLER_47_3
*2474 FILLER_47_6
*2475 FILLER_47_77
*2476 FILLER_47_80
*2477 FILLER_47_83
*2478 FILLER_47_9
*2479 FILLER_48_11
*2480 FILLER_48_120
*2481 FILLER_48_123
*2482 FILLER_48_126
*2483 FILLER_48_141
*2484 FILLER_48_144
*2485 FILLER_48_147
*2486 FILLER_48_150
*2487 FILLER_48_153
*2488 FILLER_48_156
*2489 FILLER_48_179
*2490 FILLER_48_182
*2491 FILLER_48_185
*2492 FILLER_48_188
*2493 FILLER_48_191
*2494 FILLER_48_194
*2495 FILLER_48_226
*2496 FILLER_48_229
*2497 FILLER_48_232
*2498 FILLER_48_235
*2499 FILLER_48_238
*2500 FILLER_48_245
*2501 FILLER_48_248
*2502 FILLER_48_251
*2503 FILLER_48_253
*2504 FILLER_48_256
*2505 FILLER_48_259
*2506 FILLER_48_26
*2507 FILLER_48_262
*2508 FILLER_48_265
*2509 FILLER_48_268
*2510 FILLER_48_271
*2511 FILLER_48_29
*2512 FILLER_48_32
*2513 FILLER_48_35
*2514 FILLER_48_38
*2515 FILLER_48_75
*2516 FILLER_48_78
*2517 FILLER_48_81
*2518 FILLER_48_85
*2519 FILLER_48_97
*2520 FILLER_49_101
*2521 FILLER_49_113
*2522 FILLER_49_116
*2523 FILLER_49_119
*2524 FILLER_49_12
*2525 FILLER_49_122
*2526 FILLER_49_125
*2527 FILLER_49_128
*2528 FILLER_49_144
*2529 FILLER_49_147
*2530 FILLER_49_15
*2531 FILLER_49_150
*2532 FILLER_49_159
*2533 FILLER_49_162
*2534 FILLER_49_169
*2535 FILLER_49_172
*2536 FILLER_49_175
*2537 FILLER_49_178
*2538 FILLER_49_18
*2539 FILLER_49_181
*2540 FILLER_49_184
*2541 FILLER_49_187
*2542 FILLER_49_190
*2543 FILLER_49_193
*2544 FILLER_49_21
*2545 FILLER_49_213
*2546 FILLER_49_216
*2547 FILLER_49_219
*2548 FILLER_49_222
*2549 FILLER_49_225
*2550 FILLER_49_228
*2551 FILLER_49_231
*2552 FILLER_49_234
*2553 FILLER_49_237
*2554 FILLER_49_24
*2555 FILLER_49_240
*2556 FILLER_49_251
*2557 FILLER_49_253
*2558 FILLER_49_256
*2559 FILLER_49_259
*2560 FILLER_49_262
*2561 FILLER_49_265
*2562 FILLER_49_268
*2563 FILLER_49_27
*2564 FILLER_49_271
*2565 FILLER_49_274
*2566 FILLER_49_277
*2567 FILLER_49_281
*2568 FILLER_49_284
*2569 FILLER_49_287
*2570 FILLER_49_29
*2571 FILLER_49_3
*2572 FILLER_49_32
*2573 FILLER_49_35
*2574 FILLER_49_38
*2575 FILLER_49_41
*2576 FILLER_49_44
*2577 FILLER_49_47
*2578 FILLER_49_50
*2579 FILLER_49_53
*2580 FILLER_49_57
*2581 FILLER_49_6
*2582 FILLER_49_60
*2583 FILLER_49_63
*2584 FILLER_49_66
*2585 FILLER_49_69
*2586 FILLER_49_72
*2587 FILLER_49_75
*2588 FILLER_49_78
*2589 FILLER_49_81
*2590 FILLER_49_85
*2591 FILLER_49_88
*2592 FILLER_49_9
*2593 FILLER_4_100
*2594 FILLER_4_12
*2595 FILLER_4_136
*2596 FILLER_4_139
*2597 FILLER_4_141
*2598 FILLER_4_144
*2599 FILLER_4_147
*2600 FILLER_4_150
*2601 FILLER_4_153
*2602 FILLER_4_188
*2603 FILLER_4_197
*2604 FILLER_4_200
*2605 FILLER_4_210
*2606 FILLER_4_213
*2607 FILLER_4_216
*2608 FILLER_4_219
*2609 FILLER_4_222
*2610 FILLER_4_225
*2611 FILLER_4_228
*2612 FILLER_4_231
*2613 FILLER_4_234
*2614 FILLER_4_242
*2615 FILLER_4_245
*2616 FILLER_4_248
*2617 FILLER_4_251
*2618 FILLER_4_258
*2619 FILLER_4_261
*2620 FILLER_4_29
*2621 FILLER_4_3
*2622 FILLER_4_32
*2623 FILLER_4_35
*2624 FILLER_4_38
*2625 FILLER_4_41
*2626 FILLER_4_51
*2627 FILLER_4_54
*2628 FILLER_4_57
*2629 FILLER_4_6
*2630 FILLER_4_60
*2631 FILLER_4_63
*2632 FILLER_4_66
*2633 FILLER_4_69
*2634 FILLER_4_72
*2635 FILLER_4_9
*2636 FILLER_4_94
*2637 FILLER_4_97
*2638 FILLER_5_102
*2639 FILLER_5_105
*2640 FILLER_5_12
*2641 FILLER_5_133
*2642 FILLER_5_136
*2643 FILLER_5_139
*2644 FILLER_5_142
*2645 FILLER_5_145
*2646 FILLER_5_148
*2647 FILLER_5_15
*2648 FILLER_5_151
*2649 FILLER_5_154
*2650 FILLER_5_157
*2651 FILLER_5_18
*2652 FILLER_5_186
*2653 FILLER_5_189
*2654 FILLER_5_192
*2655 FILLER_5_195
*2656 FILLER_5_21
*2657 FILLER_5_233
*2658 FILLER_5_24
*2659 FILLER_5_249
*2660 FILLER_5_252
*2661 FILLER_5_255
*2662 FILLER_5_258
*2663 FILLER_5_261
*2664 FILLER_5_264
*2665 FILLER_5_267
*2666 FILLER_5_27
*2667 FILLER_5_270
*2668 FILLER_5_273
*2669 FILLER_5_276
*2670 FILLER_5_279
*2671 FILLER_5_281
*2672 FILLER_5_284
*2673 FILLER_5_287
*2674 FILLER_5_290
*2675 FILLER_5_293
*2676 FILLER_5_3
*2677 FILLER_5_30
*2678 FILLER_5_33
*2679 FILLER_5_36
*2680 FILLER_5_39
*2681 FILLER_5_42
*2682 FILLER_5_45
*2683 FILLER_5_48
*2684 FILLER_5_51
*2685 FILLER_5_54
*2686 FILLER_5_57
*2687 FILLER_5_6
*2688 FILLER_5_60
*2689 FILLER_5_63
*2690 FILLER_5_66
*2691 FILLER_5_69
*2692 FILLER_5_72
*2693 FILLER_5_75
*2694 FILLER_5_78
*2695 FILLER_5_81
*2696 FILLER_5_84
*2697 FILLER_5_87
*2698 FILLER_5_9
*2699 FILLER_5_90
*2700 FILLER_5_93
*2701 FILLER_5_96
*2702 FILLER_5_99
*2703 FILLER_6_100
*2704 FILLER_6_103
*2705 FILLER_6_106
*2706 FILLER_6_109
*2707 FILLER_6_112
*2708 FILLER_6_12
*2709 FILLER_6_123
*2710 FILLER_6_136
*2711 FILLER_6_139
*2712 FILLER_6_141
*2713 FILLER_6_144
*2714 FILLER_6_147
*2715 FILLER_6_15
*2716 FILLER_6_163
*2717 FILLER_6_166
*2718 FILLER_6_18
*2719 FILLER_6_182
*2720 FILLER_6_185
*2721 FILLER_6_188
*2722 FILLER_6_191
*2723 FILLER_6_194
*2724 FILLER_6_197
*2725 FILLER_6_201
*2726 FILLER_6_21
*2727 FILLER_6_231
*2728 FILLER_6_234
*2729 FILLER_6_24
*2730 FILLER_6_244
*2731 FILLER_6_247
*2732 FILLER_6_250
*2733 FILLER_6_253
*2734 FILLER_6_256
*2735 FILLER_6_27
*2736 FILLER_6_272
*2737 FILLER_6_29
*2738 FILLER_6_3
*2739 FILLER_6_32
*2740 FILLER_6_35
*2741 FILLER_6_38
*2742 FILLER_6_41
*2743 FILLER_6_44
*2744 FILLER_6_6
*2745 FILLER_6_64
*2746 FILLER_6_67
*2747 FILLER_6_83
*2748 FILLER_6_85
*2749 FILLER_6_88
*2750 FILLER_6_9
*2751 FILLER_7_106
*2752 FILLER_7_109
*2753 FILLER_7_113
*2754 FILLER_7_116
*2755 FILLER_7_119
*2756 FILLER_7_12
*2757 FILLER_7_122
*2758 FILLER_7_136
*2759 FILLER_7_139
*2760 FILLER_7_142
*2761 FILLER_7_15
*2762 FILLER_7_167
*2763 FILLER_7_172
*2764 FILLER_7_18
*2765 FILLER_7_185
*2766 FILLER_7_188
*2767 FILLER_7_191
*2768 FILLER_7_194
*2769 FILLER_7_218
*2770 FILLER_7_221
*2771 FILLER_7_225
*2772 FILLER_7_228
*2773 FILLER_7_231
*2774 FILLER_7_234
*2775 FILLER_7_237
*2776 FILLER_7_261
*2777 FILLER_7_264
*2778 FILLER_7_267
*2779 FILLER_7_281
*2780 FILLER_7_284
*2781 FILLER_7_3
*2782 FILLER_7_36
*2783 FILLER_7_39
*2784 FILLER_7_42
*2785 FILLER_7_45
*2786 FILLER_7_6
*2787 FILLER_7_66
*2788 FILLER_7_84
*2789 FILLER_7_9
*2790 FILLER_8_103
*2791 FILLER_8_106
*2792 FILLER_8_109
*2793 FILLER_8_112
*2794 FILLER_8_150
*2795 FILLER_8_190
*2796 FILLER_8_193
*2797 FILLER_8_197
*2798 FILLER_8_21
*2799 FILLER_8_211
*2800 FILLER_8_214
*2801 FILLER_8_222
*2802 FILLER_8_225
*2803 FILLER_8_228
*2804 FILLER_8_231
*2805 FILLER_8_234
*2806 FILLER_8_237
*2807 FILLER_8_240
*2808 FILLER_8_250
*2809 FILLER_8_253
*2810 FILLER_8_256
*2811 FILLER_8_262
*2812 FILLER_8_27
*2813 FILLER_8_286
*2814 FILLER_8_289
*2815 FILLER_8_3
*2816 FILLER_8_6
*2817 FILLER_8_61
*2818 FILLER_9_100
*2819 FILLER_9_103
*2820 FILLER_9_106
*2821 FILLER_9_113
*2822 FILLER_9_187
*2823 FILLER_9_190
*2824 FILLER_9_193
*2825 FILLER_9_196
*2826 FILLER_9_215
*2827 FILLER_9_218
*2828 FILLER_9_221
*2829 FILLER_9_225
*2830 FILLER_9_228
*2831 FILLER_9_23
*2832 FILLER_9_231
*2833 FILLER_9_234
*2834 FILLER_9_237
*2835 FILLER_9_240
*2836 FILLER_9_249
*2837 FILLER_9_252
*2838 FILLER_9_255
*2839 FILLER_9_258
*2840 FILLER_9_26
*2841 FILLER_9_261
*2842 FILLER_9_264
*2843 FILLER_9_281
*2844 FILLER_9_284
*2845 FILLER_9_287
*2846 FILLER_9_29
*2847 FILLER_9_290
*2848 FILLER_9_293
*2849 FILLER_9_3
*2850 FILLER_9_60
*2851 FILLER_9_63
*2852 FILLER_9_66
*2853 FILLER_9_69
*2854 FILLER_9_94
*2855 FILLER_9_97
*2856 PHY_EDGE_ROW_0_Left_50
*2857 PHY_EDGE_ROW_0_Right_0
*2858 PHY_EDGE_ROW_10_Left_60
*2859 PHY_EDGE_ROW_10_Right_10
*2860 PHY_EDGE_ROW_11_Left_61
*2861 PHY_EDGE_ROW_11_Right_11
*2862 PHY_EDGE_ROW_12_Left_62
*2863 PHY_EDGE_ROW_12_Right_12
*2864 PHY_EDGE_ROW_13_Left_63
*2865 PHY_EDGE_ROW_13_Right_13
*2866 PHY_EDGE_ROW_14_Left_64
*2867 PHY_EDGE_ROW_14_Right_14
*2868 PHY_EDGE_ROW_15_Left_65
*2869 PHY_EDGE_ROW_15_Right_15
*2870 PHY_EDGE_ROW_16_Left_66
*2871 PHY_EDGE_ROW_16_Right_16
*2872 PHY_EDGE_ROW_17_Left_67
*2873 PHY_EDGE_ROW_17_Right_17
*2874 PHY_EDGE_ROW_18_Left_68
*2875 PHY_EDGE_ROW_18_Right_18
*2876 PHY_EDGE_ROW_19_Left_69
*2877 PHY_EDGE_ROW_19_Right_19
*2878 PHY_EDGE_ROW_1_Left_51
*2879 PHY_EDGE_ROW_1_Right_1
*2880 PHY_EDGE_ROW_20_Left_70
*2881 PHY_EDGE_ROW_20_Right_20
*2882 PHY_EDGE_ROW_21_Left_71
*2883 PHY_EDGE_ROW_21_Right_21
*2884 PHY_EDGE_ROW_22_Left_72
*2885 PHY_EDGE_ROW_22_Right_22
*2886 PHY_EDGE_ROW_23_Left_73
*2887 PHY_EDGE_ROW_23_Right_23
*2888 PHY_EDGE_ROW_24_Left_74
*2889 PHY_EDGE_ROW_24_Right_24
*2890 PHY_EDGE_ROW_25_Left_75
*2891 PHY_EDGE_ROW_25_Right_25
*2892 PHY_EDGE_ROW_26_Left_76
*2893 PHY_EDGE_ROW_26_Right_26
*2894 PHY_EDGE_ROW_27_Left_77
*2895 PHY_EDGE_ROW_27_Right_27
*2896 PHY_EDGE_ROW_28_Left_78
*2897 PHY_EDGE_ROW_28_Right_28
*2898 PHY_EDGE_ROW_29_Left_79
*2899 PHY_EDGE_ROW_29_Right_29
*2900 PHY_EDGE_ROW_2_Left_52
*2901 PHY_EDGE_ROW_2_Right_2
*2902 PHY_EDGE_ROW_30_Left_80
*2903 PHY_EDGE_ROW_30_Right_30
*2904 PHY_EDGE_ROW_31_Left_81
*2905 PHY_EDGE_ROW_31_Right_31
*2906 PHY_EDGE_ROW_32_Left_82
*2907 PHY_EDGE_ROW_32_Right_32
*2908 PHY_EDGE_ROW_33_Left_83
*2909 PHY_EDGE_ROW_33_Right_33
*2910 PHY_EDGE_ROW_34_Left_84
*2911 PHY_EDGE_ROW_34_Right_34
*2912 PHY_EDGE_ROW_35_Left_85
*2913 PHY_EDGE_ROW_35_Right_35
*2914 PHY_EDGE_ROW_36_Left_86
*2915 PHY_EDGE_ROW_36_Right_36
*2916 PHY_EDGE_ROW_37_Left_87
*2917 PHY_EDGE_ROW_37_Right_37
*2918 PHY_EDGE_ROW_38_Left_88
*2919 PHY_EDGE_ROW_38_Right_38
*2920 PHY_EDGE_ROW_39_Left_89
*2921 PHY_EDGE_ROW_39_Right_39
*2922 PHY_EDGE_ROW_3_Left_53
*2923 PHY_EDGE_ROW_3_Right_3
*2924 PHY_EDGE_ROW_40_Left_90
*2925 PHY_EDGE_ROW_40_Right_40
*2926 PHY_EDGE_ROW_41_Left_91
*2927 PHY_EDGE_ROW_41_Right_41
*2928 PHY_EDGE_ROW_42_Left_92
*2929 PHY_EDGE_ROW_42_Right_42
*2930 PHY_EDGE_ROW_43_Left_93
*2931 PHY_EDGE_ROW_43_Right_43
*2932 PHY_EDGE_ROW_44_Left_94
*2933 PHY_EDGE_ROW_44_Right_44
*2934 PHY_EDGE_ROW_45_Left_95
*2935 PHY_EDGE_ROW_45_Right_45
*2936 PHY_EDGE_ROW_46_Left_96
*2937 PHY_EDGE_ROW_46_Right_46
*2938 PHY_EDGE_ROW_47_Left_97
*2939 PHY_EDGE_ROW_47_Right_47
*2940 PHY_EDGE_ROW_48_Left_98
*2941 PHY_EDGE_ROW_48_Right_48
*2942 PHY_EDGE_ROW_49_Left_99
*2943 PHY_EDGE_ROW_49_Right_49
*2944 PHY_EDGE_ROW_4_Left_54
*2945 PHY_EDGE_ROW_4_Right_4
*2946 PHY_EDGE_ROW_5_Left_55
*2947 PHY_EDGE_ROW_5_Right_5
*2948 PHY_EDGE_ROW_6_Left_56
*2949 PHY_EDGE_ROW_6_Right_6
*2950 PHY_EDGE_ROW_7_Left_57
*2951 PHY_EDGE_ROW_7_Right_7
*2952 PHY_EDGE_ROW_8_Left_58
*2953 PHY_EDGE_ROW_8_Right_8
*2954 PHY_EDGE_ROW_9_Left_59
*2955 PHY_EDGE_ROW_9_Right_9
*2956 TAP_TAPCELL_ROW_0_100
*2957 TAP_TAPCELL_ROW_0_101
*2958 TAP_TAPCELL_ROW_0_102
*2959 TAP_TAPCELL_ROW_0_103
*2960 TAP_TAPCELL_ROW_0_104
*2961 TAP_TAPCELL_ROW_0_105
*2962 TAP_TAPCELL_ROW_0_106
*2963 TAP_TAPCELL_ROW_0_107
*2964 TAP_TAPCELL_ROW_0_108
*2965 TAP_TAPCELL_ROW_0_109
*2966 TAP_TAPCELL_ROW_10_155
*2967 TAP_TAPCELL_ROW_10_156
*2968 TAP_TAPCELL_ROW_10_157
*2969 TAP_TAPCELL_ROW_10_158
*2970 TAP_TAPCELL_ROW_10_159
*2971 TAP_TAPCELL_ROW_11_160
*2972 TAP_TAPCELL_ROW_11_161
*2973 TAP_TAPCELL_ROW_11_162
*2974 TAP_TAPCELL_ROW_11_163
*2975 TAP_TAPCELL_ROW_11_164
*2976 TAP_TAPCELL_ROW_12_165
*2977 TAP_TAPCELL_ROW_12_166
*2978 TAP_TAPCELL_ROW_12_167
*2979 TAP_TAPCELL_ROW_12_168
*2980 TAP_TAPCELL_ROW_12_169
*2981 TAP_TAPCELL_ROW_13_170
*2982 TAP_TAPCELL_ROW_13_171
*2983 TAP_TAPCELL_ROW_13_172
*2984 TAP_TAPCELL_ROW_13_173
*2985 TAP_TAPCELL_ROW_13_174
*2986 TAP_TAPCELL_ROW_14_175
*2987 TAP_TAPCELL_ROW_14_176
*2988 TAP_TAPCELL_ROW_14_177
*2989 TAP_TAPCELL_ROW_14_178
*2990 TAP_TAPCELL_ROW_14_179
*2991 TAP_TAPCELL_ROW_15_180
*2992 TAP_TAPCELL_ROW_15_181
*2993 TAP_TAPCELL_ROW_15_182
*2994 TAP_TAPCELL_ROW_15_183
*2995 TAP_TAPCELL_ROW_15_184
*2996 TAP_TAPCELL_ROW_16_185
*2997 TAP_TAPCELL_ROW_16_186
*2998 TAP_TAPCELL_ROW_16_187
*2999 TAP_TAPCELL_ROW_16_188
*3000 TAP_TAPCELL_ROW_16_189
*3001 TAP_TAPCELL_ROW_17_190
*3002 TAP_TAPCELL_ROW_17_191
*3003 TAP_TAPCELL_ROW_17_192
*3004 TAP_TAPCELL_ROW_17_193
*3005 TAP_TAPCELL_ROW_17_194
*3006 TAP_TAPCELL_ROW_18_195
*3007 TAP_TAPCELL_ROW_18_196
*3008 TAP_TAPCELL_ROW_18_197
*3009 TAP_TAPCELL_ROW_18_198
*3010 TAP_TAPCELL_ROW_18_199
*3011 TAP_TAPCELL_ROW_19_200
*3012 TAP_TAPCELL_ROW_19_201
*3013 TAP_TAPCELL_ROW_19_202
*3014 TAP_TAPCELL_ROW_19_203
*3015 TAP_TAPCELL_ROW_19_204
*3016 TAP_TAPCELL_ROW_1_110
*3017 TAP_TAPCELL_ROW_1_111
*3018 TAP_TAPCELL_ROW_1_112
*3019 TAP_TAPCELL_ROW_1_113
*3020 TAP_TAPCELL_ROW_1_114
*3021 TAP_TAPCELL_ROW_20_205
*3022 TAP_TAPCELL_ROW_20_206
*3023 TAP_TAPCELL_ROW_20_207
*3024 TAP_TAPCELL_ROW_20_208
*3025 TAP_TAPCELL_ROW_20_209
*3026 TAP_TAPCELL_ROW_21_210
*3027 TAP_TAPCELL_ROW_21_211
*3028 TAP_TAPCELL_ROW_21_212
*3029 TAP_TAPCELL_ROW_21_213
*3030 TAP_TAPCELL_ROW_21_214
*3031 TAP_TAPCELL_ROW_22_215
*3032 TAP_TAPCELL_ROW_22_216
*3033 TAP_TAPCELL_ROW_22_217
*3034 TAP_TAPCELL_ROW_22_218
*3035 TAP_TAPCELL_ROW_22_219
*3036 TAP_TAPCELL_ROW_23_220
*3037 TAP_TAPCELL_ROW_23_221
*3038 TAP_TAPCELL_ROW_23_222
*3039 TAP_TAPCELL_ROW_23_223
*3040 TAP_TAPCELL_ROW_23_224
*3041 TAP_TAPCELL_ROW_24_225
*3042 TAP_TAPCELL_ROW_24_226
*3043 TAP_TAPCELL_ROW_24_227
*3044 TAP_TAPCELL_ROW_24_228
*3045 TAP_TAPCELL_ROW_24_229
*3046 TAP_TAPCELL_ROW_25_230
*3047 TAP_TAPCELL_ROW_25_231
*3048 TAP_TAPCELL_ROW_25_232
*3049 TAP_TAPCELL_ROW_25_233
*3050 TAP_TAPCELL_ROW_25_234
*3051 TAP_TAPCELL_ROW_26_235
*3052 TAP_TAPCELL_ROW_26_236
*3053 TAP_TAPCELL_ROW_26_237
*3054 TAP_TAPCELL_ROW_26_238
*3055 TAP_TAPCELL_ROW_26_239
*3056 TAP_TAPCELL_ROW_27_240
*3057 TAP_TAPCELL_ROW_27_241
*3058 TAP_TAPCELL_ROW_27_242
*3059 TAP_TAPCELL_ROW_27_243
*3060 TAP_TAPCELL_ROW_27_244
*3061 TAP_TAPCELL_ROW_28_245
*3062 TAP_TAPCELL_ROW_28_246
*3063 TAP_TAPCELL_ROW_28_247
*3064 TAP_TAPCELL_ROW_28_248
*3065 TAP_TAPCELL_ROW_28_249
*3066 TAP_TAPCELL_ROW_29_250
*3067 TAP_TAPCELL_ROW_29_251
*3068 TAP_TAPCELL_ROW_29_252
*3069 TAP_TAPCELL_ROW_29_253
*3070 TAP_TAPCELL_ROW_29_254
*3071 TAP_TAPCELL_ROW_2_115
*3072 TAP_TAPCELL_ROW_2_116
*3073 TAP_TAPCELL_ROW_2_117
*3074 TAP_TAPCELL_ROW_2_118
*3075 TAP_TAPCELL_ROW_2_119
*3076 TAP_TAPCELL_ROW_30_255
*3077 TAP_TAPCELL_ROW_30_256
*3078 TAP_TAPCELL_ROW_30_257
*3079 TAP_TAPCELL_ROW_30_258
*3080 TAP_TAPCELL_ROW_30_259
*3081 TAP_TAPCELL_ROW_31_260
*3082 TAP_TAPCELL_ROW_31_261
*3083 TAP_TAPCELL_ROW_31_262
*3084 TAP_TAPCELL_ROW_31_263
*3085 TAP_TAPCELL_ROW_31_264
*3086 TAP_TAPCELL_ROW_32_265
*3087 TAP_TAPCELL_ROW_32_266
*3088 TAP_TAPCELL_ROW_32_267
*3089 TAP_TAPCELL_ROW_32_268
*3090 TAP_TAPCELL_ROW_32_269
*3091 TAP_TAPCELL_ROW_33_270
*3092 TAP_TAPCELL_ROW_33_271
*3093 TAP_TAPCELL_ROW_33_272
*3094 TAP_TAPCELL_ROW_33_273
*3095 TAP_TAPCELL_ROW_33_274
*3096 TAP_TAPCELL_ROW_34_275
*3097 TAP_TAPCELL_ROW_34_276
*3098 TAP_TAPCELL_ROW_34_277
*3099 TAP_TAPCELL_ROW_34_278
*3100 TAP_TAPCELL_ROW_34_279
*3101 TAP_TAPCELL_ROW_35_280
*3102 TAP_TAPCELL_ROW_35_281
*3103 TAP_TAPCELL_ROW_35_282
*3104 TAP_TAPCELL_ROW_35_283
*3105 TAP_TAPCELL_ROW_35_284
*3106 TAP_TAPCELL_ROW_36_285
*3107 TAP_TAPCELL_ROW_36_286
*3108 TAP_TAPCELL_ROW_36_287
*3109 TAP_TAPCELL_ROW_36_288
*3110 TAP_TAPCELL_ROW_36_289
*3111 TAP_TAPCELL_ROW_37_290
*3112 TAP_TAPCELL_ROW_37_291
*3113 TAP_TAPCELL_ROW_37_292
*3114 TAP_TAPCELL_ROW_37_293
*3115 TAP_TAPCELL_ROW_37_294
*3116 TAP_TAPCELL_ROW_38_295
*3117 TAP_TAPCELL_ROW_38_296
*3118 TAP_TAPCELL_ROW_38_297
*3119 TAP_TAPCELL_ROW_38_298
*3120 TAP_TAPCELL_ROW_38_299
*3121 TAP_TAPCELL_ROW_39_300
*3122 TAP_TAPCELL_ROW_39_301
*3123 TAP_TAPCELL_ROW_39_302
*3124 TAP_TAPCELL_ROW_39_303
*3125 TAP_TAPCELL_ROW_39_304
*3126 TAP_TAPCELL_ROW_3_120
*3127 TAP_TAPCELL_ROW_3_121
*3128 TAP_TAPCELL_ROW_3_122
*3129 TAP_TAPCELL_ROW_3_123
*3130 TAP_TAPCELL_ROW_3_124
*3131 TAP_TAPCELL_ROW_40_305
*3132 TAP_TAPCELL_ROW_40_306
*3133 TAP_TAPCELL_ROW_40_307
*3134 TAP_TAPCELL_ROW_40_308
*3135 TAP_TAPCELL_ROW_40_309
*3136 TAP_TAPCELL_ROW_41_310
*3137 TAP_TAPCELL_ROW_41_311
*3138 TAP_TAPCELL_ROW_41_312
*3139 TAP_TAPCELL_ROW_41_313
*3140 TAP_TAPCELL_ROW_41_314
*3141 TAP_TAPCELL_ROW_42_315
*3142 TAP_TAPCELL_ROW_42_316
*3143 TAP_TAPCELL_ROW_42_317
*3144 TAP_TAPCELL_ROW_42_318
*3145 TAP_TAPCELL_ROW_42_319
*3146 TAP_TAPCELL_ROW_43_320
*3147 TAP_TAPCELL_ROW_43_321
*3148 TAP_TAPCELL_ROW_43_322
*3149 TAP_TAPCELL_ROW_43_323
*3150 TAP_TAPCELL_ROW_43_324
*3151 TAP_TAPCELL_ROW_44_325
*3152 TAP_TAPCELL_ROW_44_326
*3153 TAP_TAPCELL_ROW_44_327
*3154 TAP_TAPCELL_ROW_44_328
*3155 TAP_TAPCELL_ROW_44_329
*3156 TAP_TAPCELL_ROW_45_330
*3157 TAP_TAPCELL_ROW_45_331
*3158 TAP_TAPCELL_ROW_45_332
*3159 TAP_TAPCELL_ROW_45_333
*3160 TAP_TAPCELL_ROW_45_334
*3161 TAP_TAPCELL_ROW_46_335
*3162 TAP_TAPCELL_ROW_46_336
*3163 TAP_TAPCELL_ROW_46_337
*3164 TAP_TAPCELL_ROW_46_338
*3165 TAP_TAPCELL_ROW_46_339
*3166 TAP_TAPCELL_ROW_47_340
*3167 TAP_TAPCELL_ROW_47_341
*3168 TAP_TAPCELL_ROW_47_342
*3169 TAP_TAPCELL_ROW_47_343
*3170 TAP_TAPCELL_ROW_47_344
*3171 TAP_TAPCELL_ROW_48_345
*3172 TAP_TAPCELL_ROW_48_346
*3173 TAP_TAPCELL_ROW_48_347
*3174 TAP_TAPCELL_ROW_48_348
*3175 TAP_TAPCELL_ROW_48_349
*3176 TAP_TAPCELL_ROW_49_350
*3177 TAP_TAPCELL_ROW_49_351
*3178 TAP_TAPCELL_ROW_49_352
*3179 TAP_TAPCELL_ROW_49_353
*3180 TAP_TAPCELL_ROW_49_354
*3181 TAP_TAPCELL_ROW_49_355
*3182 TAP_TAPCELL_ROW_49_356
*3183 TAP_TAPCELL_ROW_49_357
*3184 TAP_TAPCELL_ROW_49_358
*3185 TAP_TAPCELL_ROW_49_359
*3186 TAP_TAPCELL_ROW_4_125
*3187 TAP_TAPCELL_ROW_4_126
*3188 TAP_TAPCELL_ROW_4_127
*3189 TAP_TAPCELL_ROW_4_128
*3190 TAP_TAPCELL_ROW_4_129
*3191 TAP_TAPCELL_ROW_5_130
*3192 TAP_TAPCELL_ROW_5_131
*3193 TAP_TAPCELL_ROW_5_132
*3194 TAP_TAPCELL_ROW_5_133
*3195 TAP_TAPCELL_ROW_5_134
*3196 TAP_TAPCELL_ROW_6_135
*3197 TAP_TAPCELL_ROW_6_136
*3198 TAP_TAPCELL_ROW_6_137
*3199 TAP_TAPCELL_ROW_6_138
*3200 TAP_TAPCELL_ROW_6_139
*3201 TAP_TAPCELL_ROW_7_140
*3202 TAP_TAPCELL_ROW_7_141
*3203 TAP_TAPCELL_ROW_7_142
*3204 TAP_TAPCELL_ROW_7_143
*3205 TAP_TAPCELL_ROW_7_144
*3206 TAP_TAPCELL_ROW_8_145
*3207 TAP_TAPCELL_ROW_8_146
*3208 TAP_TAPCELL_ROW_8_147
*3209 TAP_TAPCELL_ROW_8_148
*3210 TAP_TAPCELL_ROW_8_149
*3211 TAP_TAPCELL_ROW_9_150
*3212 TAP_TAPCELL_ROW_9_151
*3213 TAP_TAPCELL_ROW_9_152
*3214 TAP_TAPCELL_ROW_9_153
*3215 TAP_TAPCELL_ROW_9_154
*3216 _0518_
*3217 _0519_
*3218 _0520_
*3219 _0521_
*3220 _0522_
*3221 _0523_
*3222 _0524_
*3223 _0525_
*3224 _0526_
*3225 _0527_
*3226 _0528_
*3227 _0529_
*3228 _0530_
*3229 _0531_
*3230 _0532_
*3231 _0533_
*3232 _0534_
*3233 _0535_
*3234 _0536_
*3235 _0537_
*3236 _0538_
*3237 _0539_
*3238 _0540_
*3239 _0541_
*3240 _0542_
*3241 _0543_
*3242 _0544_
*3243 _0545_
*3244 _0546_
*3245 _0547_
*3246 _0548_
*3247 _0549_
*3248 _0550_
*3249 _0551_
*3250 _0552_
*3251 _0553_
*3252 _0554_
*3253 _0555_
*3254 _0556_
*3255 _0557_
*3256 _0558_
*3257 _0559_
*3258 _0560_
*3259 _0561_
*3260 _0562_
*3261 _0563_
*3262 _0564_
*3263 _0565_
*3264 _0566_
*3265 _0567_
*3266 _0568_
*3267 _0569_
*3268 _0570_
*3269 _0571_
*3270 _0572_
*3271 _0573_
*3272 _0574_
*3273 _0575_
*3274 _0576_
*3275 _0577_
*3276 _0578_
*3277 _0579_
*3278 _0580_
*3279 _0581_
*3280 _0582_
*3281 _0583_
*3282 _0584_
*3283 _0585_
*3284 _0586_
*3285 _0587_
*3286 _0588_
*3287 _0589_
*3288 _0590_
*3289 _0591_
*3290 _0592_
*3291 _0593_
*3292 _0594_
*3293 _0595_
*3294 _0596_
*3295 _0597_
*3296 _0598_
*3297 _0599_
*3298 _0600_
*3299 _0601_
*3300 _0602_
*3301 _0603_
*3302 _0604_
*3303 _0605_
*3304 _0606_
*3305 _0607_
*3306 _0608_
*3307 _0609_
*3308 _0610_
*3309 _0611_
*3310 _0612_
*3311 _0613_
*3312 _0614_
*3313 _0615_
*3314 _0616_
*3315 _0617_
*3316 _0618_
*3317 _0619_
*3318 _0620_
*3319 _0621_
*3320 _0622_
*3321 _0623_
*3322 _0624_
*3323 _0625_
*3324 _0626_
*3325 _0627_
*3326 _0628_
*3327 _0629_
*3328 _0630_
*3329 _0631_
*3330 _0632_
*3331 _0633_
*3332 _0634_
*3333 _0635_
*3334 _0636_
*3335 _0637_
*3336 _0638_
*3337 _0639_
*3338 _0640_
*3339 _0641_
*3340 _0642_
*3341 _0643_
*3342 _0644_
*3343 _0645_
*3344 _0646_
*3345 _0647_
*3346 _0648_
*3347 _0649_
*3348 _0650_
*3349 _0651_
*3350 _0652_
*3351 _0653_
*3352 _0654_
*3353 _0655_
*3354 _0656_
*3355 _0657_
*3356 _0658_
*3357 _0659_
*3358 _0660_
*3359 _0661_
*3360 _0662_
*3361 _0663_
*3362 _0664_
*3363 _0665_
*3364 _0666_
*3365 _0667_
*3366 _0668_
*3367 _0669_
*3368 _0670_
*3369 _0671_
*3370 _0672_
*3371 _0673_
*3372 _0674_
*3373 _0675_
*3374 _0676_
*3375 _0677_
*3376 _0678_
*3377 _0679_
*3378 _0680_
*3379 _0681_
*3380 _0682_
*3381 _0683_
*3382 _0684_
*3383 _0685_
*3384 _0686_
*3385 _0687_
*3386 _0688_
*3387 _0689_
*3388 _0690_
*3389 _0691_
*3390 _0692_
*3391 _0693_
*3392 _0694_
*3393 _0695_
*3394 _0696_
*3395 _0697_
*3396 _0698_
*3397 _0699_
*3398 _0700_
*3399 _0701_
*3400 _0702_
*3401 _0703_
*3402 _0704_
*3403 _0705_
*3404 _0706_
*3405 _0707_
*3406 _0708_
*3407 _0709_
*3408 _0710_
*3409 _0711_
*3410 _0712_
*3411 _0713_
*3412 _0714_
*3413 _0715_
*3414 _0716_
*3415 _0717_
*3416 _0718_
*3417 _0719_
*3418 _0720_
*3419 _0721_
*3420 _0722_
*3421 _0723_
*3422 _0724_
*3423 _0725_
*3424 _0726_
*3425 _0727_
*3426 _0728_
*3427 _0729_
*3428 _0730_
*3429 _0731_
*3430 _0732_
*3431 _0733_
*3432 _0734_
*3433 _0735_
*3434 _0736_
*3435 _0737_
*3436 _0738_
*3437 _0739_
*3438 _0740_
*3439 _0741_
*3440 _0742_
*3441 _0743_
*3442 _0744_
*3443 _0745_
*3444 _0746_
*3445 _0747_
*3446 _0748_
*3447 _0749_
*3448 _0750_
*3449 _0751_
*3450 _0752_
*3451 _0753_
*3452 _0754_
*3453 _0755_
*3454 _0756_
*3455 _0757_
*3456 _0758_
*3457 _0759_
*3458 _0760_
*3459 _0761_
*3460 _0762_
*3461 _0763_
*3462 _0764_
*3463 _0765_
*3464 _0766_
*3465 _0767_
*3466 _0768_
*3467 _0769_
*3468 _0770_
*3469 _0771_
*3470 _0772_
*3471 _0773_
*3472 _0774_
*3473 _0775_
*3474 _0776_
*3475 _0777_
*3476 _0778_
*3477 _0779_
*3478 _0780_
*3479 _0781_
*3480 _0782_
*3481 _0783_
*3482 _0784_
*3483 _0785_
*3484 _0786_
*3485 _0787_
*3486 _0788_
*3487 _0789_
*3488 _0790_
*3489 _0791_
*3490 _0792_
*3491 _0793_
*3492 _0794_
*3493 _0795_
*3494 _0796_
*3495 _0797_
*3496 _0798_
*3497 _0799_
*3498 _0800_
*3499 _0801_
*3500 _0802_
*3501 _0803_
*3502 _0804_
*3503 _0805_
*3504 _0806_
*3505 _0807_
*3506 _0808_
*3507 _0809_
*3508 _0810_
*3509 _0811_
*3510 _0812_
*3511 _0813_
*3512 _0814_
*3513 _0815_
*3514 _0816_
*3515 _0817_
*3516 _0818_
*3517 _0819_
*3518 _0820_
*3519 _0821_
*3520 _0822_
*3521 _0823_
*3522 _0824_
*3523 _0825_
*3524 _0826_
*3525 _0827_
*3526 _0828_
*3527 _0829_
*3528 _0830_
*3529 _0831_
*3530 _0832_
*3531 _0833_
*3532 _0834_
*3533 _0835_
*3534 _0836_
*3535 _0837_
*3536 _0838_
*3537 _0839_
*3538 _0840_
*3539 _0841_
*3540 _0842_
*3541 _0843_
*3542 _0844_
*3543 _0845_
*3544 _0846_
*3545 _0847_
*3546 _0848_
*3547 _0849_
*3548 _0850_
*3549 _0851_
*3550 _0852_
*3551 _0853_
*3552 _0854_
*3553 _0855_
*3554 _0856_
*3555 _0857_
*3556 _0858_
*3557 _0859_
*3558 _0860_
*3559 _0861_
*3560 _0862_
*3561 _0863_
*3562 _0864_
*3563 _0865_
*3564 _0866_
*3565 _0867_
*3566 _0868_
*3567 _0869_
*3568 _0870_
*3569 _0871_
*3570 _0872_
*3571 _0873_
*3572 _0874_
*3573 _0875_
*3574 _0876_
*3575 _0877_
*3576 _0878_
*3577 _0879_
*3578 _0880_
*3579 _0881_
*3580 _0882_
*3581 _0883_
*3582 _0884_
*3583 _0885_
*3584 _0886_
*3585 _0887_
*3586 _0888_
*3587 _0889_
*3588 _0890_
*3589 _0891_
*3590 _0892_
*3591 _0893_
*3592 _0894_
*3593 _0895_
*3594 _0896_
*3595 _0897_
*3596 _0898_
*3597 _0899_
*3598 _0900_
*3599 _0901_
*3600 _0902_
*3601 _0903_
*3602 _0904_
*3603 _0905_
*3604 _0906_
*3605 _0907_
*3606 _0908_
*3607 _0909_
*3608 _0910_
*3609 _0911_
*3610 _0912_
*3611 _0913_
*3612 _0914_
*3613 _0915_
*3614 _0916_
*3615 _0917_
*3616 _0918_
*3617 _0919_
*3618 _0920_
*3619 _0921_
*3620 _0922_
*3621 _0923_
*3622 _0924_
*3623 _0925_
*3624 _0926_
*3625 _0927_
*3626 _0928_
*3627 _0929_
*3628 _0930_
*3629 _0931_
*3630 _0932_
*3631 _0933_
*3632 _0934_
*3633 _0935_
*3634 _0936_
*3635 _0937_
*3636 _0938_
*3637 _0939_
*3638 _0940_
*3639 _0941_
*3640 _0942_
*3641 _0943_
*3642 _0944_
*3643 _0945_
*3644 _0946_
*3645 _0947_
*3646 _0948_
*3647 _0949_
*3648 _0950_
*3649 _0951_
*3650 _0952_
*3651 _0953_
*3652 _0954_
*3653 _0955_
*3654 _0956_
*3655 _0957_
*3656 _0958_
*3657 _0959_
*3658 _0960_
*3659 _0961_
*3660 _0962_
*3661 _0963_
*3662 _0964_
*3663 _0965_
*3664 _0966_
*3665 _0967_
*3666 _0968_
*3667 _0969_
*3668 _0970_
*3669 _0971_
*3670 _0972_
*3671 _0973_
*3672 _0974_
*3673 _0975_
*3674 _0976_
*3675 _0977_
*3676 _0978_
*3677 _0979_
*3678 _0980_
*3679 _0981_
*3680 _0982_
*3681 _0983_
*3682 _0984_
*3683 _0985_
*3684 _0986_
*3685 _0987_
*3686 _0988_
*3687 _0989_
*3688 _0990_
*3689 _0991_
*3690 _0992_
*3691 _0993_
*3692 _0994_
*3693 _0995_
*3694 _0996_
*3695 _0997_
*3696 _0998_
*3697 _0999_
*3698 _1000_
*3699 _1001_
*3700 _1002_
*3701 _1003_
*3702 _1004_
*3703 _1005_
*3704 _1006_
*3705 _1007_
*3706 _1008_
*3707 _1009_
*3708 _1010_
*3709 _1011_
*3710 _1012_
*3711 _1013_
*3712 _1014_
*3713 _1015_
*3714 _1016_
*3715 _1017_
*3716 _1018_
*3717 _1019_
*3718 _1020_
*3719 _1021_
*3720 _1022_
*3721 _1023_
*3722 _1024_
*3723 _1025_
*3724 _1026_
*3725 _1027_
*3726 _1028_
*3727 _1029_
*3728 _1030_
*3729 _1031_
*3730 _1032_
*3731 _1033_
*3732 _1034_
*3733 _1035_
*3734 _1036_
*3735 _1037_
*3736 _1038_
*3737 _1039_
*3738 _1040_
*3739 _1041_
*3740 _1042_
*3741 _1043_
*3742 _1044_
*3743 _1045_
*3744 _1046_
*3745 _1047_
*3746 _1048_
*3747 _1049_
*3748 _1050_
*3749 _1051_
*3750 _1052_
*3751 _1053_
*3752 _1054_
*3753 _1055_
*3754 _1056_
*3755 _1057_
*3756 _1058_
*3757 _1059_
*3758 _1060_
*3759 _1061_
*3760 _1062_
*3761 _1063_
*3762 _1064_
*3763 _1065_
*3764 _1066_
*3765 _1067_
*3766 _1068_
*3767 _1069_
*3768 _1070_
*3769 _1071_
*3770 _1072_
*3771 _1073_
*3772 _1074_
*3773 _1075_
*3774 _1076_
*3775 _1077_
*3776 _1078_
*3777 _1079_
*3778 _1080_
*3779 _1081_
*3780 _1082_
*3781 _1083_
*3782 _1084_
*3783 _1085_
*3784 _1086_
*3785 _1087_
*3786 _1088_
*3787 _1089_
*3788 _1090_
*3789 _1091_
*3790 _1092_
*3791 _1093_
*3792 _1094_
*3793 _1095_
*3794 _1096_
*3795 _1097_
*3796 _1098_
*3797 _1099_
*3798 _1100_
*3799 _1101_
*3800 _1102_
*3801 _1103_
*3802 _1104_
*3803 _1105_
*3804 _1106_
*3805 _1107_
*3806 _1108_
*3807 _1109_
*3808 _1110_
*3809 _1111_
*3810 _1112_
*3811 _1113_
*3812 _1114_
*3813 _1115_
*3814 _1116_
*3815 _1117_
*3816 _1118_
*3817 _1119_
*3818 _1120_
*3819 _1121_
*3820 _1122_
*3821 _1123_
*3822 _1124_
*3823 _1125_
*3824 _1126_
*3825 _1127_
*3826 _1128_
*3827 _1129_
*3828 _1130_
*3829 _1131_
*3830 _1132_
*3831 _1133_
*3832 _1134_
*3833 _1135_
*3834 _1136_
*3835 _1137_
*3836 _1138_
*3837 _1139_
*3838 _1140_
*3839 _1141_
*3840 _1142_
*3841 _1143_
*3842 _1144_
*3843 _1145_
*3844 _1146_
*3845 _1147_
*3846 _1148_
*3847 _1149_
*3848 _1150_
*3849 _1151_
*3850 _1152_
*3851 _1153_
*3852 _1154_
*3853 _1155_
*3854 _1156_
*3855 _1157_
*3856 _1158_
*3857 _1159_
*3858 _1160_
*3859 _1161_
*3860 _1162_
*3861 _1163_
*3862 _1164_
*3863 _1165_
*3864 _1166_
*3865 _1167_
*3866 _1168_
*3867 _1169_
*3868 _1170_
*3869 _1171_
*3870 _1172_
*3871 _1173_
*3872 _1174_
*3873 _1175_
*3874 _1176_
*3875 _1177_
*3876 _1178_
*3877 _1179_
*3878 _1180_
*3879 _1181_
*3880 _1182_
*3881 _1183_
*3882 _1184_
*3883 _1185_
*3884 _1186_
*3885 _1187_
*3886 _1188_
*3887 _1189_
*3888 _1190_
*3889 _1191_
*3890 _1192_
*3891 _1193_
*3892 _1194_
*3893 _1195_
*3894 _1196_
*3895 _1197_
*3896 _1198_
*3897 _1199_
*3898 _1200_
*3899 _1200__109
*3900 _1201_
*3901 _1202_
*3902 _1202__110
*3903 _1203_
*3904 _1204_
*3905 _1205_
*3906 _1206_
*3907 _1207_
*3908 _1208_
*3909 _1209_
*3910 _1210_
*3911 _1211_
*3912 _1212_
*3913 _1213_
*3914 _1214_
*3915 _1215_
*3916 _1216_
*3917 _1217_
*3918 _1218_
*3919 _1219_
*3920 _1220_
*3921 _1221_
*3922 _1222_
*3923 _1223_
*3924 _1224_
*3925 _1225_
*3926 _1226_
*3927 _1227_
*3928 _1228_
*3929 _1229_
*3930 _1230_
*3931 _1231_
*3932 _1232_
*3933 _1233_
*3934 _1234_
*3935 _1235_
*3936 _1236_
*3937 _1237_
*3938 _1238_
*3939 _1239_
*3940 _1240_
*3941 _1241_
*3942 _1242_
*3943 _1243_
*3944 clkbuf_0_rd_clk
*3945 clkbuf_0_wr_clk
*3946 clkbuf_2_0__f_rd_clk
*3947 clkbuf_2_1__f_rd_clk
*3948 clkbuf_2_2__f_rd_clk
*3949 clkbuf_2_3__f_rd_clk
*3950 clkbuf_4_0_0_wr_clk
*3951 clkbuf_4_10_0_wr_clk
*3952 clkbuf_4_11_0_wr_clk
*3953 clkbuf_4_12_0_wr_clk
*3954 clkbuf_4_13_0_wr_clk
*3955 clkbuf_4_14_0_wr_clk
*3956 clkbuf_4_15_0_wr_clk
*3957 clkbuf_4_1_0_wr_clk
*3958 clkbuf_4_2_0_wr_clk
*3959 clkbuf_4_3_0_wr_clk
*3960 clkbuf_4_4_0_wr_clk
*3961 clkbuf_4_5_0_wr_clk
*3962 clkbuf_4_6_0_wr_clk
*3963 clkbuf_4_7_0_wr_clk
*3964 clkbuf_4_8_0_wr_clk
*3965 clkbuf_4_9_0_wr_clk
*3966 clkbuf_5_0__f_wr_clk
*3967 clkbuf_5_10__f_wr_clk
*3968 clkbuf_5_11__f_wr_clk
*3969 clkbuf_5_12__f_wr_clk
*3970 clkbuf_5_13__f_wr_clk
*3971 clkbuf_5_14__f_wr_clk
*3972 clkbuf_5_15__f_wr_clk
*3973 clkbuf_5_16__f_wr_clk
*3974 clkbuf_5_17__f_wr_clk
*3975 clkbuf_5_18__f_wr_clk
*3976 clkbuf_5_19__f_wr_clk
*3977 clkbuf_5_1__f_wr_clk
*3978 clkbuf_5_20__f_wr_clk
*3979 clkbuf_5_21__f_wr_clk
*3980 clkbuf_5_22__f_wr_clk
*3981 clkbuf_5_23__f_wr_clk
*3982 clkbuf_5_24__f_wr_clk
*3983 clkbuf_5_25__f_wr_clk
*3984 clkbuf_5_26__f_wr_clk
*3985 clkbuf_5_27__f_wr_clk
*3986 clkbuf_5_28__f_wr_clk
*3987 clkbuf_5_29__f_wr_clk
*3988 clkbuf_5_2__f_wr_clk
*3989 clkbuf_5_30__f_wr_clk
*3990 clkbuf_5_31__f_wr_clk
*3991 clkbuf_5_3__f_wr_clk
*3992 clkbuf_5_4__f_wr_clk
*3993 clkbuf_5_5__f_wr_clk
*3994 clkbuf_5_6__f_wr_clk
*3995 clkbuf_5_7__f_wr_clk
*3996 clkbuf_5_8__f_wr_clk
*3997 clkbuf_5_9__f_wr_clk
*3998 clkload0
*3999 clkload1
*4000 clkload2
*4001 clkload3
*4002 clkload4
*4003 clkload5
*4004 clkload6
*4005 clkload7
*4006 clkload8
*4007 clkload9
*4008 fanout100
*4009 fanout101
*4010 fanout102
*4011 fanout103
*4012 fanout104
*4013 fanout105
*4014 fanout106
*4015 fanout107
*4016 fanout108
*4017 fanout59
*4018 fanout60
*4019 fanout61
*4020 fanout62
*4021 fanout63
*4022 fanout64
*4023 fanout65
*4024 fanout66
*4025 fanout68
*4026 fanout70
*4027 fanout72
*4028 fanout74
*4029 fanout75
*4030 fanout76
*4031 fanout77
*4032 fanout78
*4033 fanout79
*4034 fanout80
*4035 fanout81
*4036 fanout82
*4037 fanout83
*4038 fanout84
*4039 fanout85
*4040 fanout86
*4041 fanout87
*4042 fanout88
*4043 fanout89
*4044 fanout90
*4045 fanout91
*4046 fanout92
*4047 fanout93
*4048 fanout94
*4049 fanout95
*4050 fanout96
*4051 fanout97
*4052 fanout98
*4053 fanout99
*4054 hold111
*4055 input1
*4056 input10
*4057 input11
*4058 input12
*4059 input13
*4060 input14
*4061 input15
*4062 input16
*4063 input17
*4064 input18
*4065 input19
*4066 input2
*4067 input20
*4068 input3
*4069 input4
*4070 input5
*4071 input6
*4072 input7
*4073 input8
*4074 input9
*4075 load_slew67
*4076 load_slew69
*4077 load_slew71
*4078 load_slew73
*4079 max_cap41
*4080 max_cap42
*4081 max_cap44
*4082 max_cap45
*4083 max_cap46
*4084 max_cap47
*4085 max_cap48
*4086 max_cap50
*4087 max_cap52
*4088 max_cap53
*4089 max_cap54
*4090 output21
*4091 output22
*4092 output23
*4093 output24
*4094 output25
*4095 output26
*4096 output27
*4097 output28
*4098 output29
*4099 output30
*4100 output31
*4101 output32
*4102 wire33
*4103 wire34
*4104 wire35
*4105 wire36
*4106 wire37
*4107 wire38
*4108 wire39
*4109 wire40
*4110 wire43
*4111 wire49
*4112 wire51
*4113 wire55
*4114 wire56
*4115 wire57
*4116 wire58

*PORTS
aempty O
aempty_thresh[0] I
aempty_thresh[1] I
aempty_thresh[2] I
aempty_thresh[3] I
afull O
afull_thresh[0] I
afull_thresh[1] I
afull_thresh[2] I
afull_thresh[3] I
empty O
full O
rd_clk I
rd_data[0] O
rd_data[1] O
rd_data[2] O
rd_data[3] O
rd_data[4] O
rd_data[5] O
rd_data[6] O
rd_data[7] O
rd_en I
rd_rst_n I
wr_clk I
wr_data[0] I
wr_data[1] I
wr_data[2] I
wr_data[3] I
wr_data[4] I
wr_data[5] I
wr_data[6] I
wr_data[7] I
wr_en I
wr_rst_n I

*D_NET *3 0.0017678
*CONN
*P aempty O
*I *4116:X O *D sky130_fd_sc_hd__clkbuf_4
*CAP
1 aempty 0.000783081
2 *4116:X 0.000783081
3 aempty *4069:A 0
4 aempty *25:13 0.000191773
5 aempty *617:10 9.86551e-06
*RES
1 *4116:X aempty 48.5032 
*END

*D_NET *4 0.0023161
*CONN
*P aempty_thresh[0] I
*I *4055:A I *D sky130_fd_sc_hd__clkdlybuf4s25_1
*CAP
1 aempty_thresh[0] 0.000575117
2 *4055:A 0
3 *4:9 0.000575117
4 *4:9 *5:9 0.000584099
5 *4:9 *24:9 0.000581771
*RES
1 aempty_thresh[0] *4:9 35.3104 
2 *4:9 *4055:A 23 
*END

*D_NET *5 0.00175703
*CONN
*P aempty_thresh[1] I
*I *4066:A I *D sky130_fd_sc_hd__clkdlybuf4s25_1
*CAP
1 aempty_thresh[1] 0.000586467
2 *4066:A 0
3 *5:9 0.000586467
4 *4:9 *5:9 0.000584099
*RES
1 aempty_thresh[1] *5:9 31.6646 
2 *5:9 *4066:A 23 
*END

*D_NET *6 0.00136402
*CONN
*P aempty_thresh[2] I
*I *4068:A I *D sky130_fd_sc_hd__clkdlybuf4s25_1
*CAP
1 aempty_thresh[2] 0.000682011
2 *4068:A 0
3 *6:9 0.000682011
*RES
1 aempty_thresh[2] *6:9 29.7589 
2 *6:9 *4068:A 23 
*END

*D_NET *7 0.00076167
*CONN
*P aempty_thresh[3] I
*I *4069:A I *D sky130_fd_sc_hd__clkdlybuf4s25_1
*CAP
1 aempty_thresh[3] 0.000368164
2 *4069:A 0.000368164
3 *4069:A *713:12 2.5343e-05
4 aempty *4069:A 0
*RES
1 aempty_thresh[3] *4069:A 47.6445 
*END

*D_NET *8 0.0011354
*CONN
*P afull O
*I *4115:X O *D sky130_fd_sc_hd__clkbuf_4
*CAP
1 afull 0.000222554
2 *4115:X 0.000345144
3 *8:10 0.000567698
4 *8:10 *718:21 0
5 *8:10 *915:10 0
*RES
1 *4115:X *8:10 44.4939 
2 *8:10 afull 8.80827 
*END

*D_NET *9 0.00138743
*CONN
*P afull_thresh[0] I
*I *4070:A I *D sky130_fd_sc_hd__clkdlybuf4s25_1
*CAP
1 afull_thresh[0] 0.000666208
2 *4070:A 0
3 *9:11 0.000666208
4 *9:11 *10:9 5.50106e-05
*RES
1 afull_thresh[0] *9:11 29.1479 
2 *9:11 *4070:A 23 
*END

*D_NET *10 0.00147279
*CONN
*P afull_thresh[1] I
*I *4071:A I *D sky130_fd_sc_hd__clkdlybuf4s25_1
*CAP
1 afull_thresh[1] 0.000708891
2 *4071:A 0
3 *10:9 0.000708891
4 *9:11 *10:9 5.50106e-05
*RES
1 afull_thresh[1] *10:9 29.9557 
2 *10:9 *4071:A 23 
*END

*D_NET *11 0.00112922
*CONN
*P afull_thresh[2] I
*I *4072:A I *D sky130_fd_sc_hd__clkdlybuf4s25_1
*CAP
1 afull_thresh[2] 0.000564609
2 *4072:A 0
3 *11:7 0.000564609
4 *11:7 *12:9 0
*RES
1 afull_thresh[2] *11:7 27.4286 
2 *11:7 *4072:A 23 
*END

*D_NET *12 0.0012212
*CONN
*P afull_thresh[3] I
*I *4073:A I *D sky130_fd_sc_hd__clkdlybuf4s25_1
*CAP
1 afull_thresh[3] 0.000610599
2 *4073:A 0
3 *12:9 0.000610599
4 *11:7 *12:9 0
*RES
1 afull_thresh[3] *12:9 28.05 
2 *12:9 *4073:A 23 
*END

*D_NET *13 0.00173512
*CONN
*P empty O
*I *4114:X O *D sky130_fd_sc_hd__clkbuf_4
*CAP
1 empty 0.000856237
2 *4114:X 0.000856237
3 empty *710:14 2.26497e-05
4 empty *896:10 0
*RES
1 *4114:X empty 48.5032 
*END

*D_NET *14 0.00181131
*CONN
*P full O
*I *4113:X O *D sky130_fd_sc_hd__clkbuf_4
*CAP
1 full 0.000272967
2 *4113:X 0.000483019
3 *14:10 0.000755986
4 full *35:13 0
5 *14:10 *4113:A 0.000173179
6 *14:10 *35:13 0.000103637
7 *14:10 *637:6 2.25203e-05
8 *14:10 *677:8 0
*RES
1 *4113:X *14:10 47.3732 
2 *14:10 full 8.98 
*END

*D_NET *15 0.00767563
*CONN
*P rd_clk I
*I *3944:A I *D sky130_fd_sc_hd__clkbuf_16
*CAP
1 rd_clk 0.00220951
2 *3944:A 0.000100519
3 *15:30 0.000555849
4 *15:24 0.00266484
5 *15:24 rd_data[3] 0.000385963
6 *15:24 *3937:RESET_B 0.000239429
7 *15:24 *3943:CLK 0.000228391
8 *15:24 *564:8 0.000150854
9 *15:24 *564:10 0.000230934
10 *15:24 *564:16 5.8241e-05
11 *15:24 *564:71 9.25047e-05
12 *15:24 *711:12 9.74655e-05
13 *15:24 *711:14 0.00013255
14 *15:24 *711:16 0.000145416
15 *15:24 *735:24 0.000149232
16 *15:24 *896:33 1.34164e-05
17 *15:24 *898:10 5.95389e-05
18 *15:30 *3395:A 3.91562e-05
19 *15:30 *327:6 3.17482e-05
20 *15:30 *327:18 9.00728e-05
*RES
1 rd_clk *15:24 48.7992 
2 *15:24 *15:30 6.82536 
3 *15:30 *3944:A 24.9575 
*END

*D_NET *16 0.00121928
*CONN
*P rd_data[0] O
*I *4105:X O *D sky130_fd_sc_hd__clkbuf_4
*CAP
1 rd_data[0] 0.000162922
2 *4105:X 0.000326764
3 *16:10 0.000489686
4 rd_data[0] rd_data[2] 0.000208068
5 rd_data[0] rd_data[4] 0
6 *16:10 *4105:A 2.93845e-05
7 *16:10 *18:10 0
8 *16:10 *20:10 0
9 *16:10 *644:10 2.45549e-06
*RES
1 *4105:X *16:10 42.9818 
2 *16:10 rd_data[0] 8.78773 
*END

*D_NET *17 0.00117129
*CONN
*P rd_data[1] O
*I *4104:X O *D sky130_fd_sc_hd__clkbuf_4
*CAP
1 rd_data[1] 0.000137332
2 *4104:X 0.000329649
3 *17:10 0.000466982
4 rd_data[1] *34:11 0.000237326
*RES
1 *4104:X *17:10 42.2775 
2 *17:10 rd_data[1] 8.78773 
*END

*D_NET *18 0.00125259
*CONN
*P rd_data[2] O
*I *4103:X O *D sky130_fd_sc_hd__clkbuf_4
*CAP
1 rd_data[2] 0.000134562
2 *4103:X 0.0003877
3 *18:10 0.000522262
4 *18:10 *656:8 0
5 rd_data[0] rd_data[2] 0.000208068
6 *16:10 *18:10 0
*RES
1 *4103:X *18:10 44.3904 
2 *18:10 rd_data[2] 8.70187 
*END

*D_NET *19 0.000925811
*CONN
*P rd_data[3] O
*I *4109:X O *D sky130_fd_sc_hd__clkbuf_4
*CAP
1 rd_data[3] 0.000265566
2 *4109:X 0.000265566
3 rd_data[3] *661:8 4.6318e-06
4 rd_data[3] *891:8 4.08376e-06
5 *15:24 rd_data[3] 0.000385963
*RES
1 *4109:X rd_data[3] 47.6445 
*END

*D_NET *20 0.00148813
*CONN
*P rd_data[4] O
*I *4108:X O *D sky130_fd_sc_hd__clkbuf_4
*CAP
1 rd_data[4] 0.000217235
2 *4108:X 0.000517088
3 *20:10 0.000734323
4 rd_data[4] rd_data[5] 0
5 *20:10 *659:12 1.94812e-05
6 rd_data[0] rd_data[4] 0
7 *16:10 *20:10 0
*RES
1 *4108:X *20:10 47.2075 
2 *20:10 rd_data[4] 8.78773 
*END

*D_NET *21 0.0014031
*CONN
*P rd_data[5] O
*I *4107:X O *D sky130_fd_sc_hd__clkbuf_4
*CAP
1 rd_data[5] 0.000149532
2 *4107:X 0.000433192
3 *21:10 0.000582724
4 rd_data[5] rd_data[7] 0.000233938
5 *21:10 *609:68 3.7122e-06
6 *21:10 *659:12 0
7 rd_data[4] rd_data[5] 0
*RES
1 *4107:X *21:10 45.3225 
2 *21:10 rd_data[5] 8.78773 
*END

*D_NET *22 0.00124688
*CONN
*P rd_data[6] O
*I *4102:X O *D sky130_fd_sc_hd__clkbuf_4
*CAP
1 rd_data[6] 0.000623439
2 *4102:X 0
3 *22:6 0.000623439
*RES
1 *4102:X *22:6 38 
2 *22:6 rd_data[6] 13.7854 
*END

*D_NET *23 0.00114525
*CONN
*P rd_data[7] O
*I *4106:X O *D sky130_fd_sc_hd__clkbuf_4
*CAP
1 rd_data[7] 0.000396432
2 *4106:X 0.000396432
3 rd_data[7] *658:10 5.92233e-05
4 rd_data[7] *659:12 5.92233e-05
5 rd_data[5] rd_data[7] 0.000233938
*RES
1 *4106:X rd_data[7] 49.2043 
*END

*D_NET *24 0.00155058
*CONN
*P rd_en I
*I *4074:A I *D sky130_fd_sc_hd__clkdlybuf4s25_1
*CAP
1 rd_en 0.000484407
2 *4074:A 0
3 *24:9 0.000484407
4 *4:9 *24:9 0.000581771
*RES
1 rd_en *24:9 29.7589 
2 *24:9 *4074:A 23 
*END

*D_NET *25 0.00134388
*CONN
*P rd_rst_n I
*I *4056:A I *D sky130_fd_sc_hd__clkdlybuf4s25_1
*CAP
1 rd_rst_n 0.000576055
2 *4056:A 0
3 *25:13 0.000576055
4 aempty *25:13 0.000191773
*RES
1 rd_rst_n *25:13 33.1962 
2 *25:13 *4056:A 23 
*END

*D_NET *26 0.0196784
*CONN
*P wr_clk I
*I *3945:A I *D sky130_fd_sc_hd__clkbuf_16
*CAP
1 wr_clk 0.00598977
2 *3945:A 0
3 *26:22 0.00117618
4 *26:20 0.00216875
5 *26:16 0.00698234
6 *26:16 *3467:S0 4.02391e-05
7 *26:16 *27:11 0.000392544
8 *26:16 *461:181 0
9 *26:16 *651:10 0.000233971
10 *26:20 *3530:S 0
11 *26:20 *90:14 5.49782e-05
12 *26:20 *391:10 4.81484e-05
13 *26:20 *395:8 0.000375502
14 *26:20 *461:181 0
15 *26:20 *465:14 0.000390209
16 *26:20 *587:10 0
17 *26:20 *587:12 0
18 *26:20 *651:10 2.10225e-05
19 *26:22 *3472:A1 0.000108324
20 *26:22 *3571:A 0
21 *26:22 *90:14 2.13125e-05
22 *26:22 *156:10 0
23 *26:22 *392:14 9.0086e-05
24 *26:22 *395:8 0.00110999
25 *26:22 *417:10 0
26 *26:22 *422:39 0
27 *26:22 *426:10 1.01201e-05
28 *26:22 *465:14 1.30101e-05
29 *26:22 *570:10 0
30 *26:22 *662:20 0.00014002
31 *26:22 *666:10 0
32 *26:22 *666:16 0
33 *26:22 *724:10 0.000209704
34 *26:22 *729:76 7.2567e-05
35 *26:22 *857:19 2.9596e-05
*RES
1 wr_clk *26:16 31.0387 
2 *26:16 *26:20 22.7029 
3 *26:20 *26:22 30.8539 
4 *26:22 *3945:A 38 
*END

*D_NET *27 0.00140737
*CONN
*P wr_data[0] I
*I *4057:A I *D sky130_fd_sc_hd__clkdlybuf4s25_1
*CAP
1 wr_data[0] 0.000507411
2 *4057:A 0
3 *27:11 0.000507411
4 *27:11 *3880:CLK 0
5 *26:16 *27:11 0.000392544
*RES
1 wr_data[0] *27:11 29.554 
2 *27:11 *4057:A 23 
*END

*D_NET *28 0.00128337
*CONN
*P wr_data[1] I
*I *4058:A I *D sky130_fd_sc_hd__clkdlybuf4s25_1
*CAP
1 wr_data[1] 0.000641683
2 *4058:A 0
3 *28:7 0.000641683
*RES
1 wr_data[1] *28:7 29.1375 
2 *28:7 *4058:A 23 
*END

*D_NET *29 0.00115154
*CONN
*P wr_data[2] I
*I *4059:A I *D sky130_fd_sc_hd__clkdlybuf4s25_1
*CAP
1 wr_data[2] 0.000575771
2 *4059:A 0
3 *29:13 0.000575771
*RES
1 wr_data[2] *29:13 31.3765 
2 *29:13 *4059:A 23 
*END

*D_NET *30 0.00128
*CONN
*P wr_data[3] I
*I *4060:A I *D sky130_fd_sc_hd__clkdlybuf4s25_1
*CAP
1 wr_data[3] 0.000638619
2 *4060:A 0
3 *30:9 0.000638619
4 *30:9 *408:14 2.76611e-06
*RES
1 wr_data[3] *30:9 28.5264 
2 *30:9 *4060:A 23 
*END

*D_NET *31 0.00127036
*CONN
*P wr_data[4] I
*I *4061:A I *D sky130_fd_sc_hd__clkdlybuf4s25_1
*CAP
1 wr_data[4] 0.000607674
2 *4061:A 0
3 *31:9 0.000607674
4 *31:9 *3488:A0 0
5 *31:9 *3488:S 5.50106e-05
*RES
1 wr_data[4] *31:9 28.05 
2 *31:9 *4061:A 23 
*END

*D_NET *32 0.00127846
*CONN
*P wr_data[5] I
*I *4062:A I *D sky130_fd_sc_hd__clkdlybuf4s25_1
*CAP
1 wr_data[5] 0.000611412
2 *4062:A 0
3 *32:9 0.000611412
4 *32:9 *672:32 5.56356e-05
*RES
1 wr_data[5] *32:9 28.05 
2 *32:9 *4062:A 23 
*END

*D_NET *33 0.00135971
*CONN
*P wr_data[6] I
*I *4063:A I *D sky130_fd_sc_hd__clkdlybuf4s25_1
*CAP
1 wr_data[6] 0.000679854
2 *4063:A 0
3 *33:9 0.000679854
*RES
1 wr_data[6] *33:9 29.7589 
2 *33:9 *4063:A 23 
*END

*D_NET *34 0.00177666
*CONN
*P wr_data[7] I
*I *4064:A I *D sky130_fd_sc_hd__clkdlybuf4s25_1
*CAP
1 wr_data[7] 0.000645765
2 *4064:A 0
3 *34:11 0.000645765
4 *34:11 *430:10 9.6289e-05
5 *34:11 *655:10 0.000151516
6 rd_data[1] *34:11 0.000237326
*RES
1 wr_data[7] *34:11 32.3711 
2 *34:11 *4064:A 23 
*END

*D_NET *35 0.00165082
*CONN
*P wr_en I
*I *4065:A I *D sky130_fd_sc_hd__clkdlybuf4s25_1
*CAP
1 wr_en 0.000773593
2 *4065:A 0
3 *35:13 0.000773593
4 *35:13 *3922:CLK 0
5 *35:13 *3923:CLK 0
6 *35:13 *677:8 0
7 full *35:13 0
8 *14:10 *35:13 0.000103637
*RES
1 wr_en *35:13 36.0133 
2 *35:13 *4065:A 23 
*END

*D_NET *36 0.000959976
*CONN
*P wr_rst_n I
*I *4067:A I *D sky130_fd_sc_hd__clkdlybuf4s25_1
*CAP
1 wr_rst_n 0.000471675
2 *4067:A 0.000471675
3 *4067:A *639:10 1.66262e-05
*RES
1 wr_rst_n *4067:A 49.0531 
*END

*D_NET *37 0.00119396
*CONN
*I *3888:D I *D sky130_fd_sc_hd__dfstp_2
*I *3401:X O *D sky130_fd_sc_hd__o311a_4
*CAP
1 *3888:D 0
2 *3401:X 0.000490989
3 *37:10 0.000490989
4 *37:10 *3888:CLK 7.4315e-05
5 *37:10 *3903:RESET_B 1.69668e-05
6 *37:10 *566:61 0
7 *37:10 *566:74 0.0001207
8 *37:10 *617:10 0
*RES
1 *3401:X *37:10 47.3421 
2 *37:10 *3888:D 38 
*END

*D_NET *38 0.000837927
*CONN
*I *3893:D I *D sky130_fd_sc_hd__dfrtp_2
*I *3338:Y O *D sky130_fd_sc_hd__nand3_4
*CAP
1 *3893:D 3.78039e-05
2 *3338:Y 0.000284747
3 *38:8 0.000322551
4 *38:8 *262:16 0
5 *38:8 *264:8 3.92407e-05
6 *38:8 *265:10 1.17152e-05
7 *38:8 *266:10 0.000141869
8 *38:8 *679:8 0
*RES
1 *3338:Y *38:8 43.7793 
2 *38:8 *3893:D 38.6214 
*END

*D_NET *39 0.00193661
*CONN
*I *3760:D I *D sky130_fd_sc_hd__dfxtp_2
*I *3485:X O *D sky130_fd_sc_hd__buf_1
*CAP
1 *3760:D 6.7202e-06
2 *3485:X 0.000344162
3 *39:10 0.000350882
4 *3760:D *3640:S 4.9054e-06
5 *3760:D *669:24 1.74843e-05
6 *39:10 *3479:S0 0
7 *39:10 *3856:D 5.3304e-05
8 *39:10 *608:51 6.11183e-05
9 *39:10 *631:18 0.00011093
10 *39:10 *684:27 0.000283897
11 *39:10 *684:31 0.000111148
12 *39:10 *689:52 0.000592064
*RES
1 *3485:X *39:10 49.3307 
2 *39:10 *3760:D 38.1916 
*END

*D_NET *40 0.00163626
*CONN
*I *3761:D I *D sky130_fd_sc_hd__dfxtp_2
*I *3487:X O *D sky130_fd_sc_hd__buf_1
*CAP
1 *3761:D 5.95053e-05
2 *3487:X 0.000656383
3 *40:10 0.000715888
4 *3761:D *488:27 0.000148848
5 *40:10 *593:24 5.56356e-05
*RES
1 *3487:X *40:10 47.5079 
2 *40:10 *3761:D 39.6209 
*END

*D_NET *41 0.000482814
*CONN
*I *3762:D I *D sky130_fd_sc_hd__dfxtp_2
*I *3489:X O *D sky130_fd_sc_hd__buf_1
*CAP
1 *3762:D 1.3026e-05
2 *3489:X 0.000176619
3 *41:10 0.000189645
4 *41:10 *664:42 5.45541e-05
5 *41:10 *798:8 4.89706e-05
*RES
1 *3489:X *41:10 41.3557 
2 *41:10 *3762:D 38.1916 
*END

*D_NET *42 0.00198546
*CONN
*I *3763:D I *D sky130_fd_sc_hd__dfxtp_2
*I *3491:X O *D sky130_fd_sc_hd__buf_1
*CAP
1 *3763:D 0
2 *3491:X 4.96719e-05
3 *42:14 0.000778547
4 *42:8 0.000828219
5 *42:14 *3490:A0 8.94508e-05
6 *42:14 *98:10 0
7 *42:14 *408:14 0
8 *42:14 *619:21 0.000148412
9 *42:14 *619:94 0
10 *42:14 *743:21 0
11 *42:14 *799:18 4.61596e-05
12 *42:14 *815:10 4.50022e-05
*RES
1 *3491:X *42:8 38.6214 
2 *42:8 *42:14 29.5207 
3 *42:14 *3763:D 23 
*END

*D_NET *43 0.000864312
*CONN
*I *3764:D I *D sky130_fd_sc_hd__dfxtp_2
*I *3493:X O *D sky130_fd_sc_hd__buf_1
*CAP
1 *3764:D 0.000124862
2 *3493:X 0.000257051
3 *43:8 0.000381913
4 *3764:D *3764:CLK 0.000100486
5 *43:8 *3492:A0 0
*RES
1 *3493:X *43:8 42.3707 
2 *43:8 *3764:D 40.3666 
*END

*D_NET *44 0.000977778
*CONN
*I *3765:D I *D sky130_fd_sc_hd__dfxtp_2
*I *3495:X O *D sky130_fd_sc_hd__buf_1
*CAP
1 *3765:D 0.000105522
2 *3495:X 0.000225416
3 *44:8 0.000330938
4 *44:8 *634:10 0.000167113
5 *44:8 *634:27 0.000148788
*RES
1 *3495:X *44:8 42.3707 
2 *44:8 *3765:D 39.6209 
*END

*D_NET *45 0.000474709
*CONN
*I *3766:D I *D sky130_fd_sc_hd__dfxtp_2
*I *3497:X O *D sky130_fd_sc_hd__buf_1
*CAP
1 *3766:D 1.13183e-05
2 *3497:X 4.70287e-05
3 *45:8 5.8347e-05
4 *3766:D *3496:A1 1.64354e-05
5 *45:8 *525:14 0.000171906
6 *45:8 *663:16 0.000169674
*RES
1 *3497:X *45:8 40.2579 
2 *45:8 *3766:D 38.1916 
*END

*D_NET *46 0.00119574
*CONN
*I *3767:D I *D sky130_fd_sc_hd__dfxtp_2
*I *3499:X O *D sky130_fd_sc_hd__buf_1
*CAP
1 *3767:D 0
2 *3499:X 0.00047604
3 *46:8 0.00047604
4 *46:8 *605:14 0.000149491
5 *46:8 *747:14 9.41704e-05
*RES
1 *3499:X *46:8 30.8352 
2 *46:8 *3767:D 23 
*END

*D_NET *47 0.000226645
*CONN
*I *3768:D I *D sky130_fd_sc_hd__dfxtp_2
*I *3502:X O *D sky130_fd_sc_hd__buf_2
*CAP
1 *3768:D 1.5148e-05
2 *3502:X 9.65519e-05
3 *47:8 0.0001117
4 *3768:D *3768:CLK 3.24476e-06
*RES
1 *3502:X *47:8 39.5536 
2 *47:8 *3768:D 38.1916 
*END

*D_NET *48 0.00157976
*CONN
*I *3769:D I *D sky130_fd_sc_hd__dfxtp_2
*I *3504:X O *D sky130_fd_sc_hd__buf_2
*CAP
1 *3769:D 0.000133165
2 *3504:X 0.00034249
3 *48:10 0.000475655
4 *48:10 *3435:S0 1.59094e-05
5 *48:10 *3810:CLK 0.000137744
6 *48:10 *56:8 8.57485e-05
7 *48:10 *424:10 0.000135335
8 *48:10 *432:66 9.35855e-05
9 *48:10 *544:116 0.000160125
10 *48:10 *666:72 0
*RES
1 *3504:X *48:10 45.4571 
2 *48:10 *3769:D 39.7866 
*END

*D_NET *49 0.000558365
*CONN
*I *3770:D I *D sky130_fd_sc_hd__dfxtp_2
*I *3506:X O *D sky130_fd_sc_hd__buf_2
*CAP
1 *3770:D 0.000169144
2 *3506:X 0.000169144
3 *3770:D *3506:A 0.000173134
4 *3770:D *3770:CLK 4.69418e-05
*RES
1 *3506:X *3770:D 49.3402 
*END

*D_NET *50 0.000455876
*CONN
*I *3771:D I *D sky130_fd_sc_hd__dfxtp_2
*I *3508:X O *D sky130_fd_sc_hd__buf_2
*CAP
1 *3771:D 0.000202175
2 *3508:X 0.000202175
3 *3771:D *3508:A 7.71797e-06
4 *3771:D *3771:CLK 4.38081e-05
*RES
1 *3508:X *3771:D 49.4852 
*END

*D_NET *51 0.0020561
*CONN
*I *3772:D I *D sky130_fd_sc_hd__dfxtp_2
*I *3510:X O *D sky130_fd_sc_hd__buf_2
*CAP
1 *3772:D 9.51401e-05
2 *3510:X 0.000434457
3 *51:10 0.000529597
4 *3772:D *609:25 0.000193273
5 *51:10 *418:12 0.000745682
6 *51:10 *427:8 5.79559e-05
7 *51:10 *658:10 0
*RES
1 *3510:X *51:10 48.6264 
2 *51:10 *3772:D 40.0973 
*END

*D_NET *52 0.00054769
*CONN
*I *3773:D I *D sky130_fd_sc_hd__dfxtp_2
*I *3512:X O *D sky130_fd_sc_hd__buf_2
*CAP
1 *3773:D 9.19018e-05
2 *3512:X 9.75962e-05
3 *52:8 0.000189498
4 *52:8 *3788:CLK 0
5 *52:8 *360:14 0.000168694
*RES
1 *3512:X *52:8 40.2579 
2 *52:8 *3773:D 39.6209 
*END

*D_NET *53 0.000846146
*CONN
*I *3774:D I *D sky130_fd_sc_hd__dfxtp_2
*I *3514:X O *D sky130_fd_sc_hd__buf_2
*CAP
1 *3774:D 4.71367e-05
2 *3514:X 0.000218783
3 *53:10 0.000265919
4 *3774:D *152:10 1.31246e-05
5 *53:10 *3806:CLK 0.000114092
6 *53:10 *413:85 0.000187091
*RES
1 *3514:X *53:10 41.6043 
2 *53:10 *3774:D 38.668 
*END

*D_NET *54 0.000694824
*CONN
*I *3775:D I *D sky130_fd_sc_hd__dfxtp_2
*I *3516:X O *D sky130_fd_sc_hd__buf_2
*CAP
1 *3775:D 7.52291e-05
2 *3516:X 0.000128004
3 *54:10 0.000203233
4 *3775:D *613:18 0.00014884
5 *54:10 *3516:A 2.93335e-05
6 *54:10 *421:10 0.000110184
*RES
1 *3516:X *54:10 40.175 
2 *54:10 *3775:D 39.6209 
*END

*D_NET *55 0.000369185
*CONN
*I *3776:D I *D sky130_fd_sc_hd__dfxtp_2
*I *3519:X O *D sky130_fd_sc_hd__buf_1
*CAP
1 *3776:D 1.26271e-05
2 *3519:X 0.000120913
3 *55:10 0.00013354
4 *3776:D *584:16 1.64354e-05
5 *55:10 *3519:A 3.22051e-05
6 *55:10 *3768:CLK 5.34638e-05
*RES
1 *3519:X *55:10 40.175 
2 *55:10 *3776:D 38.1916 
*END

*D_NET *56 0.00109159
*CONN
*I *3777:D I *D sky130_fd_sc_hd__dfxtp_2
*I *3521:X O *D sky130_fd_sc_hd__buf_1
*CAP
1 *3777:D 0.000120111
2 *3521:X 0.00023988
3 *56:8 0.00035999
4 *3777:D *3777:CLK 0.000125581
5 *3777:D *688:67 9.24795e-06
6 *3777:D *688:85 5.50106e-05
7 *56:8 *432:66 9.60166e-05
8 *56:8 *666:72 0
9 *48:10 *56:8 8.57485e-05
*RES
1 *3521:X *56:8 43.4271 
2 *56:8 *3777:D 40.3666 
*END

*D_NET *57 0.000401917
*CONN
*I *3778:D I *D sky130_fd_sc_hd__dfxtp_2
*I *3523:X O *D sky130_fd_sc_hd__buf_1
*CAP
1 *3778:D 8.38584e-06
2 *3523:X 0.000184355
3 *57:10 0.000192741
4 *3778:D *3778:CLK 1.64354e-05
*RES
1 *3523:X *57:10 40.5271 
2 *57:10 *3778:D 38.1916 
*END

*D_NET *58 0.000373828
*CONN
*I *3779:D I *D sky130_fd_sc_hd__dfxtp_2
*I *3525:X O *D sky130_fd_sc_hd__buf_1
*CAP
1 *3779:D 0.000117476
2 *3525:X 0.000117476
3 *3779:D *3459:S0 1.32939e-05
4 *3779:D *3779:CLK 0.000125581
*RES
1 *3525:X *3779:D 48.3873 
*END

*D_NET *59 0.00117145
*CONN
*I *3780:D I *D sky130_fd_sc_hd__dfxtp_2
*I *3527:X O *D sky130_fd_sc_hd__buf_1
*CAP
1 *3780:D 5.85432e-05
2 *3527:X 0.000192898
3 *59:8 0.000251441
4 *59:8 *427:18 4.16868e-05
5 *59:8 *609:10 0.000116314
6 *59:8 *609:68 0.000169674
7 *59:8 *658:10 0.000151817
8 *59:8 *659:12 0.00018907
*RES
1 *3527:X *59:8 45.1879 
2 *59:8 *3780:D 38.9373 
*END

*D_NET *60 0.000544371
*CONN
*I *3781:D I *D sky130_fd_sc_hd__dfxtp_2
*I *3529:X O *D sky130_fd_sc_hd__buf_1
*CAP
1 *3781:D 7.52041e-05
2 *3529:X 6.47943e-05
3 *60:8 0.000139998
4 *3781:D *724:32 0.000148848
5 *60:8 *630:16 0.000115526
*RES
1 *3529:X *60:8 39.5536 
2 *60:8 *3781:D 39.6209 
*END

*D_NET *61 0.00111747
*CONN
*I *3782:D I *D sky130_fd_sc_hd__dfxtp_2
*I *3531:X O *D sky130_fd_sc_hd__buf_1
*CAP
1 *3782:D 1.58638e-05
2 *3531:X 0.000218548
3 *61:10 0.000234412
4 *61:10 *3531:A 7.53384e-06
5 *61:10 *3806:CLK 0
6 *61:10 *85:8 0.000249351
7 *61:10 *452:117 0.000383494
8 *61:10 *688:51 8.26439e-06
*RES
1 *3531:X *61:10 44.1729 
2 *61:10 *3782:D 38.1916 
*END

*D_NET *62 0.000306585
*CONN
*I *3783:D I *D sky130_fd_sc_hd__dfxtp_2
*I *3533:X O *D sky130_fd_sc_hd__buf_1
*CAP
1 *3783:D 0.000147074
2 *3533:X 0.000147074
3 *3783:D *3533:A 1.24376e-05
*RES
1 *3533:X *3783:D 48.3873 
*END

*D_NET *63 0.00167257
*CONN
*I *3784:D I *D sky130_fd_sc_hd__dfxtp_2
*I *3537:X O *D sky130_fd_sc_hd__buf_1
*CAP
1 *3784:D 0.000148726
2 *3537:X 0.000471272
3 *63:10 0.000619998
4 *63:10 *3537:A 2.46906e-05
5 *63:10 *433:10 8.50457e-05
6 *63:10 *443:14 0
7 *63:10 *686:120 2.94066e-05
8 *63:10 *772:10 0.000118947
9 *63:10 *772:31 0.000174487
*RES
1 *3537:X *63:10 46.0786 
2 *63:10 *3784:D 40.0973 
*END

*D_NET *64 0.00036362
*CONN
*I *3785:D I *D sky130_fd_sc_hd__dfxtp_2
*I *3539:X O *D sky130_fd_sc_hd__buf_1
*CAP
1 *3785:D 0.000115199
2 *3539:X 0.000115199
3 *3785:D *3539:A 0.000133222
*RES
1 *3539:X *3785:D 48.3873 
*END

*D_NET *65 0.000295909
*CONN
*I *3786:D I *D sky130_fd_sc_hd__dfxtp_2
*I *3541:X O *D sky130_fd_sc_hd__buf_1
*CAP
1 *3786:D 1.3337e-05
2 *3541:X 5.20076e-05
3 *65:8 6.53446e-05
4 *65:8 *666:72 5.11217e-05
5 *65:8 *774:29 0.000114098
*RES
1 *3541:X *65:8 39.5536 
2 *65:8 *3786:D 38.1916 
*END

*D_NET *66 0.00185302
*CONN
*I *3787:D I *D sky130_fd_sc_hd__dfxtp_2
*I *3543:X O *D sky130_fd_sc_hd__buf_1
*CAP
1 *3787:D 1.31802e-05
2 *3543:X 0.000324237
3 *66:8 0.000337418
4 *66:8 *74:8 9.45911e-05
5 *66:8 *442:24 0.000657352
6 *66:8 *442:37 0.000128501
7 *66:8 *446:10 0.00019288
8 *66:8 *535:26 0
9 *66:8 *635:28 0.000104858
*RES
1 *3543:X *66:8 48.7093 
2 *66:8 *3787:D 38.1916 
*END

*D_NET *67 0.000586181
*CONN
*I *3788:D I *D sky130_fd_sc_hd__dfxtp_2
*I *3545:X O *D sky130_fd_sc_hd__buf_1
*CAP
1 *3788:D 3.50843e-05
2 *3545:X 6.24208e-05
3 *67:8 9.75051e-05
4 *3788:D *3788:CLK 8.6426e-05
5 *3788:D *768:8 3.14001e-05
6 *67:8 *544:106 0.000135557
7 *67:8 *674:54 0.000137788
*RES
1 *3545:X *67:8 39.9057 
2 *67:8 *3788:D 38.9943 
*END

*D_NET *68 0.0011808
*CONN
*I *3789:D I *D sky130_fd_sc_hd__dfxtp_2
*I *3547:X O *D sky130_fd_sc_hd__buf_1
*CAP
1 *3789:D 3.54071e-05
2 *3547:X 0.000349281
3 *68:10 0.000384688
4 *3789:D *461:168 5.99746e-05
5 *68:10 *3565:A 0.000144494
6 *68:10 *452:27 0.000196811
7 *68:10 *724:115 1.01436e-05
*RES
1 *3547:X *68:10 45.0014 
2 *68:10 *3789:D 38.668 
*END

*D_NET *69 0.000305145
*CONN
*I *3790:D I *D sky130_fd_sc_hd__dfxtp_2
*I *3549:X O *D sky130_fd_sc_hd__buf_1
*CAP
1 *3790:D 8.81697e-06
2 *3549:X 9.26419e-05
3 *69:8 0.000101459
4 *3790:D *442:70 1.79713e-05
5 *69:8 *602:62 3.50862e-06
6 *69:8 *635:10 8.07477e-05
*RES
1 *3549:X *69:8 40.2579 
2 *69:8 *3790:D 38.1916 
*END

*D_NET *70 0.000705214
*CONN
*I *3791:D I *D sky130_fd_sc_hd__dfxtp_2
*I *3551:X O *D sky130_fd_sc_hd__buf_1
*CAP
1 *3791:D 7.17495e-06
2 *3551:X 0.000290539
3 *70:12 0.000297714
4 *3791:D *3603:S 1.64354e-05
5 *3791:D *686:83 1.64354e-05
6 *70:12 *3791:CLK 0
7 *70:12 *78:10 1.95604e-05
8 *70:12 *686:35 5.73539e-05
*RES
1 *3551:X *70:12 41.8529 
2 *70:12 *3791:D 38.1916 
*END

*D_NET *71 0.000370658
*CONN
*I *3792:D I *D sky130_fd_sc_hd__dfxtp_2
*I *3555:X O *D sky130_fd_sc_hd__buf_1
*CAP
1 *3792:D 6.27717e-05
2 *3555:X 6.47943e-05
3 *71:8 0.000127566
4 *71:8 *3792:CLK 0.000115526
*RES
1 *3555:X *71:8 39.5536 
2 *71:8 *3792:D 38.9373 
*END

*D_NET *72 0.00170665
*CONN
*I *3793:D I *D sky130_fd_sc_hd__dfxtp_2
*I *3557:X O *D sky130_fd_sc_hd__buf_1
*CAP
1 *3793:D 1.36537e-05
2 *3557:X 0.000386537
3 *72:8 0.00040019
4 *72:8 *3556:A0 0.000445519
5 *72:8 *3591:A1 0.000109101
6 *72:8 *444:10 5.28551e-05
7 *72:8 *624:14 3.36258e-05
8 *72:8 *624:96 2.99696e-05
9 *72:8 *686:152 1.22906e-05
10 *72:8 *773:10 0.000137788
11 *72:8 *789:10 8.51225e-05
*RES
1 *3557:X *72:8 48.3571 
2 *72:8 *3793:D 38.1916 
*END

*D_NET *73 0.00182314
*CONN
*I *3794:D I *D sky130_fd_sc_hd__dfxtp_2
*I *3559:X O *D sky130_fd_sc_hd__buf_1
*CAP
1 *3794:D 9.13383e-05
2 *3559:X 0.000366393
3 *73:10 0.000457731
4 *3794:D *688:85 0.000141707
5 *73:10 *3436:A1 0.00022159
6 *73:10 *3540:A1 0.000375529
7 *73:10 *766:31 0
8 *73:10 *774:16 0.00016885
*RES
1 *3559:X *73:10 45.6021 
2 *73:10 *3794:D 39.6209 
*END

*D_NET *74 0.00156941
*CONN
*I *3795:D I *D sky130_fd_sc_hd__dfxtp_2
*I *3561:X O *D sky130_fd_sc_hd__buf_1
*CAP
1 *3795:D 0.000148873
2 *3561:X 0.000219377
3 *74:8 0.000368251
4 *3795:D *783:27 0.000103526
5 *74:8 *3739:S 8.36198e-05
6 *74:8 *446:10 9.37325e-05
7 *74:8 *535:26 0.000457444
8 *66:8 *74:8 9.45911e-05
*RES
1 *3561:X *74:8 45.1879 
2 *74:8 *3795:D 40.5737 
*END

*D_NET *75 0.00174932
*CONN
*I *3796:D I *D sky130_fd_sc_hd__dfxtp_2
*I *3563:X O *D sky130_fd_sc_hd__buf_1
*CAP
1 *3796:D 6.88212e-05
2 *3563:X 0.000472197
3 *75:10 0.000541018
4 *3796:D *4008:A 6.45598e-05
5 *3796:D *668:18 0.000102319
6 *75:10 *3544:A0 0
7 *75:10 *3773:CLK 8.09866e-05
8 *75:10 *377:10 0
9 *75:10 *562:43 1.24376e-05
10 *75:10 *562:47 4.79544e-05
11 *75:10 *562:56 0.000123428
12 *75:10 *612:24 0.000177914
13 *75:10 *674:54 5.76837e-05
*RES
1 *3563:X *75:10 48.7507 
2 *75:10 *3796:D 40.0973 
*END

*D_NET *76 0.00174188
*CONN
*I *3797:D I *D sky130_fd_sc_hd__dfxtp_2
*I *3565:X O *D sky130_fd_sc_hd__buf_1
*CAP
1 *3797:D 4.03867e-05
2 *3565:X 0.00045716
3 *76:8 0.000497546
4 *3797:D *3803:CLK 9.04092e-05
5 *76:8 *3789:CLK 0.000275482
6 *76:8 *586:47 0.000141613
7 *76:8 *630:14 8.52094e-06
8 *76:8 *630:16 0.000142243
9 *76:8 *785:28 8.85189e-05
*RES
1 *3565:X *76:8 48.7093 
2 *76:8 *3797:D 38.9943 
*END

*D_NET *77 0.00144352
*CONN
*I *3798:D I *D sky130_fd_sc_hd__dfxtp_2
*I *3567:X O *D sky130_fd_sc_hd__buf_1
*CAP
1 *3798:D 4.62744e-06
2 *3567:X 0.000326428
3 *77:10 0.000331056
4 *3798:D *602:49 1.64354e-05
5 *3798:D *667:31 1.74843e-05
6 *77:10 *390:10 0.000194318
7 *77:10 *442:37 0.000402748
8 *77:10 *442:53 2.69681e-05
9 *77:10 *442:70 5.3304e-05
10 *77:10 *635:10 2.28401e-05
11 *77:10 *722:76 4.73155e-05
*RES
1 *3567:X *77:10 45.0014 
2 *77:10 *3798:D 38.1916 
*END

*D_NET *78 0.00231234
*CONN
*I *3799:D I *D sky130_fd_sc_hd__dfxtp_2
*I *3569:X O *D sky130_fd_sc_hd__buf_1
*CAP
1 *3799:D 9.82804e-05
2 *3569:X 0.000359795
3 *78:10 0.000458076
4 *3799:D *3799:CLK 0.000100069
5 *3799:D *452:37 0.000263619
6 *78:10 *3586:A0 0.000233388
7 *78:10 *3791:CLK 0.000138708
8 *78:10 *3799:CLK 0.000263217
9 *78:10 *662:34 0.000100805
10 *78:10 *686:22 0
11 *78:10 *787:10 0.000276816
12 *70:12 *78:10 1.95604e-05
*RES
1 *3569:X *78:10 46.99 
2 *78:10 *3799:D 40.9 
*END

*D_NET *79 0.000364379
*CONN
*I *3800:D I *D sky130_fd_sc_hd__dfxtp_2
*I *3573:X O *D sky130_fd_sc_hd__buf_2
*CAP
1 *3800:D 4.62744e-06
2 *3573:X 0.000132532
3 *79:8 0.000137159
4 *3800:D *584:14 1.64354e-05
5 *3800:D *686:134 1.74843e-05
6 *79:8 *584:60 5.61414e-05
7 *79:8 *626:10 0
*RES
1 *3573:X *79:8 40.61 
2 *79:8 *3800:D 38.1916 
*END

*D_NET *80 0.00021968
*CONN
*I *3801:D I *D sky130_fd_sc_hd__dfxtp_2
*I *3575:X O *D sky130_fd_sc_hd__buf_2
*CAP
1 *3801:D 1.12314e-05
2 *3575:X 9.59352e-05
3 *80:8 0.000107167
4 *3801:D *686:120 5.34647e-06
*RES
1 *3575:X *80:8 39.5536 
2 *80:8 *3801:D 38.1916 
*END

*D_NET *81 0.000642438
*CONN
*I *3802:D I *D sky130_fd_sc_hd__dfxtp_2
*I *3577:X O *D sky130_fd_sc_hd__buf_2
*CAP
1 *3802:D 6.869e-05
2 *3577:X 0.000197781
3 *81:8 0.000266471
4 *81:8 *662:82 0.000109496
5 *81:8 *681:141 0
*RES
1 *3577:X *81:8 42.3707 
2 *81:8 *3802:D 39.1445 
*END

*D_NET *82 0.00106554
*CONN
*I *3803:D I *D sky130_fd_sc_hd__dfxtp_2
*I *3579:X O *D sky130_fd_sc_hd__buf_2
*CAP
1 *3803:D 5.20496e-05
2 *3579:X 0.000320505
3 *82:10 0.000372555
4 *3803:D *777:10 3.24476e-06
5 *82:10 *3578:A1 6.89359e-06
6 *82:10 *3579:A 2.33782e-05
7 *82:10 *422:39 5.0518e-05
8 *82:10 *452:111 5.28455e-05
9 *82:10 *783:14 0.000183547
*RES
1 *3579:X *82:10 43.0336 
2 *82:10 *3803:D 38.668 
*END

*D_NET *83 0.000640859
*CONN
*I *3804:D I *D sky130_fd_sc_hd__dfxtp_2
*I *3581:X O *D sky130_fd_sc_hd__buf_2
*CAP
1 *3804:D 9.69592e-06
2 *3581:X 8.52682e-05
3 *83:8 9.49641e-05
4 *3804:D *388:18 3.24476e-06
5 *3804:D *652:20 1.64354e-05
6 *83:8 *3481:A2 0.000214556
7 *83:8 *681:77 0.000216694
*RES
1 *3581:X *83:8 40.9621 
2 *83:8 *3804:D 38.1916 
*END

*D_NET *84 0.00231063
*CONN
*I *3805:D I *D sky130_fd_sc_hd__dfxtp_2
*I *3583:X O *D sky130_fd_sc_hd__buf_2
*CAP
1 *3805:D 6.24529e-05
2 *3583:X 0.000277927
3 *84:8 0.00034038
4 *3805:D *662:34 4.5591e-05
5 *3805:D *666:16 0.000142697
6 *84:8 *92:8 0.000401825
7 *84:8 *360:14 5.0896e-05
8 *84:8 *458:14 0.000100533
9 *84:8 *467:10 0.000592312
10 *84:8 *695:24 0.000296017
*RES
1 *3583:X *84:8 48.7093 
2 *84:8 *3805:D 39.6209 
*END

*D_NET *85 0.00174117
*CONN
*I *3806:D I *D sky130_fd_sc_hd__dfxtp_2
*I *3585:X O *D sky130_fd_sc_hd__buf_2
*CAP
1 *3806:D 9.33332e-05
2 *3585:X 0.000529663
3 *85:8 0.000622996
4 *85:8 *3806:CLK 0
5 *85:8 *452:117 0.000167167
6 *85:8 *452:138 7.86612e-05
7 *85:8 *589:10 0
8 *85:8 *589:32 0
9 *61:10 *85:8 0.000249351
*RES
1 *3585:X *85:8 48.7093 
2 *85:8 *3806:D 39.6209 
*END

*D_NET *86 0.000451559
*CONN
*I *3807:D I *D sky130_fd_sc_hd__dfxtp_2
*I *3587:X O *D sky130_fd_sc_hd__buf_2
*CAP
1 *3807:D 1.11297e-05
2 *3587:X 0.000201231
3 *86:10 0.000212361
4 *3807:D *662:34 4.9054e-06
5 *86:10 *363:18 0
6 *86:10 *452:66 0
7 *86:10 *686:83 2.19315e-05
*RES
1 *3587:X *86:10 40.8793 
2 *86:10 *3807:D 38.1916 
*END

*D_NET *87 0.00114536
*CONN
*I *3808:D I *D sky130_fd_sc_hd__dfxtp_2
*I *3590:X O *D sky130_fd_sc_hd__buf_1
*CAP
1 *3808:D 0.000159879
2 *3590:X 0.000201312
3 *87:8 0.000361191
4 *87:8 *452:81 7.38205e-05
5 *87:8 *462:10 8.92738e-05
6 *87:8 *584:8 6.6869e-05
7 *87:8 *780:20 0.000193011
*RES
1 *3590:X *87:8 43.075 
2 *87:8 *3808:D 40.5737 
*END

*D_NET *88 0.00128699
*CONN
*I *3809:D I *D sky130_fd_sc_hd__dfxtp_2
*I *3592:X O *D sky130_fd_sc_hd__buf_1
*CAP
1 *3809:D 0
2 *3592:X 0.000337401
3 *88:8 0.000337401
4 *88:8 *3592:A 0.000364771
5 *88:8 *624:6 0.000231278
6 *88:8 *789:10 1.61361e-05
*RES
1 *3592:X *88:8 30.3587 
2 *88:8 *3809:D 23 
*END

*D_NET *89 0.000826876
*CONN
*I *3810:D I *D sky130_fd_sc_hd__dfxtp_2
*I *3594:X O *D sky130_fd_sc_hd__buf_1
*CAP
1 *3810:D 0.000114511
2 *3594:X 0.000169873
3 *89:10 0.000284384
4 *3810:D *445:10 7.00259e-05
5 *89:10 *3436:A1 2.15233e-05
6 *89:10 *445:10 8.57485e-05
7 *89:10 *699:93 8.08108e-05
*RES
1 *3594:X *89:10 41.3557 
2 *89:10 *3810:D 40.5737 
*END

*D_NET *90 0.00147169
*CONN
*I *3811:D I *D sky130_fd_sc_hd__dfxtp_2
*I *3596:X O *D sky130_fd_sc_hd__buf_1
*CAP
1 *3811:D 6.23501e-06
2 *3596:X 0.000395515
3 *90:14 0.00040175
4 *3811:D *535:36 1.00591e-05
5 *90:14 *3795:CLK 0.000190328
6 *90:14 *422:39 0
7 *90:14 *465:14 0.000385756
8 *90:14 *587:12 5.75756e-06
9 *26:20 *90:14 5.49782e-05
10 *26:22 *90:14 2.13125e-05
*RES
1 *3596:X *90:14 49.0407 
2 *90:14 *3811:D 38.1916 
*END

*D_NET *91 0.000384429
*CONN
*I *3812:D I *D sky130_fd_sc_hd__dfxtp_2
*I *3598:X O *D sky130_fd_sc_hd__buf_1
*CAP
1 *3812:D 0.000158493
2 *3598:X 0.000158493
3 *3812:D *3598:A 1.24376e-05
4 *3812:D *3812:CLK 5.50049e-05
*RES
1 *3598:X *3812:D 48.3873 
*END

*D_NET *92 0.00150776
*CONN
*I *3813:D I *D sky130_fd_sc_hd__dfxtp_2
*I *3600:X O *D sky130_fd_sc_hd__buf_1
*CAP
1 *3813:D 5.28134e-05
2 *3600:X 0.000198181
3 *92:8 0.000250994
4 *3813:D *3476:S0 1.13128e-05
5 *92:8 *360:14 0.000530399
6 *92:8 *467:10 6.22372e-05
7 *84:8 *92:8 0.000401825
*RES
1 *3600:X *92:8 45.1879 
2 *92:8 *3813:D 38.668 
*END

*D_NET *93 0.000791834
*CONN
*I *3814:D I *D sky130_fd_sc_hd__dfxtp_2
*I *3602:X O *D sky130_fd_sc_hd__buf_1
*CAP
1 *3814:D 6.85918e-06
2 *3602:X 0.000256703
3 *93:10 0.000263562
4 *3814:D *3584:A0 7.10068e-06
5 *3814:D *3584:A1 8.15899e-06
6 *93:10 *3601:A0 0.000103306
7 *93:10 *452:138 6.26082e-05
8 *93:10 *468:10 2.14486e-05
9 *93:10 *722:33 6.2088e-05
*RES
1 *3602:X *93:10 43.3443 
2 *93:10 *3814:D 38.1916 
*END

*D_NET *94 0.000716718
*CONN
*I *3815:D I *D sky130_fd_sc_hd__dfxtp_2
*I *3604:X O *D sky130_fd_sc_hd__buf_1
*CAP
1 *3815:D 9.8583e-05
2 *3604:X 6.47603e-05
3 *94:8 0.000163343
4 *3815:D *695:66 0.000230553
5 *94:8 *363:18 0.000109443
6 *94:8 *460:10 5.00353e-05
*RES
1 *3604:X *94:8 39.5536 
2 *94:8 *3815:D 40.5737 
*END

*D_NET *95 0.00144863
*CONN
*I *3816:D I *D sky130_fd_sc_hd__dfxtp_2
*I *3607:X O *D sky130_fd_sc_hd__buf_2
*CAP
1 *3816:D 1.26271e-05
2 *3607:X 0.0005215
3 *95:10 0.000534127
4 *3816:D *608:10 1.64354e-05
5 *95:10 *3640:A0 0
6 *95:10 *471:8 8.90527e-05
7 *95:10 *480:14 0.000219264
8 *95:10 *489:10 5.56279e-05
9 *95:10 *804:10 0
10 *95:10 *812:8 0
*RES
1 *3607:X *95:10 46.8036 
2 *95:10 *3816:D 38.1916 
*END

*D_NET *96 0.00104301
*CONN
*I *3817:D I *D sky130_fd_sc_hd__dfxtp_2
*I *3609:X O *D sky130_fd_sc_hd__buf_2
*CAP
1 *3817:D 0.00017008
2 *3609:X 7.4286e-05
3 *96:8 0.000244366
4 *3817:D *3975:A 0.000100124
5 *3817:D *582:27 0.000163466
6 *96:8 *507:46 0.000194309
7 *96:8 *633:23 9.63815e-05
*RES
1 *3609:X *96:8 40.61 
2 *96:8 *3817:D 41.0502 
*END

*D_NET *97 0.00039452
*CONN
*I *3818:D I *D sky130_fd_sc_hd__dfxtp_2
*I *3611:X O *D sky130_fd_sc_hd__buf_2
*CAP
1 *3818:D 1.2998e-05
2 *3611:X 0.000156366
3 *97:10 0.000169364
4 *97:10 *3644:A1 5.5792e-05
*RES
1 *3611:X *97:10 40.5271 
2 *97:10 *3818:D 38.1916 
*END

*D_NET *98 0.00145091
*CONN
*I *3819:D I *D sky130_fd_sc_hd__dfxtp_2
*I *3613:X O *D sky130_fd_sc_hd__buf_2
*CAP
1 *3819:D 7.17495e-06
2 *3613:X 0.000317566
3 *98:10 0.00032474
4 *3819:D *3646:A1 1.64354e-05
5 *3819:D *632:14 1.64354e-05
6 *98:10 *3629:A1 5.58003e-05
7 *98:10 *408:14 0.000528209
8 *98:10 *619:21 1.58805e-05
9 *98:10 *815:10 0.000168669
10 *42:14 *98:10 0
*RES
1 *3613:X *98:10 45.8093 
2 *98:10 *3819:D 38.1916 
*END

*D_NET *99 0.00153346
*CONN
*I *3820:D I *D sky130_fd_sc_hd__dfxtp_2
*I *3615:X O *D sky130_fd_sc_hd__buf_2
*CAP
1 *3820:D 9.40574e-05
2 *3615:X 0.000297243
3 *99:10 0.0003913
4 *3820:D *3820:CLK 5.5792e-05
5 *3820:D *664:32 0.00010368
6 *99:10 *3615:A 3.20631e-05
7 *99:10 *3631:A0 2.03704e-05
8 *99:10 *3820:CLK 2.47126e-05
9 *99:10 *115:8 0.000113235
10 *99:10 *594:10 7.84832e-05
11 *99:10 *808:10 0.000322528
*RES
1 *3615:X *99:10 44.4214 
2 *99:10 *3820:D 39.8902 
*END

*D_NET *100 0.00150645
*CONN
*I *3821:D I *D sky130_fd_sc_hd__dfxtp_2
*I *3617:X O *D sky130_fd_sc_hd__buf_2
*CAP
1 *3821:D 0.000153263
2 *3617:X 0.000151075
3 *100:10 0.000304338
4 *3821:D *488:100 0.000140259
5 *3821:D *591:14 0.0001172
6 *3821:D *591:18 0.000401102
7 *3821:D *817:10 0.000219589
8 *100:10 *116:8 1.01436e-05
9 *100:10 *488:100 9.48381e-06
10 *100:10 *633:23 0
*RES
1 *3617:X *100:10 40.175 
2 *100:10 *3821:D 43.7016 
*END

*D_NET *101 0.000394871
*CONN
*I *3822:D I *D sky130_fd_sc_hd__dfxtp_2
*I *3619:X O *D sky130_fd_sc_hd__buf_2
*CAP
1 *3822:D 5.81553e-05
2 *3619:X 9.67085e-05
3 *101:8 0.000154864
4 *101:8 *477:8 0
5 *101:8 *674:8 8.51432e-05
*RES
1 *3619:X *101:8 40.2579 
2 *101:8 *3822:D 38.9943 
*END

*D_NET *102 0.000680616
*CONN
*I *3823:D I *D sky130_fd_sc_hd__dfxtp_2
*I *3621:X O *D sky130_fd_sc_hd__buf_2
*CAP
1 *3823:D 5.6164e-05
2 *3621:X 0.000148927
3 *102:10 0.000205091
4 *3823:D *3823:CLK 8.68427e-05
5 *102:10 *3621:A 3.7122e-06
6 *102:10 *478:10 0.000167443
7 *102:10 *605:22 1.24365e-05
*RES
1 *3621:X *102:10 40.8793 
2 *102:10 *3823:D 38.9943 
*END

*D_NET *103 0.000515351
*CONN
*I *3824:D I *D sky130_fd_sc_hd__dfxtp_2
*I *3624:X O *D sky130_fd_sc_hd__buf_4
*CAP
1 *3824:D 5.25467e-05
2 *3624:X 6.12774e-05
3 *103:8 0.000113824
4 *3824:D *3824:CLK 2.88997e-05
5 *103:8 *3824:CLK 0.000115526
6 *103:8 *111:12 0.000143276
*RES
1 *3624:X *103:8 39.9057 
2 *103:8 *3824:D 39.1652 
*END

*D_NET *104 0.00121373
*CONN
*I *3825:D I *D sky130_fd_sc_hd__dfxtp_2
*I *3626:X O *D sky130_fd_sc_hd__buf_4
*CAP
1 *3825:D 0.000159039
2 *3626:X 0.000153378
3 *104:8 0.000312417
4 *3825:D *3825:CLK 5.09544e-05
5 *3825:D *691:56 0.000186794
6 *104:8 *481:10 0.000137737
7 *104:8 *525:58 0.00021341
*RES
1 *3626:X *104:8 43.4271 
2 *104:8 *3825:D 41.8529 
*END

*D_NET *105 0.000395515
*CONN
*I *3826:D I *D sky130_fd_sc_hd__dfxtp_2
*I *3628:X O *D sky130_fd_sc_hd__buf_4
*CAP
1 *3826:D 1.02508e-05
2 *3628:X 0.000173598
3 *105:8 0.000183849
4 *3826:D *3826:CLK 1.64354e-05
5 *105:8 *605:36 1.13812e-05
*RES
1 *3628:X *105:8 41.3143 
2 *105:8 *3826:D 38.1916 
*END

*D_NET *106 0.00025616
*CONN
*I *3827:D I *D sky130_fd_sc_hd__dfxtp_2
*I *3630:X O *D sky130_fd_sc_hd__buf_4
*CAP
1 *3827:D 1.26271e-05
2 *3630:X 0.00010606
3 *106:8 0.000118687
4 *3827:D *3446:S0 1.64354e-05
5 *106:8 *3446:S1 2.35118e-06
*RES
1 *3630:X *106:8 39.9057 
2 *106:8 *3827:D 38.1916 
*END

*D_NET *107 0.000474648
*CONN
*I *3828:D I *D sky130_fd_sc_hd__dfxtp_2
*I *3632:X O *D sky130_fd_sc_hd__buf_4
*CAP
1 *3828:D 8.45249e-06
2 *3632:X 0.000175257
3 *107:10 0.00018371
4 *3828:D *594:51 1.64354e-05
5 *107:10 *3762:CLK 5.43544e-05
6 *107:10 *594:51 3.64394e-05
*RES
1 *3632:X *107:10 41.3557 
2 *107:10 *3828:D 38.1916 
*END

*D_NET *108 0.00093544
*CONN
*I *3829:D I *D sky130_fd_sc_hd__dfxtp_2
*I *3634:X O *D sky130_fd_sc_hd__buf_4
*CAP
1 *3829:D 0.000177441
2 *3634:X 6.97587e-05
3 *108:8 0.0002472
4 *108:8 *485:8 0.00022052
5 *108:8 *723:38 0.00022052
*RES
1 *3634:X *108:8 40.9621 
2 *108:8 *3829:D 41.0502 
*END

*D_NET *109 0.000590032
*CONN
*I *3830:D I *D sky130_fd_sc_hd__dfxtp_2
*I *3636:X O *D sky130_fd_sc_hd__buf_4
*CAP
1 *3830:D 6.75375e-05
2 *3636:X 0.000130319
3 *109:8 0.000197857
4 *109:8 *593:24 0.000194318
*RES
1 *3636:X *109:8 40.9621 
2 *109:8 *3830:D 38.9943 
*END

*D_NET *110 0.000436327
*CONN
*I *3831:D I *D sky130_fd_sc_hd__dfxtp_2
*I *3638:X O *D sky130_fd_sc_hd__buf_4
*CAP
1 *3831:D 1.03711e-05
2 *3638:X 0.000138726
3 *110:8 0.000149097
4 *3831:D *3831:CLK 1.64354e-05
5 *110:8 *605:22 0.000121698
*RES
1 *3638:X *110:8 41.3143 
2 *110:8 *3831:D 38.1916 
*END

*D_NET *111 0.00147893
*CONN
*I *3832:D I *D sky130_fd_sc_hd__dfxtp_2
*I *3641:X O *D sky130_fd_sc_hd__buf_2
*CAP
1 *3832:D 1.58638e-05
2 *3641:X 0.000547678
3 *111:12 0.000563542
4 *111:12 *3824:CLK 2.56281e-05
5 *111:12 *3832:CLK 9.19995e-05
6 *111:12 *489:10 9.09407e-05
7 *103:8 *111:12 0.000143276
*RES
1 *3641:X *111:12 49.4757 
2 *111:12 *3832:D 38.1916 
*END

*D_NET *112 0.000428084
*CONN
*I *3833:D I *D sky130_fd_sc_hd__dfxtp_2
*I *3643:X O *D sky130_fd_sc_hd__buf_2
*CAP
1 *3833:D 4.81616e-05
2 *3643:X 7.24341e-05
3 *112:8 0.000120596
4 *3833:D *404:57 0.000100782
5 *112:8 *488:44 2.93666e-05
6 *112:8 *490:10 5.21127e-05
7 *112:8 *623:28 4.6318e-06
*RES
1 *3643:X *112:8 39.5536 
2 *112:8 *3833:D 39.1445 
*END

*D_NET *113 0.000601467
*CONN
*I *3834:D I *D sky130_fd_sc_hd__dfxtp_2
*I *3645:X O *D sky130_fd_sc_hd__buf_2
*CAP
1 *3834:D 0.000163811
2 *3645:X 6.32926e-05
3 *113:8 0.000227103
4 *113:8 *3627:A0 7.70737e-05
5 *113:8 *664:48 3.31683e-05
6 *113:8 *806:8 3.70187e-05
*RES
1 *3645:X *113:8 39.5536 
2 *113:8 *3834:D 40.5737 
*END

*D_NET *114 0.000758448
*CONN
*I *3835:D I *D sky130_fd_sc_hd__dfxtp_2
*I *3647:X O *D sky130_fd_sc_hd__buf_2
*CAP
1 *3835:D 6.42759e-06
2 *3647:X 0.00026301
3 *114:10 0.000269437
4 *3835:D *3835:CLK 1.64354e-05
5 *114:10 *3629:S 0
6 *114:10 *3835:CLK 3.05919e-05
7 *114:10 *672:22 8.98982e-05
8 *114:10 *685:93 8.26478e-05
*RES
1 *3647:X *114:10 42.205 
2 *114:10 *3835:D 38.1916 
*END

*D_NET *115 0.00099345
*CONN
*I *3836:D I *D sky130_fd_sc_hd__dfxtp_2
*I *3649:X O *D sky130_fd_sc_hd__buf_2
*CAP
1 *3836:D 0.000180047
2 *3649:X 4.37237e-05
3 *115:8 0.000223771
4 *3836:D *3764:CLK 4.08664e-05
5 *3836:D *594:25 0.000278572
6 *115:8 *3820:CLK 0.000113235
7 *99:10 *115:8 0.000113235
*RES
1 *3649:X *115:8 39.5536 
2 *115:8 *3836:D 41.5266 
*END

*D_NET *116 0.000791128
*CONN
*I *3837:D I *D sky130_fd_sc_hd__dfxtp_2
*I *3651:X O *D sky130_fd_sc_hd__buf_2
*CAP
1 *3837:D 3.95391e-05
2 *3651:X 0.000133354
3 *116:8 0.000172894
4 *3837:D *488:100 0.00018878
5 *3837:D *591:18 0.000187079
6 *116:8 *488:100 0
7 *116:8 *633:23 5.93381e-05
8 *100:10 *116:8 1.01436e-05
*RES
1 *3651:X *116:8 40.61 
2 *116:8 *3837:D 40.0973 
*END

*D_NET *117 0.00149133
*CONN
*I *3838:D I *D sky130_fd_sc_hd__dfxtp_2
*I *3653:X O *D sky130_fd_sc_hd__buf_2
*CAP
1 *3838:D 5.23956e-05
2 *3653:X 0.000224202
3 *117:8 0.000276597
4 *3838:D *593:16 2.88997e-05
5 *117:8 *3761:CLK 0.000141879
6 *117:8 *593:16 0.000225265
7 *117:8 *634:35 0.000542095
*RES
1 *3653:X *117:8 45.1879 
2 *117:8 *3838:D 39.1652 
*END

*D_NET *118 0.000660968
*CONN
*I *3839:D I *D sky130_fd_sc_hd__dfxtp_2
*I *3655:X O *D sky130_fd_sc_hd__buf_2
*CAP
1 *3839:D 6.27942e-05
2 *3655:X 0.000176014
3 *118:10 0.000238808
4 *118:10 *605:22 1.14452e-05
5 *118:10 *605:28 0.000171906
*RES
1 *3655:X *118:10 41.3557 
2 *118:10 *3839:D 38.9943 
*END

*D_NET *119 0.000352717
*CONN
*I *3840:D I *D sky130_fd_sc_hd__dfxtp_2
*I *3659:X O *D sky130_fd_sc_hd__buf_1
*CAP
1 *3840:D 0.000141077
2 *3659:X 0.000141077
3 *3840:D *3659:A 1.47709e-05
4 *3840:D *3840:CLK 5.5792e-05
*RES
1 *3659:X *3840:D 48.3873 
*END

*D_NET *120 0.00127349
*CONN
*I *3841:D I *D sky130_fd_sc_hd__dfxtp_2
*I *3661:X O *D sky130_fd_sc_hd__buf_1
*CAP
1 *3841:D 8.15305e-05
2 *3661:X 9.97934e-05
3 *120:8 0.000181324
4 *3841:D *516:109 0.000456439
5 *3841:D *691:16 0.000454399
6 *120:8 *149:10 0
7 *120:8 *358:14 0
*RES
1 *3661:X *120:8 39.5536 
2 *120:8 *3841:D 42.9559 
*END

*D_NET *121 0.00163934
*CONN
*I *3842:D I *D sky130_fd_sc_hd__dfxtp_2
*I *3663:X O *D sky130_fd_sc_hd__buf_1
*CAP
1 *3842:D 9.45023e-05
2 *3663:X 0.000125481
3 *121:8 0.000219983
4 *3842:D *3842:CLK 0.000182826
5 *3842:D *516:57 0.000261798
6 *121:8 *516:57 0.000376261
7 *121:8 *684:50 0.000378492
*RES
1 *3663:X *121:8 43.075 
2 *121:8 *3842:D 41.3764 
*END

*D_NET *122 0.000770718
*CONN
*I *3843:D I *D sky130_fd_sc_hd__dfxtp_2
*I *3665:X O *D sky130_fd_sc_hd__buf_1
*CAP
1 *3843:D 6.8058e-05
2 *3665:X 0.000217819
3 *122:10 0.000285877
4 *122:10 *3698:A0 0
5 *122:10 *502:8 0
6 *122:10 *562:262 9.90049e-05
7 *122:10 *619:55 9.99588e-05
*RES
1 *3665:X *122:10 42.5364 
2 *122:10 *3843:D 38.9373 
*END

*D_NET *123 0.000364622
*CONN
*I *3844:D I *D sky130_fd_sc_hd__dfxtp_2
*I *3667:X O *D sky130_fd_sc_hd__buf_1
*CAP
1 *3844:D 0.000134233
2 *3667:X 0.000134233
3 *3844:D *590:34 6.64204e-05
4 *3844:D *663:64 2.97352e-05
*RES
1 *3667:X *3844:D 48.5323 
*END

*D_NET *124 0.00160827
*CONN
*I *3845:D I *D sky130_fd_sc_hd__dfxtp_2
*I *3669:X O *D sky130_fd_sc_hd__buf_1
*CAP
1 *3845:D 6.62623e-05
2 *3669:X 0.000170898
3 *124:10 0.00023716
4 *3845:D *663:43 0.000280222
5 *3845:D *723:90 0.000235424
6 *124:10 *3685:A0 0.000191148
7 *124:10 *488:88 5.67058e-05
8 *124:10 *634:27 6.43005e-05
9 *124:10 *723:62 0.000222104
10 *124:10 *723:90 8.4047e-05
*RES
1 *3669:X *124:10 42.9921 
2 *124:10 *3845:D 41.0502 
*END

*D_NET *125 0.000934549
*CONN
*I *3846:D I *D sky130_fd_sc_hd__dfxtp_2
*I *3671:X O *D sky130_fd_sc_hd__buf_1
*CAP
1 *3846:D 6.67255e-05
2 *3671:X 0.000228429
3 *125:10 0.000295154
4 *3846:D *516:105 9.81682e-05
5 *125:10 *3691:B_N 1.35999e-05
6 *125:10 *393:14 0.000110458
7 *125:10 *507:24 1.37872e-05
8 *125:10 *721:10 0.000108227
*RES
1 *3671:X *125:10 41.6043 
2 *125:10 *3846:D 39.1445 
*END

*D_NET *126 0.000561667
*CONN
*I *3847:D I *D sky130_fd_sc_hd__dfxtp_2
*I *3673:X O *D sky130_fd_sc_hd__buf_1
*CAP
1 *3847:D 0
2 *3673:X 0.000109836
3 *126:12 0.000109836
4 *126:12 *3673:A 0.00016933
5 *126:12 *3847:CLK 1.14154e-05
6 *126:12 *592:6 0.000104208
7 *126:12 *592:14 5.70419e-05
*RES
1 *3673:X *126:12 27.0393 
2 *126:12 *3847:D 23 
*END

*D_NET *127 0.000317614
*CONN
*I *3848:D I *D sky130_fd_sc_hd__dfxtp_2
*I *3676:X O *D sky130_fd_sc_hd__buf_1
*CAP
1 *3848:D 7.17495e-06
2 *3676:X 8.0068e-05
3 *127:8 8.72429e-05
4 *3848:D *3709:S 1.64354e-05
5 *3848:D *625:82 1.64354e-05
6 *127:8 *499:10 0.000110258
*RES
1 *3676:X *127:8 39.5536 
2 *127:8 *3848:D 38.1916 
*END

*D_NET *128 0.00158271
*CONN
*I *3849:D I *D sky130_fd_sc_hd__dfxtp_2
*I *3678:X O *D sky130_fd_sc_hd__buf_1
*CAP
1 *3849:D 8.18872e-06
2 *3678:X 0.000240022
3 *128:10 0.000248211
4 *3849:D *599:22 1.64354e-05
5 *128:10 *3429:S1 6.78081e-05
6 *128:10 *3711:A1 0.00019025
7 *128:10 *509:8 0.000562577
8 *128:10 *544:32 5.50106e-05
9 *128:10 *684:8 3.3746e-05
10 *128:10 *845:10 0.00016046
*RES
1 *3678:X *128:10 46.1614 
2 *128:10 *3849:D 38.1916 
*END

*D_NET *129 0.000462674
*CONN
*I *3850:D I *D sky130_fd_sc_hd__dfxtp_2
*I *3680:X O *D sky130_fd_sc_hd__buf_1
*CAP
1 *3850:D 5.81708e-05
2 *3680:X 8.83243e-05
3 *129:8 0.000146495
4 *129:8 *3439:S 0.000169683
5 *129:8 *364:10 0
*RES
1 *3680:X *129:8 40.2579 
2 *129:8 *3850:D 38.9943 
*END

*D_NET *130 0.000478586
*CONN
*I *3851:D I *D sky130_fd_sc_hd__dfxtp_2
*I *3682:X O *D sky130_fd_sc_hd__buf_1
*CAP
1 *3851:D 4.69464e-05
2 *3682:X 8.4595e-05
3 *130:8 0.000131541
4 *3851:D *619:71 2.94115e-05
5 *3851:D *847:12 2.95423e-05
6 *130:8 *479:8 4.16051e-06
7 *130:8 *511:12 7.7495e-05
8 *130:8 *525:14 6.35124e-05
9 *130:8 *598:45 1.13812e-05
*RES
1 *3682:X *130:8 40.2579 
2 *130:8 *3851:D 38.9943 
*END

*D_NET *131 0.00116506
*CONN
*I *3852:D I *D sky130_fd_sc_hd__dfxtp_2
*I *3684:X O *D sky130_fd_sc_hd__buf_1
*CAP
1 *3852:D 1.87115e-05
2 *3684:X 0.000306715
3 *131:10 0.000325427
4 *3852:D *3456:A0 8.54287e-05
5 *3852:D *380:22 8.54287e-05
6 *131:10 *3454:S0 2.56175e-05
7 *131:10 *590:12 0.000110267
8 *131:10 *590:25 6.99011e-05
9 *131:10 *684:86 3.25397e-05
10 *131:10 *690:14 3.71217e-05
11 *131:10 *690:16 6.79006e-05
*RES
1 *3684:X *131:10 43.945 
2 *131:10 *3852:D 38.9373 
*END

*D_NET *132 0.000890367
*CONN
*I *3853:D I *D sky130_fd_sc_hd__dfxtp_2
*I *3686:X O *D sky130_fd_sc_hd__buf_1
*CAP
1 *3853:D 3.98102e-05
2 *3686:X 0.000218147
3 *132:8 0.000257957
4 *3853:D *597:18 9.04092e-05
5 *132:8 *516:86 1.82417e-05
6 *132:8 *597:24 0.000227497
7 *132:8 *723:107 3.83059e-05
*RES
1 *3686:X *132:8 43.075 
2 *132:8 *3853:D 38.9943 
*END

*D_NET *133 0.000711523
*CONN
*I *3854:D I *D sky130_fd_sc_hd__dfxtp_2
*I *3688:X O *D sky130_fd_sc_hd__buf_1
*CAP
1 *3854:D 0.000258856
2 *3688:X 0.000258856
3 *3854:D *3854:CLK 0.000193811
*RES
1 *3688:X *3854:D 49.9616 
*END

*D_NET *134 0.000372949
*CONN
*I *3855:D I *D sky130_fd_sc_hd__dfxtp_2
*I *3690:X O *D sky130_fd_sc_hd__buf_1
*CAP
1 *3855:D 1.31802e-05
2 *3690:X 8.70696e-05
3 *134:8 0.00010025
4 *134:8 *3988:A 0
5 *134:8 *350:57 0.000169683
6 *134:8 *592:14 2.76611e-06
*RES
1 *3690:X *134:8 40.2579 
2 *134:8 *3855:D 38.1916 
*END

*D_NET *135 0.0009387
*CONN
*I *3856:D I *D sky130_fd_sc_hd__dfxtp_2
*I *3693:X O *D sky130_fd_sc_hd__buf_2
*CAP
1 *3856:D 0.000192432
2 *3693:X 6.48577e-05
3 *135:8 0.000257289
4 *3856:D *405:14 0.000255181
5 *135:8 *628:22 0.000115637
6 *135:8 *689:52 0
7 *39:10 *3856:D 5.3304e-05
*RES
1 *3693:X *135:8 39.5536 
2 *135:8 *3856:D 41.7959 
*END

*D_NET *136 0.00116187
*CONN
*I *3857:D I *D sky130_fd_sc_hd__dfxtp_2
*I *3695:X O *D sky130_fd_sc_hd__buf_2
*CAP
1 *3857:D 0.000142782
2 *3695:X 0.00026886
3 *136:8 0.000411642
4 *3857:D *837:10 0.000234542
5 *136:8 *3712:A 0
6 *136:8 *518:8 4.334e-05
7 *136:8 *625:99 0
8 *136:8 *690:10 6.07008e-05
9 *136:8 *837:10 0
*RES
1 *3695:X *136:8 42.3707 
2 *136:8 *3857:D 41.5266 
*END

*D_NET *137 0.000369012
*CONN
*I *3858:D I *D sky130_fd_sc_hd__dfxtp_2
*I *3697:X O *D sky130_fd_sc_hd__buf_2
*CAP
1 *3858:D 8.07997e-05
2 *3697:X 7.58908e-05
3 *137:8 0.00015669
4 *137:8 *583:12 0
5 *137:8 *664:61 5.56306e-05
*RES
1 *3697:X *137:8 39.5536 
2 *137:8 *3858:D 39.1445 
*END

*D_NET *138 0.000626099
*CONN
*I *3859:D I *D sky130_fd_sc_hd__dfxtp_2
*I *3699:X O *D sky130_fd_sc_hd__buf_2
*CAP
1 *3859:D 4.12159e-05
2 *3699:X 0.000126372
3 *138:8 0.000167588
4 *3859:D *507:143 2.78402e-05
5 *3859:D *516:41 8.6426e-05
6 *138:8 *598:14 1.01436e-05
7 *138:8 *598:24 0
8 *138:8 *685:79 0.000166513
*RES
1 *3699:X *138:8 40.2579 
2 *138:8 *3859:D 38.9943 
*END

*D_NET *139 0.000422864
*CONN
*I *3860:D I *D sky130_fd_sc_hd__dfxtp_2
*I *3701:X O *D sky130_fd_sc_hd__buf_2
*CAP
1 *3860:D 9.26771e-06
2 *3701:X 0.000184432
3 *139:10 0.000193699
4 *3860:D *590:34 1.64354e-05
5 *3860:D *663:64 4.9054e-06
6 *139:10 *516:57 1.41244e-05
7 *139:10 *822:10 0
*RES
1 *3701:X *139:10 40.8793 
2 *139:10 *3860:D 38.1916 
*END

*D_NET *140 0.0002777
*CONN
*I *3861:D I *D sky130_fd_sc_hd__dfxtp_2
*I *3703:X O *D sky130_fd_sc_hd__buf_2
*CAP
1 *3861:D 4.7398e-05
2 *3703:X 7.54874e-05
3 *140:8 0.000122885
4 *140:8 *633:23 3.19287e-05
*RES
1 *3703:X *140:8 39.5536 
2 *140:8 *3861:D 38.668 
*END

*D_NET *141 0.000586312
*CONN
*I *3862:D I *D sky130_fd_sc_hd__dfxtp_2
*I *3705:X O *D sky130_fd_sc_hd__buf_2
*CAP
1 *3862:D 2.99405e-05
2 *3705:X 9.10004e-05
3 *141:8 0.000120941
4 *3862:D *507:42 0.000147517
5 *3862:D *600:46 0.00014884
6 *141:8 *523:8 4.80733e-05
*RES
1 *3705:X *141:8 39.5536 
2 *141:8 *3862:D 39.6209 
*END

*D_NET *142 0.000833029
*CONN
*I *3863:D I *D sky130_fd_sc_hd__dfxtp_2
*I *3707:X O *D sky130_fd_sc_hd__buf_2
*CAP
1 *3863:D 3.04934e-05
2 *3707:X 0.000147717
3 *142:8 0.00017821
4 *3863:D *592:31 5.92579e-05
5 *142:8 *524:8 0.000207437
6 *142:8 *684:31 0.000209913
*RES
1 *3707:X *142:8 43.4271 
2 *142:8 *3863:D 38.668 
*END

*D_NET *143 0.00117045
*CONN
*I *3864:D I *D sky130_fd_sc_hd__dfxtp_2
*I *3710:X O *D sky130_fd_sc_hd__buf_1
*CAP
1 *3864:D 0.000127492
2 *3710:X 4.36962e-05
3 *143:8 0.000171188
4 *3864:D *3692:S 0.000364004
5 *3864:D *836:14 0.000237582
6 *143:8 *350:73 0.000113244
7 *143:8 *402:14 0.000113244
*RES
1 *3710:X *143:8 39.5536 
2 *143:8 *3864:D 42.003 
*END

*D_NET *144 0.000266449
*CONN
*I *3865:D I *D sky130_fd_sc_hd__dfxtp_2
*I *3712:X O *D sky130_fd_sc_hd__buf_1
*CAP
1 *3865:D 4.62744e-06
2 *3712:X 6.8272e-05
3 *144:8 7.28994e-05
4 *3865:D *507:93 1.74843e-05
5 *3865:D *684:21 1.64354e-05
6 *144:8 *3712:A 5.21127e-05
7 *144:8 *612:24 3.46181e-05
*RES
1 *3712:X *144:8 39.5536 
2 *144:8 *3865:D 38.1916 
*END

*D_NET *145 0.000777758
*CONN
*I *3866:D I *D sky130_fd_sc_hd__dfxtp_2
*I *3714:X O *D sky130_fd_sc_hd__buf_1
*CAP
1 *3866:D 1.66233e-05
2 *3714:X 0.000189006
3 *145:10 0.00020563
4 *145:10 *3437:A2 9.98891e-05
5 *145:10 *3696:S 2.93845e-05
6 *145:10 *3713:A0 1.16455e-05
7 *145:10 *583:12 3.74462e-05
8 *145:10 *621:10 1.23172e-05
9 *145:10 *621:16 7.17297e-05
10 *145:10 *621:96 0.000104086
*RES
1 *3714:X *145:10 42.9921 
2 *145:10 *3866:D 38.1916 
*END

*D_NET *146 0.000950326
*CONN
*I *3867:D I *D sky130_fd_sc_hd__dfxtp_2
*I *3716:X O *D sky130_fd_sc_hd__buf_1
*CAP
1 *3867:D 3.98792e-05
2 *3716:X 0.000233607
3 *146:10 0.000273486
4 *3867:D *685:117 5.90084e-05
5 *146:10 *488:65 0.000111276
6 *146:10 *529:8 0.000121793
7 *146:10 *663:26 0.000111276
*RES
1 *3716:X *146:10 42.0807 
2 *146:10 *3867:D 38.668 
*END

*D_NET *147 0.000510653
*CONN
*I *3868:D I *D sky130_fd_sc_hd__dfxtp_2
*I *3718:X O *D sky130_fd_sc_hd__buf_1
*CAP
1 *3868:D 0.000128304
2 *3718:X 0.000127023
3 *147:8 0.000255327
4 *147:8 *3437:A0 0
*RES
1 *3718:X *147:8 40.2579 
2 *147:8 *3868:D 40.0973 
*END

*D_NET *148 0.00120865
*CONN
*I *3869:D I *D sky130_fd_sc_hd__dfxtp_2
*I *3720:X O *D sky130_fd_sc_hd__buf_1
*CAP
1 *3869:D 9.92551e-05
2 *3720:X 0.000320555
3 *148:10 0.00041981
4 *148:10 *562:214 0.000124013
5 *148:10 *685:32 0.00024502
*RES
1 *3720:X *148:10 43.8414 
2 *148:10 *3869:D 39.6209 
*END

*D_NET *149 0.000984953
*CONN
*I *3870:D I *D sky130_fd_sc_hd__dfxtp_2
*I *3722:X O *D sky130_fd_sc_hd__buf_1
*CAP
1 *3870:D 5.85663e-05
2 *3722:X 0.000359239
3 *149:10 0.000417805
4 *3870:D *599:18 0.000149343
5 *120:8 *149:10 0
*RES
1 *3722:X *149:10 43.3443 
2 *149:10 *3870:D 39.6209 
*END

*D_NET *150 0.000627286
*CONN
*I *3871:D I *D sky130_fd_sc_hd__dfxtp_2
*I *3724:X O *D sky130_fd_sc_hd__buf_1
*CAP
1 *3871:D 0
2 *3724:X 0.000220211
3 *150:8 0.000220211
4 *150:8 *3724:A 5.78583e-05
5 *150:8 *3871:CLK 0.000129006
*RES
1 *3724:X *150:8 27.293 
2 *150:8 *3871:D 23 
*END

*D_NET *151 0.000416994
*CONN
*I *3872:D I *D sky130_fd_sc_hd__dfxtp_2
*I *3728:X O *D sky130_fd_sc_hd__buf_1
*CAP
1 *3872:D 1.36537e-05
2 *3728:X 0.000111415
3 *151:10 0.000125069
4 *151:10 *544:89 0
5 *151:10 *626:18 5.50049e-05
6 *151:10 *628:20 0.000111852
*RES
1 *3728:X *151:10 40.175 
2 *151:10 *3872:D 38.1916 
*END

*D_NET *152 0.00224099
*CONN
*I *3873:D I *D sky130_fd_sc_hd__dfxtp_2
*I *3730:X O *D sky130_fd_sc_hd__buf_1
*CAP
1 *3873:D 5.13777e-05
2 *3730:X 0.000800485
3 *152:10 0.000851863
4 *3873:D *587:42 0.000187293
5 *3873:D *699:44 0.000188844
6 *152:10 *3730:A 4.57742e-05
7 *152:10 *3774:CLK 1.92253e-05
8 *152:10 *579:27 8.30064e-05
9 *152:10 *587:42 0
10 *3774:D *152:10 1.31246e-05
*RES
1 *3730:X *152:10 48.3779 
2 *152:10 *3873:D 40.0973 
*END

*D_NET *153 0.000891315
*CONN
*I *3874:D I *D sky130_fd_sc_hd__dfxtp_2
*I *3732:X O *D sky130_fd_sc_hd__buf_1
*CAP
1 *3874:D 1.26271e-05
2 *3732:X 0.000184768
3 *153:10 0.000197395
4 *3874:D *614:52 1.64354e-05
5 *153:10 *3882:CLK 0.000154695
6 *153:10 *161:12 0.000325395
*RES
1 *3732:X *153:10 42.9921 
2 *153:10 *3874:D 38.1916 
*END

*D_NET *154 0.00152125
*CONN
*I *3875:D I *D sky130_fd_sc_hd__dfxtp_2
*I *3734:X O *D sky130_fd_sc_hd__buf_1
*CAP
1 *3875:D 0.000122896
2 *3734:X 0.000188742
3 *154:8 0.000311637
4 *3875:D *3517:A_N 0.000211016
5 *3875:D *202:88 5.50049e-05
6 *3875:D *422:10 2.25927e-05
7 *3875:D *662:12 8.60677e-05
8 *3875:D *687:78 0.000141352
9 *154:8 *413:48 0.000343067
10 *154:8 *539:10 3.88725e-05
*RES
1 *3734:X *154:8 42.7229 
2 *154:8 *3875:D 42.495 
*END

*D_NET *155 0.00054131
*CONN
*I *3876:D I *D sky130_fd_sc_hd__dfxtp_2
*I *3736:X O *D sky130_fd_sc_hd__buf_1
*CAP
1 *3876:D 0.000198072
2 *3736:X 0.000198072
3 *3876:D *609:25 0.000108993
4 *3876:D *609:40 2.81041e-05
5 *3876:D *752:25 8.06804e-06
*RES
1 *3736:X *3876:D 49.0088 
*END

*D_NET *156 0.000429915
*CONN
*I *3877:D I *D sky130_fd_sc_hd__dfxtp_2
*I *3738:X O *D sky130_fd_sc_hd__buf_1
*CAP
1 *3877:D 6.85918e-06
2 *3738:X 0.000151828
3 *156:10 0.000158687
4 *3877:D *3458:A0 8.15899e-06
5 *3877:D *681:32 7.10068e-06
6 *156:10 *383:14 0
7 *156:10 *452:14 1.01436e-05
8 *156:10 *687:78 5.50049e-05
9 *156:10 *865:8 3.21327e-05
10 *26:22 *156:10 0
*RES
1 *3738:X *156:10 40.5271 
2 *156:10 *3877:D 38.1916 
*END

*D_NET *157 0.000426105
*CONN
*I *3878:D I *D sky130_fd_sc_hd__dfxtp_2
*I *3740:X O *D sky130_fd_sc_hd__buf_1
*CAP
1 *3878:D 3.13121e-05
2 *3740:X 0.000151749
3 *157:8 0.000183061
4 *3878:D *729:37 5.99823e-05
5 *157:8 *602:32 0
6 *157:8 *688:142 0
*RES
1 *3740:X *157:8 40.61 
2 *157:8 *3878:D 38.668 
*END

*D_NET *158 0.00146315
*CONN
*I *3879:D I *D sky130_fd_sc_hd__dfxtp_2
*I *3742:X O *D sky130_fd_sc_hd__buf_1
*CAP
1 *3879:D 1.31802e-05
2 *3742:X 0.000372024
3 *158:10 0.000385204
4 *158:10 *3758:A0 0.000166513
5 *158:10 *544:61 0.000250665
6 *158:10 *628:22 0
7 *158:10 *867:8 0.000275565
*RES
1 *3742:X *158:10 46.5136 
2 *158:10 *3879:D 38.1916 
*END

*D_NET *159 0.000271276
*CONN
*I *3880:D I *D sky130_fd_sc_hd__dfxtp_2
*I *3745:X O *D sky130_fd_sc_hd__buf_1
*CAP
1 *3880:D 4.32172e-05
2 *3745:X 9.24208e-05
3 *159:8 0.000135638
*RES
1 *3745:X *159:8 39.5536 
2 *159:8 *3880:D 38.668 
*END

*D_NET *160 0.00282754
*CONN
*I *3881:D I *D sky130_fd_sc_hd__dfxtp_2
*I *3747:X O *D sky130_fd_sc_hd__buf_1
*CAP
1 *3881:D 0
2 *3747:X 0
3 *160:12 0.000472042
4 *160:6 0.000472042
5 *160:12 *3503:A0 0.000501792
6 *160:12 *3746:A0 8.03791e-05
7 *160:12 *546:8 4.83976e-05
8 *160:12 *546:12 6.22475e-05
9 *160:12 *624:42 0.000215801
10 *160:12 *695:24 0.000446443
11 *160:12 *699:68 0.000163885
12 *160:12 *749:10 0.000364515
*RES
1 *3747:X *160:6 38 
2 *160:6 *160:12 30.1473 
3 *160:12 *3881:D 23 
*END

*D_NET *161 0.00236168
*CONN
*I *3882:D I *D sky130_fd_sc_hd__dfxtp_2
*I *3749:X O *D sky130_fd_sc_hd__buf_1
*CAP
1 *3882:D 0
2 *3749:X 0
3 *161:12 0.000437464
4 *161:6 0.000437464
5 *161:12 *3748:A0 0.000558612
6 *161:12 *3882:CLK 8.1606e-05
7 *161:12 *614:37 5.11301e-05
8 *161:12 *622:10 5.93605e-05
9 *161:12 *628:22 0
10 *161:12 *862:10 0.000410654
11 *153:10 *161:12 0.000325395
*RES
1 *3749:X *161:6 38 
2 *161:6 *161:12 29.4223 
3 *161:12 *3882:D 23 
*END

*D_NET *162 0.000574487
*CONN
*I *3883:D I *D sky130_fd_sc_hd__dfxtp_2
*I *3751:X O *D sky130_fd_sc_hd__buf_1
*CAP
1 *3883:D 9.26771e-06
2 *3751:X 0.000128569
3 *162:10 0.000137836
4 *3883:D *3883:CLK 1.64354e-05
5 *3883:D *548:10 4.9054e-06
6 *162:10 *3442:A2 0.000164078
7 *162:10 *395:8 0
8 *162:10 *548:10 8.3843e-05
9 *162:10 *729:76 2.95526e-05
*RES
1 *3751:X *162:10 40.8793 
2 *162:10 *3883:D 38.1916 
*END

*D_NET *163 0.00130976
*CONN
*I *3884:D I *D sky130_fd_sc_hd__dfxtp_2
*I *3753:X O *D sky130_fd_sc_hd__buf_1
*CAP
1 *3884:D 4.40241e-05
2 *3753:X 0.000348355
3 *163:10 0.000392379
4 *3884:D *609:60 5.73018e-05
5 *163:10 *367:14 5.73309e-05
6 *163:10 *418:12 0.000410369
7 *163:10 *636:17 0
*RES
1 *3753:X *163:10 45.8093 
2 *163:10 *3884:D 38.668 
*END

*D_NET *164 0.000282726
*CONN
*I *3885:D I *D sky130_fd_sc_hd__dfxtp_2
*I *3755:X O *D sky130_fd_sc_hd__buf_1
*CAP
1 *3885:D 1.5148e-05
2 *3755:X 6.68293e-05
3 *164:8 8.19773e-05
4 *3885:D *668:12 3.24476e-06
5 *164:8 *550:14 0.000115526
*RES
1 *3755:X *164:8 39.5536 
2 *164:8 *3885:D 38.1916 
*END

*D_NET *165 0.00231534
*CONN
*I *3886:D I *D sky130_fd_sc_hd__dfxtp_2
*I *3757:X O *D sky130_fd_sc_hd__buf_1
*CAP
1 *3886:D 0.000146609
2 *3757:X 0.000783817
3 *165:12 0.000930426
4 *3886:D *3886:CLK 1.64354e-05
5 *3886:D *667:27 0.000215573
6 *165:12 *3757:A 4.06849e-05
7 *165:12 *4050:A 4.06849e-05
8 *165:12 *722:6 9.30751e-05
9 *165:12 *722:8 8.06804e-06
10 *165:12 *722:16 3.99649e-05
*RES
1 *3757:X *165:12 48.7921 
2 *165:12 *3886:D 41.1538 
*END

*D_NET *166 0.000504718
*CONN
*I *3887:D I *D sky130_fd_sc_hd__dfxtp_2
*I *3759:X O *D sky130_fd_sc_hd__buf_1
*CAP
1 *3887:D 8.41062e-05
2 *3759:X 4.276e-05
3 *166:8 0.000126866
4 *3887:D *4098:A 2.28004e-05
5 *166:8 *636:17 0.000114092
6 *166:8 *668:41 0.000114092
*RES
1 *3759:X *166:8 39.5536 
2 *166:8 *3887:D 39.1445 
*END

*D_NET *167 0.000996078
*CONN
*I *3257:A2 I *D sky130_fd_sc_hd__a21o_2
*I *3217:A I *D sky130_fd_sc_hd__nand2_2
*I *3216:Y O *D sky130_fd_sc_hd__nand3b_2
*CAP
1 *3257:A2 0
2 *3217:A 0
3 *3216:Y 0.000193436
4 *167:12 6.62432e-05
5 *167:6 0.000259679
6 *167:6 *3257:A1 4.34876e-05
7 *167:6 *173:83 0.000182832
8 *167:12 *442:10 0.000168754
9 *167:12 *727:8 8.16459e-05
*RES
1 *3216:Y *167:6 26.48 
2 *167:6 *167:12 32.2579 
3 *167:12 *3217:A 23 
4 *167:6 *3257:A2 23 
*END

*D_NET *168 0.00171591
*CONN
*I *3221:A I *D sky130_fd_sc_hd__nand2_4
*I *3217:Y O *D sky130_fd_sc_hd__nand2_2
*CAP
1 *3221:A 0.000146324
2 *3217:Y 0.000338156
3 *168:8 0.00048448
4 *168:8 *442:10 9.63815e-05
5 *168:8 *727:8 0.000650565
*RES
1 *3217:Y *168:8 46.5964 
2 *168:8 *3221:A 40.0507 
*END

*D_NET *169 0.00663306
*CONN
*I *3369:A1 I *D sky130_fd_sc_hd__o2111a_2
*I *3226:A1 I *D sky130_fd_sc_hd__o21ai_2
*I *3220:A I *D sky130_fd_sc_hd__nand4_2
*I *3255:A I *D sky130_fd_sc_hd__xor2_2
*I *3257:A1 I *D sky130_fd_sc_hd__a21o_2
*I *3218:Y O *D sky130_fd_sc_hd__inv_2
*CAP
1 *3369:A1 7.52888e-05
2 *3226:A1 2.41993e-05
3 *3220:A 0
4 *3255:A 0
5 *3257:A1 0.000551134
6 *3218:Y 0.000565227
7 *169:48 0.00012698
8 *169:41 0.0010228
9 *169:35 0.00153486
10 *169:10 0.000551134
11 *169:8 8.0657e-05
12 *3226:A1 *172:6 5.50106e-05
13 *3257:A1 *173:83 0.000314698
14 *3257:A1 *197:10 4.9662e-05
15 *3369:A1 *172:12 5.56306e-05
16 *3369:A1 *301:12 6.66613e-05
17 *3369:A1 *565:80 1.22352e-05
18 *3369:A1 *729:12 0.000212479
19 *169:8 *3255:B 4.83778e-05
20 *169:8 *681:22 5.61414e-05
21 *169:8 *729:12 0
22 *169:35 *565:80 9.77972e-05
23 *169:35 *729:12 0.000300098
24 *169:41 *3220:C 0.000265472
25 *169:41 *3222:A 4.2062e-05
26 *169:41 *3222:D 0.000235203
27 *169:41 *172:6 0.000108556
28 *169:41 *698:18 2.47702e-05
29 *169:48 *565:80 2.99716e-05
30 *169:48 *729:12 8.24662e-05
31 *167:6 *3257:A1 4.34876e-05
*RES
1 *3218:Y *169:8 40.2579 
2 *169:8 *169:10 15 
3 *169:10 *3257:A1 32.6943 
4 *169:10 *3255:A 23 
5 *3218:Y *169:35 46.4514 
6 *169:35 *169:41 29.3343 
7 *169:41 *3220:A 23 
8 *169:35 *169:48 1.20143 
9 *169:48 *3226:A1 38.6214 
10 *169:48 *3369:A1 40.9621 
*END

*D_NET *170 0.00225081
*CONN
*I *3222:A I *D sky130_fd_sc_hd__nand4_2
*I *3220:B I *D sky130_fd_sc_hd__nand4_2
*I *3249:A1 I *D sky130_fd_sc_hd__a21oi_2
*I *3256:A1 I *D sky130_fd_sc_hd__a311o_2
*I *3219:Y O *D sky130_fd_sc_hd__inv_2
*CAP
1 *3222:A 0.000138323
2 *3220:B 0
3 *3249:A1 0.000180968
4 *3256:A1 0
5 *3219:Y 0.000161849
6 *170:39 0.000213773
7 *170:22 0.000256419
8 *170:10 0.000161849
9 *3222:A *3220:C 7.38076e-05
10 *3222:A *3220:D 5.50106e-05
11 *3222:A *3222:D 2.41378e-06
12 *3222:A *698:18 0.000309746
13 *3249:A1 *3219:A 6.93968e-05
14 *3249:A1 *3249:A2 5.12254e-05
15 *3249:A1 *696:8 0
16 *170:10 *3219:A 2.46348e-05
17 *170:10 *683:38 0.000151898
18 *170:10 *683:44 1.14452e-05
19 *170:10 *726:23 0.000160182
20 *170:39 *726:23 0.000140949
21 *170:39 *727:8 4.48568e-05
22 *169:41 *3222:A 4.2062e-05
*RES
1 *3219:Y *170:10 41.3557 
2 *170:10 *3256:A1 38 
3 *3219:Y *170:22 23 
4 *170:22 *3249:A1 26.5214 
5 *170:22 *170:39 31.9057 
6 *170:39 *3220:B 23 
7 *170:39 *3222:A 27.4743 
*END

*D_NET *171 0.000539482
*CONN
*I *3221:B I *D sky130_fd_sc_hd__nand2_4
*I *3220:Y O *D sky130_fd_sc_hd__nand4_2
*CAP
1 *3221:B 5.145e-05
2 *3220:Y 4.79516e-05
3 *171:8 9.94016e-05
4 *171:8 *642:64 0.000169194
5 *171:8 *683:38 0.000171485
*RES
1 *3220:Y *171:8 40.2579 
2 *171:8 *3221:B 38.6214 
*END

*D_NET *172 0.00117092
*CONN
*I *3226:A2 I *D sky130_fd_sc_hd__o21ai_2
*I *3369:A2 I *D sky130_fd_sc_hd__o2111a_2
*I *3222:Y O *D sky130_fd_sc_hd__nand4_2
*CAP
1 *3226:A2 8.57217e-05
2 *3369:A2 0
3 *3222:Y 0.000280811
4 *172:12 4.95964e-05
5 *172:6 0.000416129
6 *3226:A2 *3340:B 0
7 *3226:A2 *176:12 0
8 *172:6 *3222:D 5.37348e-06
9 *172:12 *565:80 0.000114092
10 *3226:A1 *172:6 5.50106e-05
11 *3369:A1 *172:12 5.56306e-05
12 *169:41 *172:6 0.000108556
*RES
1 *3222:Y *172:6 28.3857 
2 *172:6 *172:12 31.5536 
3 *172:12 *3369:A2 23 
4 *172:6 *3226:A2 24.4707 
*END

*D_NET *173 0.0164775
*CONN
*I *3225:A I *D sky130_fd_sc_hd__nand2_2
*I *3257:B1 I *D sky130_fd_sc_hd__a21o_2
*I *3231:A1 I *D sky130_fd_sc_hd__o21ai_2
*I *3421:A I *D sky130_fd_sc_hd__clkbuf_1
*I *3463:S I *D sky130_fd_sc_hd__mux2_2
*I *3447:S I *D sky130_fd_sc_hd__mux2_2
*I *3223:Y O *D sky130_fd_sc_hd__inv_2
*CAP
1 *3225:A 0.000205669
2 *3257:B1 0
3 *3231:A1 5.48933e-05
4 *3421:A 0
5 *3463:S 0
6 *3447:S 0.000227832
7 *3223:Y 0.000366114
8 *173:83 0.0004468
9 *173:71 0.000757327
10 *173:60 0.0005152
11 *173:56 0.00066719
12 *173:37 0.000203582
13 *173:29 0.00157956
14 *173:10 0.00301213
15 *173:8 0.00146269
16 *3225:A *874:6 0.00011451
17 *3231:A1 *3231:B1 7.61229e-06
18 *3231:A1 *729:54 4.98398e-05
19 *3447:S *632:25 0.000380939
20 *173:8 *681:22 2.64616e-05
21 *173:10 *373:10 0
22 *173:10 *441:10 5.8994e-05
23 *173:10 *632:25 0.00315679
24 *173:10 *683:59 0.000550422
25 *173:10 *869:14 0.000513017
26 *173:29 *4087:A 3.32096e-05
27 *173:29 *562:204 0.00021921
28 *173:29 *665:56 5.3304e-05
29 *173:37 *562:248 7.42423e-05
30 *173:37 *665:56 3.46013e-05
31 *173:37 *685:18 5.68297e-05
32 *173:56 *681:22 0.000149822
33 *173:60 *681:22 0.00028607
34 *173:60 *726:23 0
35 *173:71 *681:22 0.000191439
36 *173:71 *726:23 0
37 *173:83 *3224:B 7.31082e-05
38 *173:83 *3224:D 0.000248989
39 *173:83 *198:10 0.000141869
40 *173:83 *681:22 2.21344e-05
41 *173:83 *683:44 0
42 *173:83 *697:19 1.19692e-05
43 *173:83 *715:31 2.55642e-05
44 *173:83 *726:23 0
45 *3257:A1 *173:83 0.000314698
46 *167:6 *173:83 0.000182832
*RES
1 *3223:Y *173:8 38.6214 
2 *173:8 *173:10 42.05 
3 *173:10 *3447:S 43.6964 
4 *173:10 *173:29 37.7029 
5 *173:29 *173:37 33.8321 
6 *173:37 *3463:S 23 
7 *173:29 *3421:A 23 
8 *3223:Y *173:56 42.4329 
9 *173:56 *173:60 8.51357 
10 *173:60 *3231:A1 39.0979 
11 *173:60 *173:71 2.61 
12 *173:71 *173:83 27.18 
13 *173:83 *3257:B1 23 
14 *173:71 *3225:A 41.9771 
*END

*D_NET *174 0.00104053
*CONN
*I *3225:B I *D sky130_fd_sc_hd__nand2_2
*I *3231:A2 I *D sky130_fd_sc_hd__o21ai_2
*I *3224:Y O *D sky130_fd_sc_hd__nand4b_2
*CAP
1 *3225:B 0
2 *3231:A2 0.000211915
3 *3224:Y 0.000131909
4 *174:10 0.000343823
5 *3231:A2 *180:10 7.05801e-05
6 *3231:A2 *563:69 5.58003e-05
7 *3231:A2 *681:22 0
8 *3231:A2 *729:54 5.45541e-05
9 *3231:A2 *874:12 5.90783e-05
10 *174:10 *642:30 1.39431e-05
11 *174:10 *681:22 7.67231e-05
12 *174:10 *729:12 0
13 *174:10 *873:8 0
14 *174:10 *874:12 2.22079e-05
*RES
1 *3224:Y *174:10 40.8793 
2 *174:10 *3231:A2 42.5571 
3 *174:10 *3225:B 38 
*END

*D_NET *175 0.00270889
*CONN
*I *3369:D1 I *D sky130_fd_sc_hd__o2111a_2
*I *3226:B1 I *D sky130_fd_sc_hd__o21ai_2
*I *3260:B I *D sky130_fd_sc_hd__xor2_2
*I *3225:Y O *D sky130_fd_sc_hd__nand2_2
*CAP
1 *3369:D1 0.000177844
2 *3226:B1 0
3 *3260:B 0.000828126
4 *3225:Y 0.000144433
5 *175:22 0.000861537
6 *3260:B *874:6 3.7122e-06
7 *3260:B *874:21 0.000104048
8 *3369:D1 *3369:B1 2.95423e-05
9 *3369:D1 *178:27 0
10 *3369:D1 *272:8 7.72327e-05
11 *3369:D1 *301:8 5.5792e-05
12 *3369:D1 *565:80 0
13 *175:22 *3909:RESET_B 0.000166522
14 *175:22 *178:27 0
15 *175:22 *565:80 0
16 *175:22 *712:24 0.000209739
17 *175:22 *729:46 0
18 *175:22 *734:10 0
19 *175:22 *873:8 0
20 *175:22 *874:21 5.03619e-05
*RES
1 *3225:Y *3260:B 26.4282 
2 *3260:B *175:22 29.5518 
3 *175:22 *3226:B1 38 
4 *175:22 *3369:D1 41.9357 
*END

*D_NET *176 0.00582347
*CONN
*I *3370:A I *D sky130_fd_sc_hd__and3_2
*I *3227:A I *D sky130_fd_sc_hd__inv_2
*I *3373:A I *D sky130_fd_sc_hd__and3_2
*I *3226:Y O *D sky130_fd_sc_hd__o21ai_2
*CAP
1 *3370:A 0
2 *3227:A 0
3 *3373:A 0
4 *3226:Y 0.000497924
5 *176:35 0.000345721
6 *176:27 0.000741103
7 *176:14 0.000739807
8 *176:12 0.000842349
9 *176:12 *3340:A 0.000276557
10 *176:12 *3340:B 3.47032e-05
11 *176:12 *271:10 0.000102389
12 *176:12 *895:22 2.93845e-05
13 *176:12 *895:24 0.000145272
14 *176:14 *3359:B 3.67392e-05
15 *176:14 *3364:C1 5.71002e-06
16 *176:14 *3373:C 5.01232e-06
17 *176:14 *276:49 6.35124e-05
18 *176:14 *281:10 9.10172e-05
19 *176:14 *287:10 0.000451182
20 *176:14 *561:13 0
21 *176:27 *3359:B 0.000129494
22 *176:27 *281:10 0.000318771
23 *176:27 *281:38 0.000101708
24 *176:27 *282:22 8.4047e-05
25 *176:27 *304:14 4.15888e-05
26 *176:27 *733:37 0.000363092
27 *176:35 *282:39 5.58975e-06
28 *176:35 *629:10 0.0003708
29 *3226:A2 *176:12 0
*RES
1 *3226:Y *176:12 47.8393 
2 *176:12 *176:14 8.59643 
3 *176:14 *3373:A 38 
4 *176:14 *176:27 24.7357 
5 *176:27 *176:35 37.0014 
6 *176:35 *3227:A 23 
7 *176:27 *3370:A 23 
*END

*D_NET *177 0.00234426
*CONN
*I *3229:D I *D sky130_fd_sc_hd__nand4_4
*I *3250:A I *D sky130_fd_sc_hd__nor2_8
*I *3366:A1_N I *D sky130_fd_sc_hd__a2bb2oi_2
*I *3228:X O *D sky130_fd_sc_hd__and3b_4
*CAP
1 *3229:D 5.74083e-05
2 *3250:A 0.000122317
3 *3366:A1_N 0.000215946
4 *3228:X 3.19352e-05
5 *177:10 0.000575558
6 *177:6 0.000326638
7 *3229:D *3228:C 9.66668e-05
8 *3229:D *683:30 2.95526e-05
9 *3229:D *683:38 9.86777e-06
10 *3250:A *3250:B 0
11 *3250:A *683:104 0.000167452
12 *3250:A *726:12 0
13 *3366:A1_N *729:37 0.000141308
14 *177:6 *3228:C 0.000100477
15 *177:6 *642:64 2.95423e-05
16 *177:6 *683:38 1.358e-05
17 *177:10 *683:104 0.000426005
18 *177:10 *726:12 0
*RES
1 *3228:X *177:6 24.0979 
2 *177:6 *177:10 20.7793 
3 *177:10 *3366:A1_N 41.9771 
4 *177:10 *3250:A 40.9621 
5 *177:6 *3229:D 24.595 
*END

*D_NET *178 0.0101831
*CONN
*I *3390:A I *D sky130_fd_sc_hd__and3_2
*I *3234:B I *D sky130_fd_sc_hd__xnor2_4
*I *3232:A I *D sky130_fd_sc_hd__nand2_2
*I *3384:A I *D sky130_fd_sc_hd__and4_2
*I *3229:Y O *D sky130_fd_sc_hd__nand4_4
*CAP
1 *3390:A 2.42601e-05
2 *3234:B 0
3 *3232:A 0
4 *3384:A 0.000660263
5 *3229:Y 0.000322785
6 *178:40 0.000452219
7 *178:27 0.00147023
8 *178:6 0.0019768
9 *3384:A *3359:B 7.40718e-05
10 *3384:A *290:33 0.000182044
11 *3384:A *304:22 0.000358994
12 *3384:A *320:18 0.000371083
13 *3384:A *322:10 2.50118e-05
14 *178:6 *3352:C 2.70567e-05
15 *178:6 *282:54 0.000185364
16 *178:6 *284:10 0.000479747
17 *178:6 *291:10 0.000449317
18 *178:6 *565:109 0.000223077
19 *178:6 *729:20 1.24298e-05
20 *178:27 *3232:B 5.79559e-05
21 *178:27 *3233:A 5.56356e-05
22 *178:27 *180:33 1.3523e-05
23 *178:27 *271:10 7.07799e-05
24 *178:27 *271:21 2.61756e-05
25 *178:27 *272:8 0
26 *178:27 *281:31 3.98082e-06
27 *178:27 *282:54 3.43144e-05
28 *178:27 *283:10 0.000520197
29 *178:27 *732:33 1.26098e-05
30 *178:27 *894:25 0.000166992
31 *178:40 *3233:A 5.56279e-05
32 *178:40 *180:33 0.00116421
33 *178:40 *181:19 0.000609929
34 *178:40 *327:18 0
35 *178:40 *561:59 9.63815e-05
36 *3369:D1 *178:27 0
37 *175:22 *178:27 0
*RES
1 *3229:Y *178:6 32.6736 
2 *178:6 *3384:A 38.8879 
3 *178:6 *178:27 49.6164 
4 *178:27 *3232:A 23 
5 *178:27 *178:40 45.6186 
6 *178:40 *3234:B 23 
7 *3384:A *3390:A 46.6214 
*END

*D_NET *179 0.000839936
*CONN
*I *3231:B1 I *D sky130_fd_sc_hd__o21ai_2
*I *3423:A I *D sky130_fd_sc_hd__buf_1
*I *3230:Y O *D sky130_fd_sc_hd__inv_2
*CAP
1 *3231:B1 0.00010218
2 *3423:A 0
3 *3230:Y 0
4 *179:12 0.000135839
5 *179:4 0.000238019
6 *3231:B1 *729:54 2.67084e-05
7 *3231:B1 *729:76 5.82853e-05
8 *179:12 *726:23 0.000170807
9 *179:12 *729:76 0.000100486
10 *3231:A1 *3231:B1 7.61229e-06
*RES
1 *3230:Y *179:4 23 
2 *179:4 *179:12 33.3557 
3 *179:12 *3423:A 23 
4 *179:4 *3231:B1 25.0507 
*END

*D_NET *180 0.0127073
*CONN
*I *3390:B I *D sky130_fd_sc_hd__and3_2
*I *3384:B I *D sky130_fd_sc_hd__and4_2
*I *3261:B I *D sky130_fd_sc_hd__xor2_2
*I *3232:B I *D sky130_fd_sc_hd__nand2_2
*I *3231:Y O *D sky130_fd_sc_hd__o21ai_2
*CAP
1 *3390:B 0.000225396
2 *3384:B 0
3 *3261:B 0.000536956
4 *3232:B 5.75307e-05
5 *3231:Y 8.16361e-05
6 *180:42 0.000829681
7 *180:33 0.00200556
8 *180:20 0.00236206
9 *180:10 0.00152184
10 *3232:B *3233:A 3.01704e-05
11 *3232:B *734:10 5.56279e-05
12 *3261:B *3404:B 0.000170807
13 *3261:B *3937:D 3.90213e-05
14 *3261:B *327:18 0
15 *3261:B *561:59 0
16 *3261:B *897:10 9.70579e-05
17 *3261:B *897:19 0.000409832
18 *3390:B *3384:C 1.20296e-05
19 *3390:B *316:10 2.35118e-06
20 *3390:B *320:18 0.000230715
21 *3390:B *327:27 0.000132778
22 *180:10 *681:22 4.60116e-05
23 *180:20 *3909:RESET_B 0
24 *180:20 *563:10 4.80427e-05
25 *180:20 *734:10 0.000388786
26 *180:20 *894:25 0.000584657
27 *180:42 *3384:C 3.13192e-05
28 *180:42 *274:47 0.000150562
29 *180:42 *277:60 1.98991e-05
30 *180:42 *327:18 0
31 *180:42 *327:27 0.000998047
32 *180:42 *897:19 0.000242235
33 *180:42 *897:43 9.04403e-05
34 *3231:A2 *180:10 7.05801e-05
35 *178:27 *3232:B 5.79559e-05
36 *178:27 *180:33 1.3523e-05
37 *178:40 *180:33 0.00116421
*RES
1 *3231:Y *180:10 48.0818 
2 *180:10 *180:20 34.1115 
3 *180:20 *3232:B 24.595 
4 *180:20 *180:33 31.82 
5 *180:33 *3261:B 28.5264 
6 *180:33 *180:42 16.6957 
7 *180:42 *3384:B 38 
8 *180:42 *3390:B 42.4329 
*END

*D_NET *181 0.0059343
*CONN
*I *3385:A I *D sky130_fd_sc_hd__and3_2
*I *3388:A I *D sky130_fd_sc_hd__and3_2
*I *3233:A I *D sky130_fd_sc_hd__inv_2
*I *3232:Y O *D sky130_fd_sc_hd__nand2_2
*CAP
1 *3385:A 0
2 *3388:A 0
3 *3233:A 0.000135658
4 *3232:Y 0
5 *181:31 0.000124158
6 *181:23 0.000610858
7 *181:19 0.00137603
8 *181:4 0.00102499
9 *3233:A *734:10 3.18142e-05
10 *181:19 *282:10 0.000113235
11 *181:19 *286:8 0
12 *181:19 *561:13 0.00045769
13 *181:19 *566:10 0
14 *181:19 *895:48 0
15 *181:23 *3349:A 5.5792e-05
16 *181:23 *3350:B 0.000100477
17 *181:23 *3350:C 5.82853e-05
18 *181:23 *275:61 0.000220166
19 *181:23 *290:18 0.000261971
20 *181:23 *321:10 0.00044651
21 *181:31 *3384:C 5.80679e-05
22 *181:31 *3384:D 5.58003e-05
23 *181:31 *275:61 1.0092e-05
24 *181:31 *278:47 2.28401e-05
25 *181:31 *320:18 1.84917e-05
26 *3232:B *3233:A 3.01704e-05
27 *178:27 *3233:A 5.56356e-05
28 *178:40 *3233:A 5.56279e-05
29 *178:40 *181:19 0.000609929
*RES
1 *3232:Y *181:4 23 
2 *181:4 *3233:A 26.0243 
3 *181:4 *181:19 36.3979 
4 *181:19 *181:23 27.0557 
5 *181:23 *181:31 32.5271 
6 *181:31 *3388:A 23 
7 *181:23 *3385:A 23 
*END

*D_NET *182 0.000729027
*CONN
*I *3236:A I *D sky130_fd_sc_hd__buf_6
*I *3235:X O *D sky130_fd_sc_hd__and3b_2
*CAP
1 *3236:A 0
2 *3235:X 0.000183831
3 *182:10 0.000183831
4 *182:10 *603:8 5.41288e-05
5 *182:10 *603:61 0
6 *182:10 *643:16 3.70071e-06
7 *182:10 *708:39 0.000139647
8 *182:10 *884:14 0.000163888
*RES
1 *3235:X *182:10 41.8321 
2 *182:10 *3236:A 38 
*END

*D_NET *183 0.00621846
*CONN
*I *3242:A1 I *D sky130_fd_sc_hd__a21oi_4
*I *3244:A3 I *D sky130_fd_sc_hd__a31o_2
*I *3269:A I *D sky130_fd_sc_hd__buf_1
*I *3243:D I *D sky130_fd_sc_hd__nand4_2
*I *3241:A2 I *D sky130_fd_sc_hd__a21oi_4
*I *3239:A2 I *D sky130_fd_sc_hd__a21oi_4
*I *3236:X O *D sky130_fd_sc_hd__buf_6
*CAP
1 *3242:A1 0
2 *3244:A3 0
3 *3269:A 0
4 *3243:D 1.56031e-05
5 *3241:A2 0.00050883
6 *3239:A2 0
7 *3236:X 0
8 *183:76 0.000366762
9 *183:58 0.000129852
10 *183:38 0.000187808
11 *183:23 0.000514637
12 *183:10 0.000299535
13 *183:4 0.000629751
14 *3241:A2 *3241:A1 5.56356e-05
15 *3241:A2 *3986:A 3.95107e-05
16 *3241:A2 *341:20 1.92253e-05
17 *3241:A2 *706:44 3.4937e-05
18 *3243:D *3243:B 5.56279e-05
19 *3243:D *3987:A 5.56279e-05
20 *183:10 *3241:A1 5.26101e-05
21 *183:10 *216:72 6.38845e-05
22 *183:10 *341:20 0
23 *183:10 *885:10 0.000646983
24 *183:23 *3243:B 0.000275739
25 *183:23 *188:79 0.000100061
26 *183:23 *637:6 5.04818e-05
27 *183:23 *708:86 0.000140259
28 *183:38 *3244:A2 5.44889e-06
29 *183:38 *3986:A 1.28008e-05
30 *183:38 *706:44 7.69256e-06
31 *183:58 *3243:B 0.000129736
32 *183:58 *3244:A2 0.000134999
33 *183:58 *3267:A 2.76401e-05
34 *183:58 *3987:A 0.00018304
35 *183:58 *189:8 0.000134999
36 *183:58 *202:8 2.32101e-05
37 *183:76 *3241:A1 2.73248e-05
38 *183:76 *3241:B1 0.000137651
39 *183:76 *187:8 0.00027135
40 *183:76 *187:14 1.83564e-05
41 *183:76 *202:10 0.00058692
42 *183:76 *341:20 0.00026025
43 *183:76 *603:73 1.36806e-05
*RES
1 *3236:X *183:4 23 
2 *183:4 *183:10 38.5964 
3 *183:10 *3239:A2 23 
4 *183:4 *183:23 21.9807 
5 *183:23 *3241:A2 40.8793 
6 *183:23 *183:38 15.8493 
7 *183:38 *3243:D 23.6214 
8 *183:38 *3269:A 23 
9 *183:38 *183:58 34.3086 
10 *183:58 *3244:A3 23 
11 *3241:A2 *183:76 49.3929 
12 *183:76 *3242:A1 38 
*END

*D_NET *184 0.00669702
*CONN
*I *3482:D I *D sky130_fd_sc_hd__and4bb_2
*I *3285:A I *D sky130_fd_sc_hd__and4_4
*I *3262:A1 I *D sky130_fd_sc_hd__a21o_2
*I *3251:A I *D sky130_fd_sc_hd__and3_2
*I *3238:A1 I *D sky130_fd_sc_hd__a31oi_2
*I *3252:A1 I *D sky130_fd_sc_hd__a21oi_2
*I *3237:Y O *D sky130_fd_sc_hd__inv_2
*CAP
1 *3482:D 0
2 *3285:A 0
3 *3262:A1 0
4 *3251:A 8.67831e-05
5 *3238:A1 0
6 *3252:A1 0.000233321
7 *3237:Y 0.000649754
8 *184:74 0.000409593
9 *184:57 0.000240119
10 *184:40 0.000475514
11 *184:36 0.000148612
12 *184:18 0.000693291
13 *184:10 0.000700131
14 *3251:A *218:16 9.84794e-05
15 *3251:A *218:39 4.08664e-05
16 *3251:A *869:71 4.67488e-05
17 *3252:A1 *3238:A2 7.03863e-05
18 *3252:A1 *3238:A3 0.00015994
19 *3252:A1 *3252:A2 5.70419e-05
20 *3252:A1 *194:10 0.000185428
21 *3252:A1 *701:61 0
22 *3252:A1 *868:25 5.3304e-05
23 *3252:A1 *869:101 0
24 *184:10 *193:14 0
25 *184:10 *637:75 2.60152e-05
26 *184:10 *643:24 6.68587e-05
27 *184:10 *708:41 6.53382e-05
28 *184:10 *708:45 2.93845e-05
29 *184:18 *3238:A2 5.54463e-05
30 *184:18 *185:21 6.17437e-06
31 *184:18 *218:39 0.000272522
32 *184:18 *603:31 8.62876e-05
33 *184:18 *643:24 3.20914e-05
34 *184:18 *714:34 0
35 *184:18 *714:52 0
36 *184:18 *868:25 8.67228e-06
37 *184:18 *868:50 2.70366e-05
38 *184:18 *869:101 9.2115e-05
39 *184:40 *3235:C 8.42228e-05
40 *184:40 *3285:D 5.50106e-05
41 *184:40 *218:39 0.000262858
42 *184:40 *637:14 1.21972e-05
43 *184:40 *869:71 5.6241e-05
44 *184:57 *3252:B1 0.000136486
45 *184:57 *200:26 0.000124169
46 *184:57 *868:25 5.62433e-06
47 *184:57 *868:50 0.000223698
48 *184:74 *3482:B_N 0.0002246
49 *184:74 *3482:C 5.50049e-05
50 *184:74 *643:24 9.5877e-05
51 *184:74 *707:6 5.3304e-05
52 *184:74 *708:41 2.32004e-05
53 *184:74 *708:45 0.000167268
*RES
1 *3237:Y *184:10 41.9564 
2 *184:10 *184:18 22.975 
3 *184:18 *3252:A1 29.2557 
4 *184:18 *3238:A1 23 
5 *184:10 *184:36 15 
6 *184:36 *184:40 3.97714 
7 *184:40 *3251:A 25.0714 
8 *184:40 *184:57 34.4329 
9 *184:57 *3262:A1 23 
10 *184:36 *3285:A 23 
11 *3237:Y *184:74 31.2443 
12 *184:74 *3482:D 23 
*END

*D_NET *185 0.00380618
*CONN
*I *3239:B1 I *D sky130_fd_sc_hd__a21oi_4
*I *3265:B I *D sky130_fd_sc_hd__xnor2_2
*I *4089:A I *D sky130_fd_sc_hd__clkbuf_2
*I *3263:A1 I *D sky130_fd_sc_hd__a22o_2
*I *3238:Y O *D sky130_fd_sc_hd__a31oi_2
*CAP
1 *3239:B1 0
2 *3265:B 0.000350239
3 *4089:A 0
4 *3263:A1 0
5 *3238:Y 0
6 *185:31 0.000798975
7 *185:21 0.000651484
8 *185:12 0.000166519
9 *185:4 0.000369267
10 *3265:B *643:6 0.000414359
11 *185:12 *4034:A 4.96717e-05
12 *185:12 *218:39 6.08032e-05
13 *185:12 *603:31 0.000188926
14 *185:12 *869:101 6.48142e-05
15 *185:21 *714:34 5.41385e-05
16 *185:21 *868:25 1.21972e-05
17 *185:21 *869:101 2.64616e-05
18 *185:31 *3930:D 0.000140259
19 *185:31 *3931:CLK 0.000139647
20 *185:31 *603:10 0.000135826
21 *185:31 *603:31 2.92911e-06
22 *185:31 *643:6 1.79651e-05
23 *185:31 *714:34 0.000137153
24 *185:31 *714:52 1.83667e-05
25 *184:18 *185:21 6.17437e-06
*RES
1 *3238:Y *185:4 23 
2 *185:4 *185:12 33.7079 
3 *185:12 *3263:A1 23 
4 *185:4 *185:21 3.50071 
5 *185:21 *185:31 38.3479 
6 *185:31 *4089:A 23 
7 *185:31 *3265:B 31.2443 
8 *185:21 *3239:B1 23 
*END

*D_NET *186 0.00449098
*CONN
*I *3242:A2 I *D sky130_fd_sc_hd__a21oi_4
*I *3277:A2 I *D sky130_fd_sc_hd__a22o_2
*I *3334:A2 I *D sky130_fd_sc_hd__a221o_2
*I *3240:X O *D sky130_fd_sc_hd__and2_2
*CAP
1 *3242:A2 3.63092e-05
2 *3277:A2 1.04533e-05
3 *3334:A2 0.000150267
4 *3240:X 0.000239029
5 *186:10 0.00066567
6 *186:6 0.000780288
7 *3242:A2 *3242:B1 2.64616e-05
8 *3277:A2 *3277:B1 1.46586e-05
9 *3334:A2 *3334:A1 7.70038e-05
10 *3334:A2 *3334:B1 1.32314e-05
11 *3334:A2 *187:14 0.000169655
12 *3334:A2 *187:35 0.000102745
13 *3334:A2 *205:23 1.55941e-05
14 *3334:A2 *210:8 3.97399e-05
15 *186:6 *3242:B1 0.000223568
16 *186:6 *706:14 9.72944e-05
17 *186:10 *3334:A1 2.54692e-05
18 *186:10 *187:14 0.00123559
19 *186:10 *202:10 0.000567947
*RES
1 *3240:X *186:6 27.9093 
2 *186:6 *186:10 31.6957 
3 *186:10 *3334:A2 42.1066 
4 *186:10 *3277:A2 38.1709 
5 *186:6 *3242:A2 23.6214 
*END

*D_NET *187 0.00751073
*CONN
*I *3266:B I *D sky130_fd_sc_hd__xnor2_2
*I *3242:B1 I *D sky130_fd_sc_hd__a21oi_4
*I *3298:A2 I *D sky130_fd_sc_hd__o22ai_2
*I *3310:A1 I *D sky130_fd_sc_hd__o221ai_2
*I *3334:C1 I *D sky130_fd_sc_hd__a221o_2
*I *3241:Y O *D sky130_fd_sc_hd__a21oi_4
*CAP
1 *3266:B 0.000125326
2 *3242:B1 0.000206639
3 *3298:A2 0
4 *3310:A1 0.000203731
5 *3334:C1 0.00016964
6 *3241:Y 0
7 *187:35 0.000368256
8 *187:14 0.00116256
9 *187:8 0.00136604
10 *187:6 0.000456336
11 *3242:B1 *706:14 9.41704e-05
12 *3266:B *191:16 0
13 *3266:B *202:10 3.81554e-05
14 *3266:B *202:44 2.22183e-05
15 *3266:B *603:79 0
16 *3310:A1 *3298:B1 6.38845e-05
17 *3310:A1 *3310:A2 0.00010655
18 *3310:A1 *205:40 6.16531e-05
19 *3310:A1 *231:10 8.13553e-05
20 *3310:A1 *234:28 1.37232e-05
21 *3334:C1 *3334:A1 6.85133e-05
22 *3334:C1 *209:77 1.25702e-05
23 *187:8 *191:16 0
24 *187:8 *202:10 2.61699e-05
25 *187:8 *714:8 0.000166522
26 *187:8 *870:8 5.56306e-05
27 *187:14 *3291:A1 6.35028e-05
28 *187:14 *3334:A1 2.02872e-05
29 *187:14 *3334:B1 7.44161e-06
30 *187:14 *202:10 3.95159e-06
31 *187:14 *205:17 0
32 *187:14 *205:23 0
33 *187:14 *206:18 2.37243e-05
34 *187:14 *210:8 8.62876e-05
35 *187:14 *870:8 0.000140661
36 *187:35 *3298:B1 2.55642e-05
37 *187:35 *3334:A1 3.70094e-05
38 *187:35 *205:40 0.00014411
39 *187:35 *209:77 2.35393e-05
40 *187:35 *210:8 1.72778e-05
41 *3242:A2 *3242:B1 2.64616e-05
42 *3334:A2 *187:14 0.000169655
43 *3334:A2 *187:35 0.000102745
44 *183:76 *187:8 0.00027135
45 *183:76 *187:14 1.83564e-05
46 *186:6 *3242:B1 0.000223568
47 *186:10 *187:14 0.00123559
*RES
1 *3241:Y *187:6 38 
2 *187:6 *187:8 8.59643 
3 *187:8 *187:14 35.6107 
4 *187:14 *3334:C1 26.0657 
5 *187:14 *187:35 19.4329 
6 *187:35 *3310:A1 42.8264 
7 *187:35 *3298:A2 38 
8 *187:8 *3242:B1 42.1221 
9 *187:6 *3266:B 40.61 
*END

*D_NET *188 0.00978473
*CONN
*I *3300:A I *D sky130_fd_sc_hd__and3_4
*I *3301:A1 I *D sky130_fd_sc_hd__a21oi_2
*I *3267:C I *D sky130_fd_sc_hd__and3_2
*I *3588:A I *D sky130_fd_sc_hd__buf_2
*I *3247:B I *D sky130_fd_sc_hd__xor2_2
*I *3245:A I *D sky130_fd_sc_hd__and2_2
*I *3243:Y O *D sky130_fd_sc_hd__nand4_2
*CAP
1 *3300:A 8.45704e-05
2 *3301:A1 0
3 *3267:C 5.13384e-05
4 *3588:A 0
5 *3247:B 0
6 *3245:A 0
7 *3243:Y 0.000414472
8 *188:83 0.000724131
9 *188:79 0.000847583
10 *188:58 0.000415299
11 *188:43 0.000702814
12 *188:33 0.000790559
13 *188:12 0.000474976
14 *188:8 0.00022972
15 *3267:C *3267:B 8.91468e-07
16 *3300:A *3300:B 0.000182832
17 *3300:A *3301:A2 5.5792e-05
18 *3300:A *3301:B1 5.58003e-05
19 *3300:A *234:8 1.47709e-05
20 *188:8 *3241:A1 0
21 *188:8 *3244:A1 6.07397e-05
22 *188:8 *341:20 3.29458e-05
23 *188:8 *702:43 0.000185364
24 *188:12 *189:50 5.3304e-05
25 *188:12 *341:8 5.3304e-05
26 *188:33 *3244:A1 0.000113455
27 *188:33 *189:50 0.000113395
28 *188:33 *341:8 4.08664e-05
29 *188:33 *572:10 1.65716e-05
30 *188:33 *702:33 0.000114248
31 *188:33 *702:66 0.000208817
32 *188:43 *3267:A 1.03991e-05
33 *188:43 *3267:B 0.000174219
34 *188:43 *201:12 0.000294337
35 *188:43 *573:31 1.01436e-05
36 *188:43 *903:21 0.000103948
37 *188:58 *201:12 6.21538e-05
38 *188:58 *374:6 8.22203e-05
39 *188:58 *573:31 0.000107548
40 *188:58 *903:21 3.92407e-05
41 *188:58 *903:36 0.000371129
42 *188:58 *909:14 0.00036118
43 *188:58 *913:10 0.000361367
44 *188:79 *3243:B 4.03448e-05
45 *188:79 *202:8 9.64943e-05
46 *188:83 *3301:A2 3.70187e-05
47 *188:83 *189:8 0.00115131
48 *188:83 *706:44 0.000343054
49 *183:23 *188:79 0.000100061
*RES
1 *3243:Y *188:8 41.6664 
2 *188:8 *188:12 15.6214 
3 *188:12 *3245:A 23 
4 *188:12 *188:33 39.7357 
5 *188:33 *188:43 23.9279 
6 *188:43 *3247:B 15 
7 *188:43 *188:58 28.3607 
8 *188:58 *3588:A 23 
9 *188:33 *3267:C 23.6214 
10 *3243:Y *188:79 41.0036 
11 *188:79 *188:83 30.9914 
12 *188:83 *3301:A1 23 
13 *188:83 *3300:A 25.5271 
*END

*D_NET *189 0.0063984
*CONN
*I *3245:B I *D sky130_fd_sc_hd__and2_2
*I *3267:A I *D sky130_fd_sc_hd__and3_2
*I *3300:B I *D sky130_fd_sc_hd__and3_4
*I *3301:A2 I *D sky130_fd_sc_hd__a21oi_2
*I *3244:X O *D sky130_fd_sc_hd__a31o_2
*CAP
1 *3245:B 0
2 *3267:A 0.000263274
3 *3300:B 0.000166247
4 *3301:A2 0.000112219
5 *3244:X 0.000202058
6 *189:50 0.000202058
7 *189:8 0.000804452
8 *189:6 0.00078926
9 *3267:A *3266:A 3.13857e-05
10 *3267:A *3267:B 2.79653e-05
11 *3267:A *702:14 0.000188431
12 *3300:B *3301:B1 4.22172e-05
13 *3301:A2 *202:10 1.55035e-05
14 *189:8 *3241:B1 0.000181013
15 *189:8 *3244:A2 1.12487e-05
16 *189:8 *3266:A 6.37035e-05
17 *189:8 *202:10 0.000141274
18 *189:8 *202:44 1.52362e-05
19 *189:8 *706:8 0.000191148
20 *189:8 *706:34 0.000394852
21 *189:8 *706:44 2.24973e-05
22 *189:50 *202:44 0.000233045
23 *189:50 *341:8 2.02872e-05
24 *189:50 *702:27 0.000277225
25 *189:50 *702:33 9.65021e-05
26 *189:50 *702:43 0.000138607
27 *3300:A *3300:B 0.000182832
28 *3300:A *3301:A2 5.5792e-05
29 *183:58 *3267:A 2.76401e-05
30 *183:58 *189:8 0.000134999
31 *188:12 *189:50 5.3304e-05
32 *188:33 *189:50 0.000113395
33 *188:43 *3267:A 1.03991e-05
34 *188:83 *3301:A2 3.70187e-05
35 *188:83 *189:8 0.00115131
*RES
1 *3244:X *189:6 38 
2 *189:6 *189:8 18.4564 
3 *189:8 *3301:A2 40.4236 
4 *189:8 *3300:B 41.0036 
5 *189:6 *3267:A 43.6136 
6 *3244:X *189:50 29.8357 
7 *189:50 *3245:B 23 
*END

*D_NET *190 0.00154326
*CONN
*I *3246:A I *D sky130_fd_sc_hd__buf_1
*I *3245:X O *D sky130_fd_sc_hd__and2_2
*CAP
1 *3246:A 9.04748e-05
2 *3245:X 0.000412975
3 *190:10 0.000503449
4 *3246:A *702:66 4.45704e-05
5 *190:10 *3932:D 0
6 *190:10 *202:54 9.89901e-05
7 *190:10 *562:302 7.04349e-05
8 *190:10 *562:308 3.71808e-05
9 *190:10 *573:10 0.000246748
10 *190:10 *606:10 0
11 *190:10 *702:66 0
12 *190:10 *885:10 3.84404e-05
*RES
1 *3245:X *190:10 46.99 
2 *190:10 *3246:A 39.5743 
*END

*D_NET *191 0.00555944
*CONN
*I *3332:B I *D sky130_fd_sc_hd__xor2_2
*I *3248:A I *D sky130_fd_sc_hd__inv_2
*I *3330:B I *D sky130_fd_sc_hd__xnor2_2
*I *3247:X O *D sky130_fd_sc_hd__xor2_2
*CAP
1 *3332:B 0
2 *3248:A 2.95294e-05
3 *3330:B 6.66329e-05
4 *3247:X 0.000228468
5 *191:39 6.66329e-05
6 *191:16 0.0012476
7 *191:10 0.0015056
8 *3248:A *3933:CLK 5.50049e-05
9 *191:10 *3933:RESET_B 0
10 *191:10 *607:18 0
11 *191:10 *738:14 0
12 *191:10 *909:14 0
13 *191:16 *3271:A 4.95081e-05
14 *191:16 *3271:B 0.000143655
15 *191:16 *3413:B 0.000218952
16 *191:16 *3925:D 5.36701e-05
17 *191:16 *3933:RESET_B 0
18 *191:16 *204:10 9.84851e-05
19 *191:16 *603:79 0.000350739
20 *191:16 *607:22 0
21 *191:16 *607:30 0
22 *191:16 *714:8 0
23 *191:16 *717:10 8.51167e-05
24 *191:16 *717:29 0.000934579
25 *191:16 *870:8 0
26 *191:16 *871:10 3.84822e-05
27 *191:39 *886:16 0.000193388
28 *191:39 *887:12 0.000128583
29 *191:39 *887:14 6.48049e-05
30 *3266:B *191:16 0
31 *187:8 *191:16 0
*RES
1 *3247:X *191:10 41.8321 
2 *191:10 *191:16 45.4086 
3 *191:16 *3330:B 23 
4 *191:10 *3248:A 38.6214 
5 *3330:B *191:39 40.61 
6 *191:39 *3332:B 15 
*END

*D_NET *192 0.00161268
*CONN
*I *4088:A I *D sky130_fd_sc_hd__buf_2
*I *3255:B I *D sky130_fd_sc_hd__xor2_2
*I *3249:Y O *D sky130_fd_sc_hd__a21oi_2
*CAP
1 *4088:A 0
2 *3255:B 0.000296576
3 *3249:Y 0.000193407
4 *192:8 0.000489983
5 *3255:B *681:22 0
6 *3255:B *687:24 0
7 *3255:B *729:12 0
8 *192:8 *3249:A2 6.17437e-06
9 *192:8 *4027:A 5.50049e-05
10 *192:8 *642:45 8.48502e-06
11 *192:8 *675:8 0.000353214
12 *192:8 *696:8 0.000161461
13 *169:8 *3255:B 4.83778e-05
*RES
1 *3249:Y *192:8 28.4064 
2 *192:8 *3255:B 35.7793 
3 *192:8 *4088:A 23 
*END

*D_NET *193 0.0105222
*CONN
*I *3605:D_N I *D sky130_fd_sc_hd__nor4b_4
*I *3253:A I *D sky130_fd_sc_hd__or2_2
*I *3295:A1 I *D sky130_fd_sc_hd__o211ai_2
*I *3674:C I *D sky130_fd_sc_hd__and4bb_2
*I *3552:D I *D sky130_fd_sc_hd__and4b_2
*I *3743:D I *D sky130_fd_sc_hd__and4bb_2
*I *3251:X O *D sky130_fd_sc_hd__and3_2
*CAP
1 *3605:D_N 0
2 *3253:A 0
3 *3295:A1 0
4 *3674:C 0
5 *3552:D 0.000143246
6 *3743:D 0
7 *3251:X 0.000139153
8 *193:81 0.00044863
9 *193:57 0.000156263
10 *193:51 0.000471321
11 *193:45 0.00102018
12 *193:18 0.000179497
13 *193:14 0.00130402
14 *193:8 0.00166341
15 *3552:D *3552:B 5.3304e-05
16 *3552:D *700:97 5.3304e-05
17 *3552:D *701:10 0.000204292
18 *3552:D *701:84 5.58473e-05
19 *3552:D *705:78 4.98774e-05
20 *3552:D *705:86 0.000214669
21 *193:8 *218:16 0.000267167
22 *193:8 *218:39 0.000139357
23 *193:8 *637:16 0.000303724
24 *193:14 *3674:B_N 9.89901e-05
25 *193:14 *200:26 0.00036981
26 *193:14 *498:16 3.18142e-05
27 *193:14 *637:75 6.7177e-06
28 *193:14 *643:24 0
29 *193:14 *708:68 9.8108e-05
30 *193:14 *714:52 0
31 *193:18 *701:10 8.78864e-05
32 *193:18 *705:78 8.57577e-05
33 *193:45 *199:10 3.53031e-05
34 *193:45 *200:26 1.84226e-05
35 *193:45 *218:39 0.00015137
36 *193:45 *637:75 8.85189e-05
37 *193:45 *868:25 0.000100522
38 *193:51 *194:10 0
39 *193:51 *195:10 8.90445e-05
40 *193:51 *199:10 0.000331381
41 *193:51 *200:10 1.44813e-05
42 *193:51 *218:39 0.000572085
43 *193:57 *3295:A2 0.000201524
44 *193:57 *194:10 2.08324e-05
45 *193:57 *195:10 0.000461086
46 *193:81 *3252:B1 7.17297e-05
47 *193:81 *3262:A2 5.50106e-05
48 *193:81 *199:10 0.000390679
49 *193:81 *200:10 5.69011e-05
50 *193:81 *200:26 4.96824e-05
51 *193:81 *868:25 5.62433e-06
52 *193:81 *868:50 0.000141387
53 *193:81 *869:14 2.02872e-05
54 *184:10 *193:14 0
*RES
1 *3251:X *193:8 42.4329 
2 *193:8 *193:14 35.0514 
3 *193:14 *193:18 16.2014 
4 *193:18 *3743:D 38 
5 *193:18 *3552:D 42.2879 
6 *193:14 *3674:C 23 
7 *193:8 *193:45 5.64464 
8 *193:45 *193:51 23.8139 
9 *193:51 *193:57 36.1314 
10 *193:57 *3295:A1 23 
11 *193:51 *3253:A 23 
12 *193:45 *193:81 38.3077 
13 *193:81 *3605:D_N 23 
*END

*D_NET *194 0.00213065
*CONN
*I *3253:B I *D sky130_fd_sc_hd__or2_2
*I *3295:A2 I *D sky130_fd_sc_hd__o211ai_2
*I *3252:Y O *D sky130_fd_sc_hd__a21oi_2
*CAP
1 *3253:B 0
2 *3295:A2 0.000402112
3 *3252:Y 0.000351929
4 *194:10 0.000754041
5 *3295:A2 *632:25 0
6 *194:10 *195:10 2.04774e-05
7 *194:10 *200:10 0.000194309
8 *194:10 *632:25 0
9 *3252:A1 *194:10 0.000185428
10 *193:51 *194:10 0
11 *193:57 *3295:A2 0.000201524
12 *193:57 *194:10 2.08324e-05
*RES
1 *3252:Y *194:10 45.4779 
2 *194:10 *3295:A2 45.9543 
3 *194:10 *3253:B 38 
*END

*D_NET *195 0.00481322
*CONN
*I *3263:B1 I *D sky130_fd_sc_hd__a22o_2
*I *3254:A I *D sky130_fd_sc_hd__inv_2
*I *3326:A2 I *D sky130_fd_sc_hd__o22ai_2
*I *3253:X O *D sky130_fd_sc_hd__or2_2
*CAP
1 *3263:B1 0
2 *3254:A 1.97948e-05
3 *3326:A2 0.000159404
4 *3253:X 0
5 *195:38 0.00015633
6 *195:10 0.000920193
7 *195:4 0.000897325
8 *3254:A *568:29 5.50049e-05
9 *3254:A *596:10 1.94693e-05
10 *3326:A2 *251:16 0
11 *3326:A2 *257:8 6.53445e-05
12 *3326:A2 *258:10 4.6318e-06
13 *195:10 *3294:B1 4.19533e-05
14 *195:10 *3320:A1_N 0.000224345
15 *195:10 *3320:A2_N 1.02387e-05
16 *195:10 *217:28 0.000221172
17 *195:10 *218:39 5.83667e-05
18 *195:10 *225:17 7.76909e-06
19 *195:10 *226:10 0.000373684
20 *195:10 *249:8 0.000358137
21 *195:10 *250:8 4.76849e-05
22 *195:10 *251:16 0
23 *195:10 *257:8 9.61266e-05
24 *195:10 *596:10 0.000169674
25 *195:10 *718:114 4.52371e-05
26 *195:38 *218:39 0.000194327
27 *195:38 *603:31 9.64022e-05
28 *193:51 *195:10 8.90445e-05
29 *193:57 *195:10 0.000461086
30 *194:10 *195:10 2.04774e-05
*RES
1 *3253:X *195:4 23 
2 *195:4 *195:10 39.0079 
3 *195:10 *3326:A2 41.2314 
4 *195:10 *3254:A 38.6214 
5 *195:4 *195:38 33.7079 
6 *195:38 *3263:B1 23 
*END

*D_NET *196 0.000928662
*CONN
*I *3258:A I *D sky130_fd_sc_hd__and2_2
*I *3256:X O *D sky130_fd_sc_hd__a311o_2
*CAP
1 *3258:A 5.36806e-05
2 *3256:X 0.000148451
3 *196:8 0.000202132
4 *3258:A *3444:S 6.17437e-06
5 *3258:A *683:44 5.41385e-05
6 *196:8 *726:23 0.000110228
7 *196:8 *727:8 0.000353858
*RES
1 *3256:X *196:8 42.7229 
2 *196:8 *3258:A 39.0979 
*END

*D_NET *197 0.000664364
*CONN
*I *3258:B I *D sky130_fd_sc_hd__and2_2
*I *3257:X O *D sky130_fd_sc_hd__a21o_2
*CAP
1 *3258:B 0
2 *3257:X 0.000137686
3 *197:10 0.000137686
4 *197:10 *683:44 0.000169665
5 *197:10 *726:23 0.000169665
6 *3257:A1 *197:10 4.9662e-05
*RES
1 *3257:X *197:10 41.3557 
2 *197:10 *3258:B 38 
*END

*D_NET *198 0.000481978
*CONN
*I *3259:A I *D sky130_fd_sc_hd__buf_2
*I *3258:X O *D sky130_fd_sc_hd__and2_2
*CAP
1 *3259:A 0
2 *3258:X 0.000151492
3 *198:10 0.000151492
4 *198:10 *3224:B 3.71251e-05
5 *198:10 *726:23 0
6 *173:83 *198:10 0.000141869
*RES
1 *3258:X *198:10 41.0036 
2 *198:10 *3259:A 38 
*END

*D_NET *199 0.00255144
*CONN
*I *3263:A2 I *D sky130_fd_sc_hd__a22o_2
*I *3262:X O *D sky130_fd_sc_hd__a21o_2
*CAP
1 *3263:A2 1.74091e-05
2 *3262:X 0.000394698
3 *199:10 0.000412107
4 *3263:A2 *4034:A 3.19065e-05
5 *199:10 *200:10 6.67764e-05
6 *199:10 *868:25 0.00023718
7 *199:10 *868:50 0.000108283
8 *199:10 *869:14 0.000308946
9 *199:10 *869:101 0.00021677
10 *193:45 *199:10 3.53031e-05
11 *193:51 *199:10 0.000331381
12 *193:81 *199:10 0.000390679
*RES
1 *3262:X *199:10 48.9371 
2 *199:10 *3263:A2 38.3521 
*END

*D_NET *200 0.00314191
*CONN
*I *3264:A I *D sky130_fd_sc_hd__buf_6
*I *3263:X O *D sky130_fd_sc_hd__a22o_2
*CAP
1 *3264:A 0
2 *3263:X 0.000243875
3 *200:26 0.000494442
4 *200:10 0.000738317
5 *200:10 *3252:B1 4.18463e-05
6 *200:10 *4034:A 5.50106e-05
7 *200:10 *632:25 0
8 *200:10 *868:25 0.000249186
9 *200:26 *3252:B1 9.91442e-06
10 *200:26 *202:54 2.95423e-05
11 *200:26 *707:25 0.000200799
12 *200:26 *708:68 8.77726e-05
13 *200:26 *868:25 9.66498e-05
14 *184:57 *200:26 0.000124169
15 *193:14 *200:26 0.00036981
16 *193:45 *200:26 1.84226e-05
17 *193:51 *200:10 1.44813e-05
18 *193:81 *200:10 5.69011e-05
19 *193:81 *200:26 4.96824e-05
20 *194:10 *200:10 0.000194309
21 *199:10 *200:10 6.67764e-05
*RES
1 *3263:X *200:10 44.5768 
2 *200:10 *200:26 39.4931 
3 *200:26 *3264:A 23 
*END

*D_NET *201 0.00188981
*CONN
*I *3268:B1_N I *D sky130_fd_sc_hd__o21ba_2
*I *3267:X O *D sky130_fd_sc_hd__and3_2
*CAP
1 *3268:B1_N 0
2 *3267:X 0
3 *201:12 0.000611543
4 *201:6 0.000611543
5 *201:12 *374:6 2.93335e-05
6 *201:12 *573:31 0.000225275
7 *201:12 *909:14 5.56279e-05
8 *188:43 *201:12 0.000294337
9 *188:58 *201:12 6.21538e-05
*RES
1 *3267:X *201:6 38 
2 *201:6 *201:12 29.1479 
3 *201:12 *3268:B1_N 23 
*END

*D_NET *202 0.0204593
*CONN
*I *3639:C I *D sky130_fd_sc_hd__and4bb_2
*I *3622:D_N I *D sky130_fd_sc_hd__nor4b_4
*I *3500:D I *D sky130_fd_sc_hd__and4bb_2
*I *3517:C I *D sky130_fd_sc_hd__nand4b_1
*I *3570:D I *D sky130_fd_sc_hd__and4b_2
*I *3691:C I *D sky130_fd_sc_hd__and4bb_2
*I *3277:A1 I *D sky130_fd_sc_hd__a22o_2
*I *3334:A1 I *D sky130_fd_sc_hd__a221o_2
*I *3269:X O *D sky130_fd_sc_hd__buf_1
*CAP
1 *3639:C 8.81957e-05
2 *3622:D_N 0.000189999
3 *3500:D 9.43697e-05
4 *3517:C 0
5 *3570:D 3.27104e-05
6 *3691:C 0
7 *3277:A1 5.84306e-05
8 *3334:A1 0.00026014
9 *3269:X 0.000143069
10 *202:104 0.000610979
11 *202:88 0.000222008
12 *202:78 0.000723625
13 *202:65 0.000682349
14 *202:56 0.000305343
15 *202:54 0.00228549
16 *202:44 0.00265776
17 *202:10 0.00136234
18 *202:8 0.00195485
19 *3277:A1 *3277:B1 2.93845e-05
20 *3334:A1 *3334:B1 2.64616e-05
21 *3334:A1 *209:77 0.000194309
22 *3500:D *3500:B_N 5.56356e-05
23 *3500:D *3500:C 5.3304e-05
24 *3500:D *700:48 8.43466e-05
25 *3500:D *707:91 1.46286e-05
26 *3570:D *352:34 5.50106e-05
27 *3622:D_N *525:14 9.26098e-05
28 *3622:D_N *525:29 0.000207498
29 *3622:D_N *721:12 0.000148412
30 *3639:C *470:10 9.41704e-05
31 *202:8 *3243:B 5.56279e-05
32 *202:8 *3987:A 6.16164e-05
33 *202:10 *3241:B1 9.03979e-05
34 *202:10 *212:23 0.000165538
35 *202:10 *706:8 9.28739e-05
36 *202:10 *706:34 0.000201474
37 *202:10 *886:30 3.53794e-05
38 *202:44 *3266:A 0.000190219
39 *202:44 *341:8 6.57815e-06
40 *202:44 *603:79 0
41 *202:44 *702:14 8.9728e-05
42 *202:44 *702:27 1.35714e-05
43 *202:44 *702:43 0.000138607
44 *202:54 *3411:A 0.000364774
45 *202:54 *3411:B 9.67751e-05
46 *202:54 *341:8 0.000141924
47 *202:54 *498:22 0.000181961
48 *202:54 *600:8 0.000401641
49 *202:54 *721:10 2.44754e-05
50 *202:56 *516:24 1.27489e-05
51 *202:56 *516:105 1.39826e-05
52 *202:56 *663:12 2.27043e-05
53 *202:56 *721:10 0.0001432
54 *202:65 *3691:B_N 0.000354453
55 *202:65 *393:14 7.80954e-05
56 *202:65 *516:105 1.29848e-05
57 *202:65 *721:10 0.000333088
58 *202:78 *3471:A1 2.11157e-05
59 *202:78 *3571:A 0
60 *202:78 *3691:B_N 2.73792e-05
61 *202:78 *393:14 1.20764e-05
62 *202:78 *413:8 0.000271392
63 *202:78 *562:200 0
64 *202:78 *700:12 2.54221e-05
65 *202:78 *700:40 0.000274665
66 *202:78 *703:107 6.7177e-06
67 *202:78 *707:97 1.4471e-05
68 *202:88 *3571:A 0.000166513
69 *202:88 *413:48 0.000153333
70 *202:88 *422:10 4.67488e-05
71 *202:88 *681:32 1.32939e-05
72 *202:88 *687:78 2.18506e-05
73 *202:88 *700:48 0.000363332
74 *202:104 *525:29 0.000389974
75 *202:104 *663:12 0.000118217
76 *202:104 *721:10 6.09348e-05
77 *202:104 *721:12 0.000238021
78 *3266:B *202:10 3.81554e-05
79 *3266:B *202:44 2.22183e-05
80 *3301:A2 *202:10 1.55035e-05
81 *3334:A2 *3334:A1 7.70038e-05
82 *3334:C1 *3334:A1 6.85133e-05
83 *3875:D *202:88 5.50049e-05
84 *183:58 *202:8 2.32101e-05
85 *183:76 *202:10 0.00058692
86 *186:10 *3334:A1 2.54692e-05
87 *186:10 *202:10 0.000567947
88 *187:8 *202:10 2.61699e-05
89 *187:14 *3334:A1 2.02872e-05
90 *187:14 *202:10 3.95159e-06
91 *187:35 *3334:A1 3.70094e-05
92 *188:79 *202:8 9.64943e-05
93 *189:8 *202:10 0.000141274
94 *189:8 *202:44 1.52362e-05
95 *189:50 *202:44 0.000233045
96 *190:10 *202:54 9.89901e-05
97 *200:26 *202:54 2.95423e-05
*RES
1 *3269:X *202:8 41.0036 
2 *202:8 *202:10 26.9079 
3 *202:10 *3334:A1 43.4064 
4 *202:10 *3277:A1 39.1186 
5 *202:8 *202:44 27.6357 
6 *202:44 *202:54 47.5525 
7 *202:54 *202:56 2.08179 
8 *202:56 *3691:C 38 
9 *202:56 *202:65 7.89214 
10 *202:65 *3570:D 38.6214 
11 *202:65 *202:78 24.6529 
12 *202:78 *202:88 36.3593 
13 *202:88 *3517:C 23 
14 *202:78 *3500:D 25.0507 
15 *202:54 *202:104 9.39393 
16 *202:104 *3622:D_N 43.1164 
17 *202:104 *3639:C 39.0979 
*END

*D_NET *203 0.00160118
*CONN
*I *3281:B I *D sky130_fd_sc_hd__nand3_2
*I *3272:A I *D sky130_fd_sc_hd__nand3_2
*I *3299:A I *D sky130_fd_sc_hd__nand2_2
*I *3270:X O *D sky130_fd_sc_hd__or2_4
*CAP
1 *3281:B 0
2 *3272:A 8.30436e-05
3 *3299:A 6.02495e-05
4 *3270:X 6.05243e-05
5 *203:19 0.000180849
6 *203:6 0.000218579
7 *3272:A *3272:B 0.000162263
8 *3272:A *233:12 0.000188901
9 *3299:A *3299:B 5.5792e-05
10 *3299:A *233:12 5.90756e-05
11 *3299:A *234:8 2.02872e-05
12 *203:6 *3299:B 5.3304e-05
13 *203:6 *234:8 6.86773e-05
14 *203:19 *3272:B 1.13812e-05
15 *203:19 *204:12 0.000202868
16 *203:19 *233:12 0.000175382
*RES
1 *3270:X *203:6 24.5743 
2 *203:6 *3299:A 24.595 
3 *203:6 *203:19 17.9621 
4 *203:19 *3272:A 40.61 
5 *203:19 *3281:B 38 
*END

*D_NET *204 0.00210213
*CONN
*I *3299:B I *D sky130_fd_sc_hd__nand2_2
*I *3281:C I *D sky130_fd_sc_hd__nand3_2
*I *3272:B I *D sky130_fd_sc_hd__nand3_2
*I *3271:Y O *D sky130_fd_sc_hd__nand2_2
*CAP
1 *3299:B 5.4789e-05
2 *3281:C 0
3 *3272:B 0.000155026
4 *3271:Y 0.000254126
5 *204:12 0.000317921
6 *204:10 0.00047181
7 *3272:B *3272:C 1.12796e-05
8 *3272:B *211:6 0.000137525
9 *3272:B *233:16 5.45644e-05
10 *3272:B *886:22 1.61385e-05
11 *3272:B *887:41 4.13477e-05
12 *204:10 *3414:A 0
13 *204:10 *870:8 0
14 *204:12 *3414:A 0
15 *204:12 *887:41 3.50862e-06
16 *3272:A *3272:B 0.000162263
17 *3299:A *3299:B 5.5792e-05
18 *191:16 *204:10 9.84851e-05
19 *203:6 *3299:B 5.3304e-05
20 *203:19 *3272:B 1.13812e-05
21 *203:19 *204:12 0.000202868
*RES
1 *3271:Y *204:10 42.4121 
2 *204:10 *204:12 3.31429 
3 *204:12 *3272:B 42.3293 
4 *204:12 *3281:C 38 
5 *204:10 *3299:B 39.0979 
*END

*D_NET *205 0.00914577
*CONN
*I *3277:B1 I *D sky130_fd_sc_hd__a22o_2
*I *3304:B I *D sky130_fd_sc_hd__and3_4
*I *3284:B I *D sky130_fd_sc_hd__nand3_4
*I *3306:B I *D sky130_fd_sc_hd__and3_2
*I *3305:A1 I *D sky130_fd_sc_hd__a21oi_2
*I *3334:B1 I *D sky130_fd_sc_hd__a221o_2
*I *3288:A I *D sky130_fd_sc_hd__nand3_2
*I *3272:Y O *D sky130_fd_sc_hd__nand3_2
*CAP
1 *3277:B1 0.000300738
2 *3304:B 0.000115313
3 *3284:B 0.000105247
4 *3306:B 0.000117748
5 *3305:A1 3.01412e-05
6 *3334:B1 7.17419e-05
7 *3288:A 0.000352304
8 *3272:Y 0
9 *205:68 0.000318893
10 *205:55 0.000620562
11 *205:40 0.00111476
12 *205:23 0.00105986
13 *205:17 0.000917758
14 *205:4 0.000661337
15 *3284:B *3284:A 5.68958e-05
16 *3288:A *3272:C 5.5792e-05
17 *3288:A *3291:A1 5.82853e-05
18 *3288:A *3291:A2 0.000133019
19 *3288:A *3291:B1 0.000102971
20 *3288:A *224:8 0.000145393
21 *3288:A *886:30 0.00048871
22 *3304:B *3284:C 5.79559e-05
23 *3304:B *3304:C 0.000133299
24 *3305:A1 *3305:B1 5.56279e-05
25 *3306:B *260:20 0.000140094
26 *205:23 *210:8 0
27 *205:23 *233:51 0
28 *205:23 *267:10 0.000187129
29 *205:23 *268:8 0
30 *205:40 *3298:B1 6.43108e-05
31 *205:40 *3305:B1 0.00014196
32 *205:40 *3313:A2 0.000129402
33 *205:40 *210:8 0.000140958
34 *205:40 *233:51 0
35 *205:40 *242:23 0
36 *205:40 *246:8 0.000169683
37 *205:40 *596:42 7.91309e-05
38 *205:55 *3309:B1 4.70412e-06
39 *205:55 *209:35 0
40 *205:55 *237:8 5.91105e-05
41 *205:55 *238:8 7.28526e-05
42 *205:55 *260:20 0.000312772
43 *205:55 *596:42 0
44 *205:68 *3284:A 0.000131016
45 *205:68 *3304:A 8.50366e-05
46 *205:68 *209:35 4.07253e-05
47 *3277:A1 *3277:B1 2.93845e-05
48 *3277:A2 *3277:B1 1.46586e-05
49 *3310:A1 *205:40 6.16531e-05
50 *3334:A1 *3334:B1 2.64616e-05
51 *3334:A2 *3334:B1 1.32314e-05
52 *3334:A2 *205:23 1.55941e-05
53 *187:14 *3334:B1 7.44161e-06
54 *187:14 *205:17 0
55 *187:14 *205:23 0
56 *187:35 *205:40 0.00014411
*RES
1 *3272:Y *205:4 23 
2 *205:4 *3288:A 33.1707 
3 *205:4 *205:17 20.7793 
4 *205:17 *205:23 21.3179 
5 *205:23 *3334:B1 24.0979 
6 *205:23 *205:40 45.1629 
7 *205:40 *3305:A1 23.6214 
8 *205:40 *205:55 37.1464 
9 *205:55 *3306:B 24.5743 
10 *205:55 *205:68 32.61 
11 *205:68 *3284:B 25.0714 
12 *205:68 *3304:B 25.5271 
13 *205:17 *3277:B1 42.93 
*END

*D_NET *206 0.00528782
*CONN
*I *3276:A I *D sky130_fd_sc_hd__nand3_4
*I *3281:A I *D sky130_fd_sc_hd__nand3_2
*I *3290:B1 I *D sky130_fd_sc_hd__o21a_2
*I *3291:A1 I *D sky130_fd_sc_hd__o31ai_2
*I *3273:Y O *D sky130_fd_sc_hd__inv_2
*CAP
1 *3276:A 0.000104707
2 *3281:A 1.40676e-05
3 *3290:B1 0.000483388
4 *3291:A1 0.000106479
5 *3273:Y 0
6 *206:18 0.000706784
7 *206:8 0.000445756
8 *206:4 0.000419479
9 *3276:A *209:8 4.69418e-05
10 *3290:B1 *3290:A2 0.000249115
11 *3290:B1 *212:6 4.21921e-05
12 *3290:B1 *212:8 0.00021065
13 *3290:B1 *213:6 2.94787e-05
14 *3291:A1 *3291:A2 5.5792e-05
15 *3291:A1 *211:23 2.14404e-05
16 *206:8 *3273:A 5.5769e-05
17 *206:8 *3279:A 0.000224414
18 *206:8 *209:8 0.00105343
19 *206:8 *212:6 0.000176674
20 *206:8 *887:33 1.41129e-05
21 *206:8 *887:41 0.000272915
22 *206:18 *3280:A2 3.28357e-06
23 *206:18 *209:8 0.000165056
24 *206:18 *211:23 1.37712e-05
25 *206:18 *211:39 5.58003e-05
26 *206:18 *212:6 0.000170806
27 *3288:A *3291:A1 5.82853e-05
28 *187:14 *3291:A1 6.35028e-05
29 *187:14 *206:18 2.37243e-05
*RES
1 *3273:Y *206:4 23 
2 *206:4 *206:8 12.0764 
3 *206:8 *206:18 19.0186 
4 *206:18 *3291:A1 40.5271 
5 *206:18 *3290:B1 45.1879 
6 *206:8 *3281:A 23.4971 
7 *206:4 *3276:A 25.0507 
*END

*D_NET *207 0.000260727
*CONN
*I *3276:B I *D sky130_fd_sc_hd__nand3_4
*I *3274:X O *D sky130_fd_sc_hd__or2b_2
*CAP
1 *3276:B 0
2 *3274:X 0.000124673
3 *207:8 0.000124673
4 *207:8 *208:10 1.13812e-05
*RES
1 *3274:X *207:8 40.2579 
2 *207:8 *3276:B 38 
*END

*D_NET *208 0.000480239
*CONN
*I *3276:C I *D sky130_fd_sc_hd__nand3_4
*I *3275:X O *D sky130_fd_sc_hd__or2b_2
*CAP
1 *3276:C 7.88327e-05
2 *3275:X 0.000155596
3 *208:10 0.000234429
4 *207:8 *208:10 1.13812e-05
*RES
1 *3275:X *208:10 40.5271 
2 *208:10 *3276:C 39.0979 
*END

*D_NET *209 0.0129828
*CONN
*I *3288:B I *D sky130_fd_sc_hd__nand3_2
*I *3334:B2 I *D sky130_fd_sc_hd__a221o_2
*I *3277:B2 I *D sky130_fd_sc_hd__a22o_2
*I *3305:A2 I *D sky130_fd_sc_hd__a21oi_2
*I *3304:C I *D sky130_fd_sc_hd__and3_4
*I *3284:C I *D sky130_fd_sc_hd__nand3_4
*I *3306:C I *D sky130_fd_sc_hd__and3_2
*I *3276:Y O *D sky130_fd_sc_hd__nand3_4
*CAP
1 *3288:B 3.6708e-05
2 *3334:B2 0
3 *3277:B2 0
4 *3305:A2 0.000104173
5 *3304:C 7.20454e-05
6 *3284:C 1.68472e-05
7 *3306:C 0.000120411
8 *3276:Y 0.000824793
9 *209:77 0.000246783
10 *209:62 0.000533133
11 *209:35 0.000364214
12 *209:20 0.000450936
13 *209:16 0.000535115
14 *209:14 0.000797876
15 *209:12 0.000323164
16 *209:8 0.000975461
17 *3284:C *3304:A 1.83327e-05
18 *3288:B *224:8 5.3304e-05
19 *3304:C *3304:A 1.83408e-05
20 *3305:A2 *3305:B1 0.000144501
21 *3306:C *260:20 3.30379e-05
22 *209:8 *211:39 0.000421717
23 *209:8 *213:6 0.000363514
24 *209:8 *214:6 0.00102234
25 *209:12 *216:20 4.8612e-05
26 *209:12 *907:10 0.000234818
27 *209:14 *216:20 0.000416443
28 *209:14 *907:10 0.000432588
29 *209:16 *3304:A 3.64337e-05
30 *209:16 *216:20 0.00105485
31 *209:16 *907:10 0.000657532
32 *209:16 *907:12 0.000154843
33 *209:16 *907:14 0.000233968
34 *209:20 *3304:A 0.000137594
35 *209:20 *216:20 0.000139865
36 *209:35 *3304:A 0.000213615
37 *209:35 *260:20 1.71017e-05
38 *3276:A *209:8 4.69418e-05
39 *3304:B *3284:C 5.79559e-05
40 *3304:B *3304:C 0.000133299
41 *3334:A1 *209:77 0.000194309
42 *3334:C1 *209:77 1.25702e-05
43 *187:35 *209:77 2.35393e-05
44 *205:55 *209:35 0
45 *205:68 *209:35 4.07253e-05
46 *206:8 *209:8 0.00105343
47 *206:18 *209:8 0.000165056
*RES
1 *3276:Y *209:8 46.5107 
2 *209:8 *209:12 18.3143 
3 *209:12 *209:14 5.77929 
4 *209:14 *209:16 14.5829 
5 *209:16 *209:20 16.9057 
6 *209:20 *3306:C 24.5743 
7 *209:20 *209:35 35.1164 
8 *209:35 *3284:C 23.6214 
9 *209:35 *3304:C 25.0507 
10 *209:16 *3305:A2 40.0507 
11 *209:14 *209:62 19.9093 
12 *209:62 *3277:B2 23 
13 *209:62 *209:77 34.0859 
14 *209:77 *3334:B2 23 
15 *209:12 *3288:B 38.6214 
*END

*D_NET *210 0.00108153
*CONN
*I *3310:A2 I *D sky130_fd_sc_hd__o221ai_2
*I *3298:A1 I *D sky130_fd_sc_hd__o22ai_2
*I *3277:X O *D sky130_fd_sc_hd__a22o_2
*CAP
1 *3310:A2 3.17683e-05
2 *3298:A1 0
3 *3277:X 0.000220871
4 *210:10 3.17683e-05
5 *210:8 0.000220871
6 *3310:A2 *231:10 0.000185434
7 *210:8 *233:51 0
8 *3310:A1 *3310:A2 0.00010655
9 *3334:A2 *210:8 3.97399e-05
10 *187:14 *210:8 8.62876e-05
11 *187:35 *210:8 1.72778e-05
12 *205:23 *210:8 0
13 *205:40 *210:8 0.000140958
*RES
1 *3277:X *210:8 42.7229 
2 *210:8 *210:10 15 
3 *210:10 *3298:A1 23 
4 *210:10 *3310:A2 25.0507 
*END

*D_NET *211 0.00294422
*CONN
*I *3290:A1 I *D sky130_fd_sc_hd__o21a_2
*I *3280:A1 I *D sky130_fd_sc_hd__o21ai_4
*I *3291:A2 I *D sky130_fd_sc_hd__o31ai_2
*I *3278:Y O *D sky130_fd_sc_hd__nor2_2
*CAP
1 *3290:A1 0
2 *3280:A1 0.000165851
3 *3291:A2 0.00022272
4 *3278:Y 0.00030108
5 *211:39 0.000165851
6 *211:23 0.000125895
7 *211:6 0.000649695
8 *3291:A2 *3272:C 1.35999e-05
9 *211:6 *3272:C 7.50355e-05
10 *211:6 *233:16 3.2277e-05
11 *211:6 *886:22 7.64059e-06
12 *211:39 *3290:A2 0.000148427
13 *211:39 *212:6 2.33679e-05
14 *211:39 *212:8 0.000115435
15 *211:39 *213:6 5.82853e-05
16 *3272:B *211:6 0.000137525
17 *3288:A *3291:A2 0.000133019
18 *3291:A1 *3291:A2 5.5792e-05
19 *3291:A1 *211:23 2.14404e-05
20 *206:18 *211:23 1.37712e-05
21 *206:18 *211:39 5.58003e-05
22 *209:8 *211:39 0.000421717
*RES
1 *3278:Y *211:6 27.4329 
2 *211:6 *3291:A2 27.4743 
3 *211:6 *211:23 31.9057 
4 *211:23 *3280:A1 23 
5 *3280:A1 *211:39 29.0279 
6 *211:39 *3290:A1 23 
*END

*D_NET *212 0.00278283
*CONN
*I *3280:A2 I *D sky130_fd_sc_hd__o21ai_4
*I *3291:A3 I *D sky130_fd_sc_hd__o31ai_2
*I *3290:A2 I *D sky130_fd_sc_hd__o21a_2
*I *3279:X O *D sky130_fd_sc_hd__and2_4
*CAP
1 *3280:A2 2.05149e-05
2 *3291:A3 0
3 *3290:A2 7.317e-05
4 *3279:X 0.000374394
5 *212:23 6.15074e-05
6 *212:8 0.000220692
7 *212:6 0.000480924
8 *3290:A2 *213:6 2.48025e-05
9 *212:6 *887:41 5.58003e-05
10 *212:23 *886:30 0.000165538
11 *3290:B1 *3290:A2 0.000249115
12 *3290:B1 *212:6 4.21921e-05
13 *3290:B1 *212:8 0.00021065
14 *202:10 *212:23 0.000165538
15 *206:8 *212:6 0.000176674
16 *206:18 *3280:A2 3.28357e-06
17 *206:18 *212:6 0.000170806
18 *211:39 *3290:A2 0.000148427
19 *211:39 *212:6 2.33679e-05
20 *211:39 *212:8 0.000115435
*RES
1 *3279:X *212:6 30.2914 
2 *212:6 *212:8 2.52714 
3 *212:8 *3290:A2 26.0243 
4 *212:8 *212:23 32.2579 
5 *212:23 *3291:A3 23 
6 *212:6 *3280:A2 23.4971 
*END

*D_NET *213 0.00733682
*CONN
*I *3292:C I *D sky130_fd_sc_hd__nand3_4
*I *3286:A1 I *D sky130_fd_sc_hd__a311oi_1
*I *3282:A1 I *D sky130_fd_sc_hd__a21oi_2
*I *3312:B I *D sky130_fd_sc_hd__and3_2
*I *3307:A1 I *D sky130_fd_sc_hd__a311o_2
*I *3287:B I *D sky130_fd_sc_hd__nand3_2
*I *3280:Y O *D sky130_fd_sc_hd__o21ai_4
*CAP
1 *3292:C 0
2 *3286:A1 0.000185347
3 *3282:A1 0
4 *3312:B 0.000239042
5 *3307:A1 8.93125e-05
6 *3287:B 6.25688e-05
7 *3280:Y 0.000194838
8 *213:50 0.00088027
9 *213:23 0.000886551
10 *213:21 0.000561935
11 *213:19 0.000522306
12 *213:6 0.000559136
13 *3286:A1 *3286:A3 9.84794e-05
14 *3287:B *3287:A 5.3304e-05
15 *3287:B *214:6 4.98295e-05
16 *3287:B *220:12 1.12796e-05
17 *3287:B *223:6 1.47709e-05
18 *3307:A1 *3307:A3 9.47879e-05
19 *3307:A1 *214:24 4.39444e-06
20 *3307:A1 *216:20 0
21 *3307:A1 *596:40 5.05059e-05
22 *3312:B *214:43 4.23714e-05
23 *3312:B *230:8 0.000141954
24 *3312:B *230:14 0.000249918
25 *3312:B *596:42 1.12487e-05
26 *213:6 *3287:A 4.33627e-05
27 *213:6 *214:6 0.000168761
28 *213:6 *223:6 0.000119433
29 *213:19 *216:10 3.46013e-05
30 *213:19 *216:16 0.000135616
31 *213:19 *885:12 1.223e-05
32 *213:19 *885:18 6.53611e-05
33 *213:21 *3307:A3 2.46345e-05
34 *213:21 *216:20 0
35 *213:21 *885:29 0.000438045
36 *213:23 *3307:A3 0.000305442
37 *213:23 *216:20 0
38 *213:50 *3307:A3 5.48515e-07
39 *213:50 *214:24 5.56279e-05
40 *213:50 *215:8 0.000141954
41 *213:50 *216:20 0
42 *213:50 *230:14 8.62783e-05
43 *213:50 *596:40 0.000224692
44 *3290:A2 *213:6 2.48025e-05
45 *3290:B1 *213:6 2.94787e-05
46 *209:8 *213:6 0.000363514
47 *211:39 *213:6 5.82853e-05
*RES
1 *3280:Y *213:6 30.2914 
2 *213:6 *3287:B 24.595 
3 *213:6 *213:19 21.1314 
4 *213:19 *213:21 6.13143 
5 *213:21 *213:23 4.19464 
6 *213:23 *3307:A1 40.32 
7 *213:23 *213:50 40.0568 
8 *213:50 *3312:B 43.2407 
9 *213:50 *3282:A1 38 
10 *213:21 *3286:A1 41.0243 
11 *213:19 *3292:C 38 
*END

*D_NET *214 0.00885269
*CONN
*I *3287:C I *D sky130_fd_sc_hd__nand3_2
*I *3292:A I *D sky130_fd_sc_hd__nand3_4
*I *3286:A2 I *D sky130_fd_sc_hd__a311oi_1
*I *3282:A2 I *D sky130_fd_sc_hd__a21oi_2
*I *3312:C I *D sky130_fd_sc_hd__and3_2
*I *3307:A2 I *D sky130_fd_sc_hd__a311o_2
*I *3281:Y O *D sky130_fd_sc_hd__nand3_2
*CAP
1 *3287:C 0
2 *3292:A 7.60296e-05
3 *3286:A2 0
4 *3282:A2 3.27718e-05
5 *3312:C 0
6 *3307:A2 3.6327e-05
7 *3281:Y 0.00106792
8 *214:43 0.00013921
9 *214:37 0.000467531
10 *214:26 0.000331875
11 *214:24 0.00042472
12 *214:14 0.000633674
13 *214:12 0.000437756
14 *214:10 0.000178826
15 *214:6 0.00109397
16 *3282:A2 *596:40 7.67478e-05
17 *3307:A2 *240:8 9.97919e-05
18 *3307:A2 *596:40 4.96207e-05
19 *214:6 *220:12 5.3304e-05
20 *214:6 *223:6 2.40002e-06
21 *214:10 *884:16 7.9636e-05
22 *214:10 *885:12 8.88793e-05
23 *214:12 *676:10 8.35568e-05
24 *214:12 *884:16 0.000192032
25 *214:12 *884:30 6.12484e-05
26 *214:12 *885:12 0.00018065
27 *214:12 *885:18 0.00024816
28 *214:14 *3307:A3 2.11827e-05
29 *214:14 *676:10 9.35749e-05
30 *214:14 *676:12 0.000126936
31 *214:14 *676:16 2.70366e-05
32 *214:14 *885:18 1.0092e-05
33 *214:14 *885:29 0.000136962
34 *214:24 *3307:A3 7.95703e-05
35 *214:24 *216:20 3.85802e-05
36 *214:24 *218:61 0.000162316
37 *214:24 *219:8 0
38 *214:24 *240:8 2.116e-05
39 *214:24 *596:40 0.000108497
40 *214:24 *676:16 7.03869e-05
41 *214:24 *676:31 9.74235e-05
42 *214:37 *3282:B1 0.000233367
43 *214:37 *240:8 4.44329e-05
44 *214:37 *596:40 0.000101207
45 *3287:B *214:6 4.98295e-05
46 *3307:A1 *214:24 4.39444e-06
47 *3312:B *214:43 4.23714e-05
48 *209:8 *214:6 0.00102234
49 *213:6 *214:6 0.000168761
50 *213:50 *214:24 5.56279e-05
*RES
1 *3281:Y *214:6 39.3436 
2 *214:6 *214:10 16.2014 
3 *214:10 *214:12 5.77929 
4 *214:12 *214:14 6.48357 
5 *214:14 *214:24 39.5286 
6 *214:24 *214:26 15 
7 *214:26 *3307:A2 24.1082 
8 *214:26 *214:37 5.40643 
9 *214:37 *214:43 31.9057 
10 *214:43 *3312:C 23 
11 *214:37 *3282:A2 23.8596 
12 *214:14 *3286:A2 38 
13 *214:12 *3292:A 39.0979 
14 *214:10 *3287:C 38 
*END

*D_NET *215 0.00188296
*CONN
*I *3298:B1 I *D sky130_fd_sc_hd__o22ai_2
*I *3313:A2 I *D sky130_fd_sc_hd__o21ai_2
*I *3282:Y O *D sky130_fd_sc_hd__a21oi_2
*CAP
1 *3298:B1 0.000245417
2 *3313:A2 7.94805e-05
3 *3282:Y 0.000123204
4 *215:8 0.000448101
5 *3298:B1 *230:14 9.52677e-05
6 *3298:B1 *231:10 6.17437e-06
7 *3313:A2 *230:14 1.12487e-05
8 *3313:A2 *596:42 0.000225265
9 *215:8 *596:40 0.000223687
10 *3310:A1 *3298:B1 6.38845e-05
11 *187:35 *3298:B1 2.55642e-05
12 *205:40 *3298:B1 6.43108e-05
13 *205:40 *3313:A2 0.000129402
14 *213:50 *215:8 0.000141954
*RES
1 *3282:Y *215:8 41.0036 
2 *215:8 *3313:A2 41.3143 
3 *215:8 *3298:B1 43.51 
*END

*D_NET *216 0.0110835
*CONN
*I *3413:A I *D sky130_fd_sc_hd__xor2_2
*I *3287:A I *D sky130_fd_sc_hd__nand3_2
*I *3291:B1 I *D sky130_fd_sc_hd__o31ai_2
*I *3306:A I *D sky130_fd_sc_hd__and3_2
*I *3284:A I *D sky130_fd_sc_hd__nand3_4
*I *3283:Y O *D sky130_fd_sc_hd__inv_2
*CAP
1 *3413:A 0
2 *3287:A 3.94928e-05
3 *3291:B1 0.000363935
4 *3306:A 0
5 *3284:A 0.000317011
6 *3283:Y 4.72972e-05
7 *216:72 0.00097773
8 *216:20 0.00126654
9 *216:16 0.00160987
10 *216:10 0.000740604
11 *216:8 0.00142972
12 *3284:A *3304:A 4.9561e-05
13 *3284:A *239:19 0
14 *3287:A *223:6 4.98398e-05
15 *3291:B1 *224:8 0.000450229
16 *216:8 *4034:A 1.94693e-05
17 *216:10 *885:10 3.55887e-05
18 *216:10 *885:12 0.000328394
19 *216:10 *907:10 0
20 *216:16 *224:8 0.000319076
21 *216:16 *885:12 6.58399e-05
22 *216:20 *3304:A 1.26005e-05
23 *216:20 *3307:A3 7.21177e-06
24 *216:20 *219:27 0
25 *216:72 *3931:CLK 0.000275883
26 *216:72 *3931:D 0
27 *216:72 *3931:RESET_B 0.000131432
28 *216:72 *714:34 0.000168921
29 *216:72 *885:10 5.7203e-05
30 *3284:B *3284:A 5.68958e-05
31 *3287:B *3287:A 5.3304e-05
32 *3288:A *3291:B1 0.000102971
33 *3307:A1 *216:20 0
34 *183:10 *216:72 6.38845e-05
35 *205:68 *3284:A 0.000131016
36 *209:12 *216:20 4.8612e-05
37 *209:14 *216:20 0.000416443
38 *209:16 *216:20 0.00105485
39 *209:20 *216:20 0.000139865
40 *213:6 *3287:A 4.33627e-05
41 *213:19 *216:10 3.46013e-05
42 *213:19 *216:16 0.000135616
43 *213:21 *216:20 0
44 *213:23 *216:20 0
45 *213:50 *216:20 0
46 *214:24 *216:20 3.85802e-05
*RES
1 *3283:Y *216:8 38.6214 
2 *216:8 *216:10 9.65286 
3 *216:10 *216:16 20.3857 
4 *216:16 *216:20 38.0343 
5 *216:20 *3284:A 44.815 
6 *216:20 *3306:A 38 
7 *216:16 *3291:B1 29.8564 
8 *216:10 *3287:A 39.0979 
9 *216:8 *216:72 33.6636 
10 *216:72 *3413:A 23 
*END

*D_NET *217 0.00494546
*CONN
*I *3297:A1 I *D sky130_fd_sc_hd__a22oi_4
*I *3325:A2 I *D sky130_fd_sc_hd__a21oi_2
*I *3296:B1 I *D sky130_fd_sc_hd__a2bb2o_4
*I *3318:B1 I *D sky130_fd_sc_hd__a2bb2oi_2
*I *3284:Y O *D sky130_fd_sc_hd__nand3_4
*CAP
1 *3297:A1 0.000182643
2 *3325:A2 0
3 *3296:B1 0
4 *3318:B1 0
5 *3284:Y 0.000197319
6 *217:28 0.000159226
7 *217:22 0.000585036
8 *217:12 0.00060255
9 *217:8 0.000556701
10 *3297:A1 *219:27 0
11 *3297:A1 *230:8 2.93747e-05
12 *3297:A1 *240:10 0.000117775
13 *217:8 *3308:B2 0.000108264
14 *217:8 *239:19 6.43773e-05
15 *217:8 *240:10 9.98891e-05
16 *217:12 *3322:B1 0.000182826
17 *217:12 *3325:A1 0.000310647
18 *217:12 *219:27 0.00012612
19 *217:22 *3296:A1_N 3.3577e-05
20 *217:22 *3296:B2 3.22879e-05
21 *217:22 *218:61 0.000108672
22 *217:22 *229:10 0.000367967
23 *217:22 *229:12 0.000249909
24 *217:22 *251:16 5.93981e-05
25 *217:22 *259:10 0.000222113
26 *217:28 *3296:B2 9.52573e-05
27 *217:28 *3320:A2_N 0.000222123
28 *217:28 *251:16 1.02387e-05
29 *195:10 *217:28 0.000221172
*RES
1 *3284:Y *217:8 43.4271 
2 *217:8 *217:12 19.9093 
3 *217:12 *217:22 41.745 
4 *217:22 *217:28 35.7793 
5 *217:28 *3318:B1 23 
6 *217:22 *3296:B1 23 
7 *217:12 *3325:A2 23 
8 *217:8 *3297:A1 41.9357 
*END

*D_NET *218 0.0117314
*CONN
*I *3318:A1_N I *D sky130_fd_sc_hd__a2bb2oi_2
*I *3286:B1 I *D sky130_fd_sc_hd__a311oi_1
*I *3296:A1_N I *D sky130_fd_sc_hd__a2bb2o_4
*I *3307:B1 I *D sky130_fd_sc_hd__a311o_2
*I *3708:B I *D sky130_fd_sc_hd__nand3b_2
*I *3285:X O *D sky130_fd_sc_hd__and4_4
*CAP
1 *3318:A1_N 9.85267e-05
2 *3286:B1 0.000384382
3 *3296:A1_N 8.80417e-05
4 *3307:B1 0
5 *3708:B 0
6 *3285:X 0
7 *218:61 0.000585111
8 *218:43 0.000782069
9 *218:41 0.000553796
10 *218:39 0.00117148
11 *218:16 0.000601942
12 *218:4 0.0016144
13 *3286:B1 *3286:C1 2.30292e-05
14 *3286:B1 *3320:B1 6.17437e-06
15 *3318:A1_N *251:10 2.64616e-05
16 *218:16 *3656:B 5.50106e-05
17 *218:16 *373:10 0.000150936
18 *218:16 *701:61 0.000213615
19 *218:16 *705:32 0
20 *218:16 *705:60 0
21 *218:16 *707:29 1.59094e-05
22 *218:16 *707:33 0.000153013
23 *218:39 *3294:B1 5.88299e-05
24 *218:39 *3320:B2 0.000419968
25 *218:39 *222:12 6.90927e-05
26 *218:39 *225:30 8.6544e-05
27 *218:39 *603:31 0.000217817
28 *218:39 *637:14 2.02872e-05
29 *218:39 *637:16 6.68822e-05
30 *218:39 *637:75 6.16439e-05
31 *218:39 *718:114 0.000197958
32 *218:39 *869:101 0.000194299
33 *218:39 *884:30 0.000165384
34 *218:41 *3296:B2 2.95125e-05
35 *218:41 *3320:B2 0.000164291
36 *218:41 *225:30 6.07611e-06
37 *218:41 *251:10 0.000102638
38 *218:43 *3320:B2 8.94487e-05
39 *218:43 *228:10 0
40 *218:43 *251:10 6.48142e-05
41 *218:43 *251:16 0.000186025
42 *218:61 *228:10 0
43 *218:61 *240:8 0.000132573
44 *218:61 *251:16 0.00030457
45 *218:61 *596:10 0.000146082
46 *3251:A *218:16 9.84794e-05
47 *3251:A *218:39 4.08664e-05
48 *184:18 *218:39 0.000272522
49 *184:40 *218:39 0.000262858
50 *185:12 *218:39 6.08032e-05
51 *193:8 *218:16 0.000267167
52 *193:8 *218:39 0.000139357
53 *193:45 *218:39 0.00015137
54 *193:51 *218:39 0.000572085
55 *195:10 *218:39 5.83667e-05
56 *195:38 *218:39 0.000194327
57 *214:24 *218:61 0.000162316
58 *217:22 *3296:A1_N 3.3577e-05
59 *217:22 *218:61 0.000108672
*RES
1 *3285:X *218:4 23 
2 *218:4 *218:16 43.7129 
3 *218:16 *3708:B 23 
4 *218:4 *218:39 47.2314 
5 *218:39 *218:41 2.25786 
6 *218:41 *218:43 3.31429 
7 *218:43 *218:61 29.2721 
8 *218:61 *3307:B1 23 
9 *218:43 *3296:A1_N 39.595 
10 *218:41 *3286:B1 42.9093 
11 *218:39 *3318:A1_N 39.5743 
*END

*D_NET *219 0.00323659
*CONN
*I *4112:A I *D sky130_fd_sc_hd__clkdlybuf4s25_1
*I *3325:A1 I *D sky130_fd_sc_hd__a21oi_2
*I *3286:Y O *D sky130_fd_sc_hd__a311oi_1
*CAP
1 *4112:A 0
2 *3325:A1 0.000232381
3 *3286:Y 0.000372389
4 *219:27 0.000425981
5 *219:10 0.000658362
6 *219:8 0.000372389
7 *3325:A1 *3322:B1 4.5051e-05
8 *219:8 *3307:A3 0
9 *219:8 *228:10 0.000184081
10 *219:8 *228:16 8.40129e-05
11 *219:8 *240:10 0.000354788
12 *219:8 *596:30 0
13 *219:8 *676:16 7.03869e-05
14 *219:8 *676:31 0
15 *3297:A1 *219:27 0
16 *214:24 *219:8 0
17 *216:20 *219:27 0
18 *217:12 *3325:A1 0.000310647
19 *217:12 *219:27 0.00012612
*RES
1 *3286:Y *219:8 48.3571 
2 *219:8 *219:10 15 
3 *219:10 *3325:A1 27.93 
4 *219:10 *219:27 37.395 
5 *219:27 *4112:A 23 
*END

*D_NET *220 0.00299282
*CONN
*I *3316:B I *D sky130_fd_sc_hd__nand3_2
*I *3289:A I *D sky130_fd_sc_hd__nand3_2
*I *3287:Y O *D sky130_fd_sc_hd__nand3_2
*CAP
1 *3316:B 0.000359554
2 *3289:A 0
3 *3287:Y 0.00047804
4 *220:14 0.000359554
5 *220:12 0.00047804
6 *3316:B *3289:B 5.55743e-06
7 *3316:B *3294:A2 9.41704e-05
8 *3316:B *3316:A 5.3304e-05
9 *3316:B *3316:C 0.000217143
10 *3316:B *222:12 0.000230537
11 *220:12 *3317:A1 1.13812e-05
12 *220:12 *223:6 6.23233e-05
13 *220:12 *223:12 0.000134767
14 *220:12 *224:31 0.000154778
15 *220:12 *228:8 5.3304e-05
16 *220:12 *228:10 0.000235781
17 *3287:B *220:12 1.12796e-05
18 *214:6 *220:12 5.3304e-05
*RES
1 *3287:Y *220:12 46.2443 
2 *220:12 *220:14 15 
3 *220:14 *3289:A 23 
4 *220:14 *3316:B 30.3329 
*END

*D_NET *221 0.00267948
*CONN
*I *3289:B I *D sky130_fd_sc_hd__nand3_2
*I *3316:C I *D sky130_fd_sc_hd__nand3_2
*I *3288:Y O *D sky130_fd_sc_hd__nand3_2
*CAP
1 *3289:B 2.01555e-05
2 *3316:C 0.000421721
3 *3288:Y 0.000253405
4 *221:6 0.000695282
5 *3316:C *3294:A2 9.41704e-05
6 *3316:C *3316:A 5.56356e-05
7 *3316:C *222:12 1.35714e-05
8 *3316:C *224:8 7.61229e-06
9 *3316:C *227:10 5.3304e-05
10 *3316:C *884:30 0.000238552
11 *221:6 *3288:C 0.000186041
12 *221:6 *224:8 0.000204033
13 *221:6 *884:30 0.000213296
14 *3316:B *3289:B 5.55743e-06
15 *3316:B *3316:C 0.000217143
*RES
1 *3288:Y *221:6 29.3386 
2 *221:6 *3316:C 32.2179 
3 *221:6 *3289:B 23.4971 
*END

*D_NET *222 0.00110018
*CONN
*I *3295:B1 I *D sky130_fd_sc_hd__o211ai_2
*I *3289:Y O *D sky130_fd_sc_hd__nand3_2
*CAP
1 *3295:B1 0
2 *3289:Y 0.000303634
3 *222:12 0.000303634
4 *222:12 *3320:B2 0.000141038
5 *222:12 *224:8 3.86731e-05
6 *3316:B *222:12 0.000230537
7 *3316:C *222:12 1.35714e-05
8 *218:39 *222:12 6.90927e-05
*RES
1 *3289:Y *222:12 43.4064 
2 *222:12 *3295:B1 38 
*END

*D_NET *223 0.00311369
*CONN
*I *3319:A1 I *D sky130_fd_sc_hd__o211a_2
*I *3294:A1 I *D sky130_fd_sc_hd__o211ai_2
*I *3317:A1 I *D sky130_fd_sc_hd__o211ai_2
*I *3290:X O *D sky130_fd_sc_hd__o21a_2
*CAP
1 *3319:A1 5.4259e-05
2 *3294:A1 0
3 *3317:A1 0.000114836
4 *3290:X 0.000792858
5 *223:12 0.000232987
6 *223:6 0.000965267
7 *3317:A1 *3317:A2 0.000236783
8 *3317:A1 *224:31 1.0092e-05
9 *3317:A1 *228:10 0.000109362
10 *3319:A1 *224:31 5.08659e-05
11 *223:6 *224:31 1.45836e-05
12 *223:12 *224:31 0.000136881
13 *3287:A *223:6 4.98398e-05
14 *3287:B *223:6 1.47709e-05
15 *213:6 *223:6 0.000119433
16 *214:6 *223:6 2.40002e-06
17 *220:12 *3317:A1 1.13812e-05
18 *220:12 *223:6 6.23233e-05
19 *220:12 *223:12 0.000134767
*RES
1 *3290:X *223:6 33.15 
2 *223:6 *223:12 17.5271 
3 *223:12 *3317:A1 41.3143 
4 *223:12 *3294:A1 38 
5 *223:6 *3319:A1 24.3775 
*END

*D_NET *224 0.00473002
*CONN
*I *3294:A2 I *D sky130_fd_sc_hd__o211ai_2
*I *3317:A2 I *D sky130_fd_sc_hd__o211ai_2
*I *3319:A2 I *D sky130_fd_sc_hd__o211a_2
*I *3291:Y O *D sky130_fd_sc_hd__o31ai_2
*CAP
1 *3294:A2 4.11105e-05
2 *3317:A2 0.000172829
3 *3319:A2 0
4 *3291:Y 0.00045698
5 *224:31 0.000438747
6 *224:14 0.000299883
7 *224:8 0.000532056
8 *3317:A2 *3320:B2 8.37971e-05
9 *3317:A2 *225:6 5.5792e-05
10 *3317:A2 *227:10 5.91105e-05
11 *224:8 *3288:C 0.000186041
12 *224:14 *3319:B1 1.13812e-05
13 *224:14 *225:57 3.41301e-05
14 *224:14 *228:10 0.000135616
15 *224:31 *3320:B2 1.16455e-05
16 *224:31 *227:10 0.000179964
17 *224:31 *228:8 2.02872e-05
18 *3288:A *224:8 0.000145393
19 *3288:B *224:8 5.3304e-05
20 *3291:B1 *224:8 0.000450229
21 *3316:B *3294:A2 9.41704e-05
22 *3316:C *3294:A2 9.41704e-05
23 *3316:C *224:8 7.61229e-06
24 *3317:A1 *3317:A2 0.000236783
25 *3317:A1 *224:31 1.0092e-05
26 *3319:A1 *224:31 5.08659e-05
27 *216:16 *224:8 0.000319076
28 *220:12 *224:31 0.000154778
29 *221:6 *224:8 0.000204033
30 *222:12 *224:8 3.86731e-05
31 *223:6 *224:31 1.45836e-05
32 *223:12 *224:31 0.000136881
*RES
1 *3291:Y *224:8 35.5529 
2 *224:8 *224:14 31.9057 
3 *224:14 *3319:A2 23 
4 *224:14 *224:31 21.1521 
5 *224:31 *3317:A2 41.9357 
6 *224:31 *3294:A2 39.0979 
*END

*D_NET *225 0.00362268
*CONN
*I *3319:C1 I *D sky130_fd_sc_hd__o211a_2
*I *3318:B2 I *D sky130_fd_sc_hd__a2bb2oi_2
*I *3296:B2 I *D sky130_fd_sc_hd__a2bb2o_4
*I *3294:B1 I *D sky130_fd_sc_hd__o211ai_2
*I *3317:C1 I *D sky130_fd_sc_hd__o211ai_2
*I *3292:Y O *D sky130_fd_sc_hd__nand3_4
*CAP
1 *3319:C1 0
2 *3318:B2 0
3 *3296:B2 0.000161837
4 *3294:B1 8.46216e-05
5 *3317:C1 4.23615e-05
6 *3292:Y 0.000508223
7 *225:57 0.000207483
8 *225:30 0.000266831
9 *225:17 0.000195663
10 *225:6 0.000349149
11 *3294:B1 *718:114 4.72619e-05
12 *3294:B1 *884:30 5.63438e-05
13 *3296:B2 *3320:A2_N 0.000247687
14 *3296:B2 *250:8 1.01436e-05
15 *3296:B2 *251:10 0.000157309
16 *3296:B2 *251:16 0.000225275
17 *225:30 *250:8 0.000158706
18 *225:30 *884:30 4.95571e-05
19 *225:57 *3319:B1 5.75756e-06
20 *225:57 *676:10 0.000400322
21 *3317:A2 *225:6 5.5792e-05
22 *195:10 *3294:B1 4.19533e-05
23 *195:10 *225:17 7.76909e-06
24 *217:22 *3296:B2 3.22879e-05
25 *217:28 *3296:B2 9.52573e-05
26 *218:39 *3294:B1 5.88299e-05
27 *218:39 *225:30 8.6544e-05
28 *218:41 *3296:B2 2.95125e-05
29 *218:41 *225:30 6.07611e-06
30 *224:14 *225:57 3.41301e-05
*RES
1 *3292:Y *225:6 27.4329 
2 *225:6 *3317:C1 23.6214 
3 *225:6 *225:17 15.3211 
4 *225:17 *3294:B1 40.7861 
5 *225:17 *225:30 3.75964 
6 *225:30 *3296:B2 44.4007 
7 *225:30 *3318:B2 38 
8 *3292:Y *225:57 43.4271 
9 *225:57 *3319:C1 38 
*END

*D_NET *226 0.00177785
*CONN
*I *3294:C1 I *D sky130_fd_sc_hd__o211ai_2
*I *3316:A I *D sky130_fd_sc_hd__nand3_2
*I *3293:Y O *D sky130_fd_sc_hd__inv_2
*CAP
1 *3294:C1 0
2 *3316:A 1.94238e-05
3 *3293:Y 0.000352554
4 *226:12 1.94238e-05
5 *226:10 0.000352554
6 *226:10 *3929:CLK 0.000179725
7 *226:10 *718:114 0.000371546
8 *3316:B *3316:A 5.3304e-05
9 *3316:C *3316:A 5.56356e-05
10 *195:10 *226:10 0.000373684
*RES
1 *3293:Y *226:10 47.0314 
2 *226:10 *226:12 15 
3 *226:12 *3316:A 23.6214 
4 *226:12 *3294:C1 23 
*END

*D_NET *227 0.000829855
*CONN
*I *3295:C1 I *D sky130_fd_sc_hd__o211ai_2
*I *3294:Y O *D sky130_fd_sc_hd__o211ai_2
*CAP
1 *3295:C1 0
2 *3294:Y 0.0001213
3 *227:10 0.0001213
4 *227:10 *3320:B2 0.000239075
5 *227:10 *884:30 5.58003e-05
6 *3316:C *227:10 5.3304e-05
7 *3317:A2 *227:10 5.91105e-05
8 *224:31 *227:10 0.000179964
*RES
1 *3294:Y *227:10 41.9357 
2 *227:10 *3295:C1 38 
*END

*D_NET *228 0.00505395
*CONN
*I *3297:B1 I *D sky130_fd_sc_hd__a22oi_4
*I *3321:B1 I *D sky130_fd_sc_hd__o211ai_2
*I *3323:A I *D sky130_fd_sc_hd__nand2_2
*I *3308:A1_N I *D sky130_fd_sc_hd__o2bb2ai_2
*I *3295:Y O *D sky130_fd_sc_hd__o211ai_2
*CAP
1 *3297:B1 0
2 *3321:B1 0
3 *3323:A 0
4 *3308:A1_N 0.000171277
5 *3295:Y 0.000192787
6 *228:18 0.000308934
7 *228:16 0.000406746
8 *228:10 0.00127002
9 *228:8 0.00119372
10 *3308:A1_N *3308:A2_N 4.78154e-05
11 *3308:A1_N *3308:B2 7.76909e-06
12 *228:8 *252:8 5.14826e-05
13 *228:10 *3319:B1 3.21898e-05
14 *228:10 *3320:B2 0
15 *228:10 *229:10 0.000119761
16 *228:10 *676:10 0
17 *228:10 *676:12 0
18 *228:10 *676:16 0
19 *228:16 *3308:B2 4.21594e-06
20 *228:16 *229:10 4.21594e-06
21 *228:16 *229:12 5.86165e-05
22 *228:16 *240:10 6.61054e-05
23 *228:16 *254:12 0.000111852
24 *228:18 *3308:A2_N 0
25 *228:18 *3308:B2 7.28982e-05
26 *228:18 *260:12 0.000111106
27 *3317:A1 *228:10 0.000109362
28 *218:43 *228:10 0
29 *218:61 *228:10 0
30 *219:8 *228:10 0.000184081
31 *219:8 *228:16 8.40129e-05
32 *220:12 *228:8 5.3304e-05
33 *220:12 *228:10 0.000235781
34 *224:14 *228:10 0.000135616
35 *224:31 *228:8 2.02872e-05
*RES
1 *3295:Y *228:8 40.5271 
2 *228:8 *228:10 20.5693 
3 *228:10 *228:16 6.54571 
4 *228:16 *228:18 3.31429 
5 *228:18 *3308:A1_N 41.7286 
6 *228:18 *3323:A 38 
7 *228:16 *3321:B1 38 
8 *228:10 *3297:B1 38 
*END

*D_NET *229 0.00311011
*CONN
*I *3297:B2 I *D sky130_fd_sc_hd__a22oi_4
*I *3321:C1 I *D sky130_fd_sc_hd__o211ai_2
*I *3308:A2_N I *D sky130_fd_sc_hd__o2bb2ai_2
*I *3296:X O *D sky130_fd_sc_hd__a2bb2o_4
*CAP
1 *3297:B2 0
2 *3321:C1 4.19934e-05
3 *3308:A2_N 0.00035449
4 *3296:X 0.000260402
5 *229:12 0.000592427
6 *229:10 0.000456346
7 *3308:A2_N *259:10 4.15081e-05
8 *3308:A2_N *260:12 2.99696e-05
9 *3308:A2_N *557:10 0.000163256
10 *3308:A2_N *718:81 9.98726e-05
11 *229:10 *3296:A2_N 9.91895e-05
12 *229:12 *254:12 3.56537e-05
13 *229:12 *259:10 8.67156e-05
14 *3308:A1_N *3308:A2_N 4.78154e-05
15 *217:22 *229:10 0.000367967
16 *217:22 *229:12 0.000249909
17 *228:10 *229:10 0.000119761
18 *228:16 *229:10 4.21594e-06
19 *228:16 *229:12 5.86165e-05
20 *228:18 *3308:A2_N 0
*RES
1 *3296:X *229:10 45.1257 
2 *229:10 *229:12 5.77929 
3 *229:12 *3308:A2_N 45.83 
4 *229:12 *3321:C1 38.6214 
5 *229:10 *3297:B2 38 
*END

*D_NET *230 0.00396391
*CONN
*I *3313:B1 I *D sky130_fd_sc_hd__o21ai_2
*I *3298:B2 I *D sky130_fd_sc_hd__o22ai_2
*I *3297:Y O *D sky130_fd_sc_hd__a22oi_4
*CAP
1 *3313:B1 0.000246059
2 *3298:B2 0
3 *3297:Y 0.000845419
4 *230:14 0.000198813
5 *230:8 0.00129029
6 *3313:B1 *3313:A1 6.17437e-06
7 *230:8 *3312:A 6.23499e-05
8 *230:8 *3313:A1 2.64616e-05
9 *230:8 *673:8 0.000398814
10 *230:14 *596:42 0.000275482
11 *3297:A1 *230:8 2.93747e-05
12 *3298:B1 *230:14 9.52677e-05
13 *3312:B *230:8 0.000141954
14 *3312:B *230:14 0.000249918
15 *3313:A2 *230:14 1.12487e-05
16 *213:50 *230:14 8.62783e-05
*RES
1 *3297:Y *230:8 37.935 
2 *230:8 *230:14 36.4836 
3 *230:14 *3298:B2 23 
4 *230:8 *3313:B1 26.8529 
*END

*D_NET *231 0.00334232
*CONN
*I *3303:A I *D sky130_fd_sc_hd__nand2_2
*I *3331:A1 I *D sky130_fd_sc_hd__a211o_2
*I *3333:A1 I *D sky130_fd_sc_hd__a21oi_2
*I *3298:Y O *D sky130_fd_sc_hd__o22ai_2
*CAP
1 *3303:A 0
2 *3331:A1 0.000150226
3 *3333:A1 0
4 *3298:Y 0.000639905
5 *231:29 0.000323691
6 *231:14 0.000274694
7 *231:10 0.000741133
8 *3331:A1 *3331:A2 0.000161389
9 *3331:A1 *236:10 2.93747e-05
10 *231:10 *3337:B1 5.41385e-05
11 *231:10 *234:28 4.56101e-05
12 *231:10 *242:31 0.000137651
13 *231:10 *243:10 4.7312e-05
14 *231:14 *234:18 3.47781e-05
15 *231:14 *234:28 0
16 *231:14 *236:10 5.19255e-05
17 *231:29 *3331:A2 5.50106e-05
18 *231:29 *3333:A2 0.000197479
19 *231:29 *233:37 0
20 *231:29 *234:18 1.78655e-05
21 *231:29 *235:8 1.14452e-05
22 *231:29 *236:10 9.5733e-05
23 *3298:B1 *231:10 6.17437e-06
24 *3310:A1 *231:10 8.13553e-05
25 *3310:A2 *231:10 0.000185434
*RES
1 *3298:Y *231:10 35.0971 
2 *231:10 *231:14 17.2579 
3 *231:14 *3333:A1 38 
4 *231:14 *231:29 19.5571 
5 *231:29 *3331:A1 26.9979 
6 *231:29 *3303:A 23 
*END

*D_NET *232 0.000736676
*CONN
*I *3300:C I *D sky130_fd_sc_hd__and3_4
*I *3301:B1 I *D sky130_fd_sc_hd__a21oi_2
*I *3299:Y O *D sky130_fd_sc_hd__nand2_2
*CAP
1 *3300:C 0
2 *3301:B1 0.000102485
3 *3299:Y 0.000115068
4 *232:6 0.000217553
5 *3301:B1 *234:8 9.5148e-05
6 *232:6 *233:12 3.26241e-05
7 *232:6 *234:8 7.57808e-05
8 *3300:A *3301:B1 5.58003e-05
9 *3300:B *3301:B1 4.22172e-05
*RES
1 *3299:Y *232:6 26.0036 
2 *232:6 *3301:B1 25.5479 
3 *232:6 *3300:C 23 
*END

*D_NET *233 0.00579239
*CONN
*I *3331:B1 I *D sky130_fd_sc_hd__a211o_2
*I *3333:B1 I *D sky130_fd_sc_hd__a21oi_2
*I *3335:A I *D sky130_fd_sc_hd__or2_2
*I *3310:B1 I *D sky130_fd_sc_hd__o221ai_2
*I *3302:A I *D sky130_fd_sc_hd__nor2_2
*I *3300:X O *D sky130_fd_sc_hd__and3_4
*CAP
1 *3331:B1 0
2 *3333:B1 0
3 *3335:A 0
4 *3310:B1 0
5 *3302:A 2.18824e-05
6 *3300:X 0.000357684
7 *233:51 0.000235889
8 *233:43 0.000522617
9 *233:37 0.000469688
10 *233:29 0.000421999
11 *233:16 0.000425538
12 *233:12 0.0005223
13 *233:12 *234:8 0.000189848
14 *233:16 *3278:A 0.000117057
15 *233:16 *3302:B 5.3304e-05
16 *233:16 *886:22 0.000539694
17 *233:29 *3275:B_N 0.000141344
18 *233:29 *3278:A 2.50118e-05
19 *233:29 *263:12 0.000396529
20 *233:29 *265:10 0.000117406
21 *233:37 *3333:A2 0
22 *233:37 *236:10 3.56433e-05
23 *233:37 *263:12 1.14452e-05
24 *233:37 *265:10 6.28695e-05
25 *233:37 *266:10 2.31797e-05
26 *233:43 *3333:A2 8.96264e-05
27 *233:43 *234:18 0.000227208
28 *233:43 *266:10 1.94812e-05
29 *233:43 *267:10 2.18409e-05
30 *233:51 *242:31 3.92407e-05
31 *233:51 *267:10 7.44354e-05
32 *233:51 *268:8 8.68081e-05
33 *3272:A *233:12 0.000188901
34 *3272:B *233:16 5.45644e-05
35 *3299:A *233:12 5.90756e-05
36 *203:19 *233:12 0.000175382
37 *205:23 *233:51 0
38 *205:40 *233:51 0
39 *210:8 *233:51 0
40 *211:6 *233:16 3.2277e-05
41 *231:29 *233:37 0
42 *232:6 *233:12 3.26241e-05
*RES
1 *3300:X *233:12 45.975 
2 *233:12 *233:16 21.3386 
3 *233:16 *3302:A 23.4971 
4 *233:16 *233:29 22.4779 
5 *233:29 *233:37 19.205 
6 *233:37 *233:43 6.50429 
7 *233:43 *233:51 34.5364 
8 *233:51 *3310:B1 23 
9 *233:43 *3335:A 23 
10 *233:37 *3333:B1 23 
11 *233:29 *3331:B1 38 
*END

*D_NET *234 0.00606664
*CONN
*I *3302:B I *D sky130_fd_sc_hd__nor2_2
*I *3335:B I *D sky130_fd_sc_hd__or2_2
*I *3310:B2 I *D sky130_fd_sc_hd__o221ai_2
*I *3301:Y O *D sky130_fd_sc_hd__a21oi_2
*CAP
1 *3302:B 2.32701e-05
2 *3335:B 0
3 *3310:B2 0
4 *3301:Y 0.000835568
5 *234:28 0.000312603
6 *234:18 0.000818177
7 *234:12 0.000739451
8 *234:8 0.00104617
9 *3302:B *3278:A 5.3304e-05
10 *234:8 *3270:A 5.45541e-05
11 *234:12 *3414:A 0.000279527
12 *234:12 *235:8 6.12484e-05
13 *234:18 *3333:A2 0.000197479
14 *234:18 *235:8 0.000421059
15 *234:18 *268:8 0
16 *234:28 *3311:A 0
17 *234:28 *236:10 0
18 *234:28 *242:31 7.15126e-05
19 *234:28 *243:10 9.75779e-05
20 *234:28 *267:10 0.000188926
21 *234:28 *268:8 9.21347e-06
22 *234:28 *269:8 0
23 *3299:A *234:8 2.02872e-05
24 *3300:A *234:8 1.47709e-05
25 *3301:B1 *234:8 9.5148e-05
26 *3310:A1 *234:28 1.37232e-05
27 *203:6 *234:8 6.86773e-05
28 *231:10 *234:28 4.56101e-05
29 *231:14 *234:18 3.47781e-05
30 *231:14 *234:28 0
31 *231:29 *234:18 1.78655e-05
32 *232:6 *234:8 7.57808e-05
33 *233:12 *234:8 0.000189848
34 *233:16 *3302:B 5.3304e-05
35 *233:43 *234:18 0.000227208
*RES
1 *3301:Y *234:8 35.0764 
2 *234:8 *234:12 19.7229 
3 *234:12 *234:18 26.8279 
4 *234:18 *234:28 36.815 
5 *234:28 *3310:B2 23 
6 *234:18 *3335:B 23 
7 *234:12 *3302:B 38.6214 
*END

*D_NET *235 0.00481888
*CONN
*I *3414:A I *D sky130_fd_sc_hd__and4_4
*I *3331:A2 I *D sky130_fd_sc_hd__a211o_2
*I *3303:B I *D sky130_fd_sc_hd__nand2_2
*I *3333:A2 I *D sky130_fd_sc_hd__a21oi_2
*I *3302:Y O *D sky130_fd_sc_hd__nor2_2
*CAP
1 *3414:A 0.000527527
2 *3331:A2 0.00028809
3 *3303:B 0
4 *3333:A2 0.000146167
5 *3302:Y 0
6 *235:23 0.00028809
7 *235:8 0.000399799
8 *235:6 0.000781159
9 *3414:A *3414:B 3.3577e-05
10 *3414:A *717:10 9.67842e-05
11 *3414:A *886:16 0.000585268
12 *3414:A *886:22 8.78864e-05
13 *235:8 *263:12 0
14 *235:8 *886:22 0.000110267
15 *3331:A1 *3331:A2 0.000161389
16 *204:10 *3414:A 0
17 *204:12 *3414:A 0
18 *231:29 *3331:A2 5.50106e-05
19 *231:29 *3333:A2 0.000197479
20 *231:29 *235:8 1.14452e-05
21 *233:37 *3333:A2 0
22 *233:43 *3333:A2 8.96264e-05
23 *234:12 *3414:A 0.000279527
24 *234:12 *235:8 6.12484e-05
25 *234:18 *3333:A2 0.000197479
26 *234:18 *235:8 0.000421059
*RES
1 *3302:Y *235:6 38 
2 *235:6 *235:8 6.48357 
3 *235:8 *3333:A2 42.205 
4 *235:8 *235:23 15 
5 *235:23 *3303:B 23 
6 *235:23 *3331:A2 28.4271 
7 *235:6 *3414:A 49.455 
*END

*D_NET *236 0.00119388
*CONN
*I *3337:B2 I *D sky130_fd_sc_hd__a2bb2oi_2
*I *3311:A I *D sky130_fd_sc_hd__nand2_2
*I *3303:Y O *D sky130_fd_sc_hd__nand2_2
*CAP
1 *3337:B2 0
2 *3311:A 0.000154673
3 *3303:Y 0.000278017
4 *236:10 0.000432689
5 *3311:A *3336:B1 1.83564e-05
6 *3311:A *243:10 5.26101e-05
7 *3311:A *262:16 0
8 *3311:A *269:8 0
9 *236:10 *262:16 0
10 *236:10 *265:10 0
11 *236:10 *270:8 4.48568e-05
12 *3331:A1 *236:10 2.93747e-05
13 *231:14 *236:10 5.19255e-05
14 *231:29 *236:10 9.5733e-05
15 *233:37 *236:10 3.56433e-05
16 *234:28 *3311:A 0
17 *234:28 *236:10 0
*RES
1 *3303:Y *236:10 43.8207 
2 *236:10 *3311:A 41.3143 
3 *236:10 *3337:B2 38 
*END

*D_NET *237 0.000518695
*CONN
*I *3309:A1 I *D sky130_fd_sc_hd__o21ai_4
*I *3304:X O *D sky130_fd_sc_hd__and3_4
*CAP
1 *3309:A1 5.62623e-05
2 *3304:X 9.35316e-05
3 *237:8 0.000149794
4 *3309:A1 *260:20 9.64943e-05
5 *237:8 *3309:B1 6.35028e-05
6 *205:55 *237:8 5.91105e-05
*RES
1 *3304:X *237:8 39.9057 
2 *237:8 *3309:A1 39.0979 
*END

*D_NET *238 0.000242186
*CONN
*I *3309:A2 I *D sky130_fd_sc_hd__o21ai_4
*I *3305:Y O *D sky130_fd_sc_hd__a21oi_2
*CAP
1 *3309:A2 0
2 *3305:Y 5.68633e-05
3 *238:8 5.68633e-05
4 *238:8 *3309:B1 1.14452e-05
5 *238:8 *596:42 4.41619e-05
6 *205:55 *238:8 7.28526e-05
*RES
1 *3305:Y *238:8 39.9057 
2 *238:8 *3309:A2 38 
*END

*D_NET *239 0.00101465
*CONN
*I *3308:B1 I *D sky130_fd_sc_hd__o2bb2ai_2
*I *3321:A1 I *D sky130_fd_sc_hd__o211ai_2
*I *3306:X O *D sky130_fd_sc_hd__and3_2
*CAP
1 *3308:B1 0
2 *3321:A1 5.033e-05
3 *3306:X 6.41562e-05
4 *239:19 0.000296673
5 *239:6 0.000411159
6 *3321:A1 *260:20 5.45541e-05
7 *239:6 *260:20 7.34019e-05
8 *3284:A *239:19 0
9 *217:8 *239:19 6.43773e-05
*RES
1 *3306:X *239:6 24.5743 
2 *239:6 *3321:A1 24.0979 
3 *239:6 *239:19 35.7793 
4 *239:19 *3308:B1 23 
*END

*D_NET *240 0.00316727
*CONN
*I *3321:A2 I *D sky130_fd_sc_hd__o211ai_2
*I *3308:B2 I *D sky130_fd_sc_hd__o2bb2ai_2
*I *3307:X O *D sky130_fd_sc_hd__a311o_2
*CAP
1 *3321:A2 0
2 *3308:B2 0.000316607
3 *3307:X 0.000379406
4 *240:10 0.000554601
5 *240:8 0.0006174
6 *3308:B2 *241:8 0.000147656
7 *3308:B2 *718:81 2.19403e-05
8 *3297:A1 *240:10 0.000117775
9 *3307:A2 *240:8 9.97919e-05
10 *3308:A1_N *3308:B2 7.76909e-06
11 *214:24 *240:8 2.116e-05
12 *214:37 *240:8 4.44329e-05
13 *217:8 *3308:B2 0.000108264
14 *217:8 *240:10 9.98891e-05
15 *218:61 *240:8 0.000132573
16 *219:8 *240:10 0.000354788
17 *228:16 *3308:B2 4.21594e-06
18 *228:16 *240:10 6.61054e-05
19 *228:18 *3308:B2 7.28982e-05
*RES
1 *3307:X *240:8 43.8621 
2 *240:8 *240:10 7.54 
3 *240:10 *3308:B2 45.83 
4 *240:10 *3321:A2 38 
*END

*D_NET *241 0.00285769
*CONN
*I *3309:B1 I *D sky130_fd_sc_hd__o21ai_4
*I *3308:Y O *D sky130_fd_sc_hd__o2bb2ai_2
*CAP
1 *3309:B1 0.000308896
2 *3308:Y 0.000343942
3 *241:8 0.000652838
4 *3309:B1 *3896:CLK 9.15503e-05
5 *3309:B1 *260:20 0.000101109
6 *3309:B1 *596:42 0.00010003
7 *241:8 *718:81 0.00103202
8 *3308:B2 *241:8 0.000147656
9 *205:55 *3309:B1 4.70412e-06
10 *237:8 *3309:B1 6.35028e-05
11 *238:8 *3309:B1 1.14452e-05
*RES
1 *3308:Y *241:8 49.1029 
2 *241:8 *3309:B1 45.0014 
*END

*D_NET *242 0.00250477
*CONN
*I *3336:A2 I *D sky130_fd_sc_hd__a31oi_2
*I *3310:C1 I *D sky130_fd_sc_hd__o221ai_2
*I *3314:A I *D sky130_fd_sc_hd__nand2_2
*I *3309:Y O *D sky130_fd_sc_hd__o21ai_4
*CAP
1 *3336:A2 5.96068e-05
2 *3310:C1 0
3 *3314:A 0
4 *3309:Y 0.000300756
5 *242:31 0.000183215
6 *242:23 0.000612518
7 *242:10 0.000670452
8 *242:10 *247:10 0
9 *242:10 *260:20 0.000207707
10 *242:10 *261:8 0
11 *242:23 *246:8 0
12 *242:23 *261:8 0
13 *242:31 *243:10 0
14 *242:31 *268:8 0.000222113
15 *205:40 *242:23 0
16 *231:10 *242:31 0.000137651
17 *233:51 *242:31 3.92407e-05
18 *234:28 *242:31 7.15126e-05
*RES
1 *3309:Y *242:10 44.2143 
2 *242:10 *3314:A 38 
3 *242:10 *242:23 21.8771 
4 *242:23 *242:31 34.8886 
5 *242:31 *3310:C1 23 
6 *242:23 *3336:A2 24.0979 
*END

*D_NET *243 0.00103825
*CONN
*I *3311:B I *D sky130_fd_sc_hd__nand2_2
*I *3310:Y O *D sky130_fd_sc_hd__o221ai_2
*CAP
1 *3311:B 0
2 *3310:Y 0.000366958
3 *243:10 0.000366958
4 *243:10 *3337:B1 5.12254e-05
5 *243:10 *267:10 0
6 *243:10 *269:8 5.561e-05
7 *3311:A *243:10 5.26101e-05
8 *231:10 *243:10 4.7312e-05
9 *234:28 *243:10 9.75779e-05
10 *242:31 *243:10 0
*RES
1 *3310:Y *243:10 44.2143 
2 *243:10 *3311:B 38 
*END

*D_NET *244 0.000765961
*CONN
*I *3329:A1_N I *D sky130_fd_sc_hd__o2bb2ai_2
*I *3311:Y O *D sky130_fd_sc_hd__nand2_2
*CAP
1 *3329:A1_N 0
2 *3311:Y 0.000188262
3 *244:8 0.000188262
4 *244:8 *3336:B1 0.000384805
5 *244:8 *248:8 4.6318e-06
*RES
1 *3311:Y *244:8 43.075 
2 *244:8 *3329:A1_N 38 
*END

*D_NET *245 0.000125071
*CONN
*I *3313:A1 I *D sky130_fd_sc_hd__o21ai_2
*I *3312:X O *D sky130_fd_sc_hd__and3_2
*CAP
1 *3313:A1 4.62175e-05
2 *3312:X 4.62175e-05
3 *3313:B1 *3313:A1 6.17437e-06
4 *230:8 *3313:A1 2.64616e-05
*RES
1 *3312:X *3313:A1 46.6214 
*END

*D_NET *246 0.000678908
*CONN
*I *3314:B I *D sky130_fd_sc_hd__nand2_2
*I *3313:Y O *D sky130_fd_sc_hd__o21ai_2
*CAP
1 *3314:B 0.000166318
2 *3313:Y 8.82946e-05
3 *246:8 0.000254612
4 *205:40 *246:8 0.000169683
5 *242:23 *246:8 0
*RES
1 *3313:Y *246:8 40.2579 
2 *246:8 *3314:B 41.0036 
*END

*D_NET *247 0.00125513
*CONN
*I *3315:B I *D sky130_fd_sc_hd__nor2_2
*I *3328:A1 I *D sky130_fd_sc_hd__a21oi_2
*I *3314:Y O *D sky130_fd_sc_hd__nand2_2
*CAP
1 *3315:B 0.000166547
2 *3328:A1 0
3 *3314:Y 0.000337074
4 *247:14 0.000200144
5 *247:10 0.000370671
6 *3315:B *3315:A 6.66152e-05
7 *247:10 *261:8 0.000114083
8 *247:10 *560:8 0
9 *242:10 *247:10 0
*RES
1 *3314:Y *247:10 43.7379 
2 *247:10 *247:14 15.6214 
3 *247:14 *3328:A1 23 
4 *247:14 *3315:B 26.5214 
*END

*D_NET *248 0.000474099
*CONN
*I *3329:B1 I *D sky130_fd_sc_hd__o2bb2ai_2
*I *3315:Y O *D sky130_fd_sc_hd__nor2_2
*CAP
1 *3329:B1 7.92231e-05
2 *3315:Y 0.000101326
3 *248:8 0.000180549
4 *3329:B1 *262:8 5.50049e-05
5 *248:8 *3336:B1 4.98718e-06
6 *248:8 *261:8 0
7 *248:8 *560:8 4.83778e-05
8 *244:8 *248:8 4.6318e-06
*RES
1 *3315:Y *248:8 40.2579 
2 *248:8 *3329:B1 39.5743 
*END

*D_NET *249 0.0011588
*CONN
*I *3324:A I *D sky130_fd_sc_hd__nand2_2
*I *3320:A1_N I *D sky130_fd_sc_hd__o2bb2ai_2
*I *3316:Y O *D sky130_fd_sc_hd__nand3_2
*CAP
1 *3324:A 0
2 *3320:A1_N 7.62178e-05
3 *3316:Y 0.000162509
4 *249:8 0.000238727
5 *3320:A1_N *257:8 9.88678e-05
6 *3320:A1_N *905:25 0
7 *249:8 *905:25 0
8 *195:10 *3320:A1_N 0.000224345
9 *195:10 *249:8 0.000358137
*RES
1 *3316:Y *249:8 42.7229 
2 *249:8 *3320:A1_N 40.9621 
3 *249:8 *3324:A 38 
*END

*D_NET *250 0.00136902
*CONN
*I *3324:B I *D sky130_fd_sc_hd__nand2_2
*I *3320:A2_N I *D sky130_fd_sc_hd__o2bb2ai_2
*I *3317:Y O *D sky130_fd_sc_hd__o211ai_2
*CAP
1 *3324:B 7.51618e-05
2 *3320:A2_N 0.000164893
3 *3317:Y 6.04378e-05
4 *250:8 0.000300493
5 *3320:A2_N *253:8 7.14493e-05
6 *3296:B2 *3320:A2_N 0.000247687
7 *3296:B2 *250:8 1.01436e-05
8 *195:10 *3320:A2_N 1.02387e-05
9 *195:10 *250:8 4.76849e-05
10 *217:28 *3320:A2_N 0.000222123
11 *225:30 *250:8 0.000158706
*RES
1 *3317:Y *250:8 40.2579 
2 *250:8 *3320:A2_N 42.8886 
3 *250:8 *3324:B 39.0979 
*END

*D_NET *251 0.00291177
*CONN
*I *3320:B1 I *D sky130_fd_sc_hd__o2bb2ai_2
*I *3325:B1 I *D sky130_fd_sc_hd__a21oi_2
*I *3318:Y O *D sky130_fd_sc_hd__a2bb2oi_2
*CAP
1 *3320:B1 4.90489e-05
2 *3325:B1 0
3 *3318:Y 0.000141144
4 *251:16 0.000426229
5 *251:10 0.000616423
6 *251:16 *3322:B1 0.000141675
7 *251:16 *3326:B1 0.000249918
8 *251:16 *258:10 3.22467e-05
9 *251:16 *259:10 0.00011218
10 *3286:B1 *3320:B1 6.17437e-06
11 *3296:B2 *251:10 0.000157309
12 *3296:B2 *251:16 0.000225275
13 *3318:A1_N *251:10 2.64616e-05
14 *3326:A2 *251:16 0
15 *195:10 *251:16 0
16 *217:22 *251:16 5.93981e-05
17 *217:28 *251:16 1.02387e-05
18 *218:41 *251:10 0.000102638
19 *218:43 *251:10 6.48142e-05
20 *218:43 *251:16 0.000186025
21 *218:61 *251:16 0.00030457
*RES
1 *3318:Y *251:10 41.3557 
2 *251:10 *251:16 28.34 
3 *251:16 *3325:B1 23 
4 *251:10 *3320:B1 38.6214 
*END

*D_NET *252 0.0021769
*CONN
*I *3320:B2 I *D sky130_fd_sc_hd__o2bb2ai_2
*I *3319:X O *D sky130_fd_sc_hd__o211a_2
*CAP
1 *3320:B2 0.000423652
2 *3319:X 6.44257e-05
3 *252:8 0.000488078
4 *3317:A2 *3320:B2 8.37971e-05
5 *218:39 *3320:B2 0.000419968
6 *218:41 *3320:B2 0.000164291
7 *218:43 *3320:B2 8.94487e-05
8 *222:12 *3320:B2 0.000141038
9 *224:31 *3320:B2 1.16455e-05
10 *227:10 *3320:B2 0.000239075
11 *228:8 *252:8 5.14826e-05
12 *228:10 *3320:B2 0
*RES
1 *3319:X *252:8 39.0979 
2 *252:8 *3320:B2 49.7657 
*END

*D_NET *253 0.00247918
*CONN
*I *3322:A2 I *D sky130_fd_sc_hd__o21ai_2
*I *3320:Y O *D sky130_fd_sc_hd__o2bb2ai_2
*CAP
1 *3322:A2 0
2 *3320:Y 0.000395332
3 *253:14 0.000560677
4 *253:8 0.000956009
5 *253:14 *3322:A1 0.000270269
6 *253:14 *257:8 0
7 *253:14 *258:10 0
8 *253:14 *568:29 0
9 *253:14 *632:25 1.80023e-05
10 *253:14 *905:25 0.000207437
11 *3320:A2_N *253:8 7.14493e-05
*RES
1 *3320:Y *253:8 43.8621 
2 *253:8 *253:14 28.2157 
3 *253:14 *3322:A2 23 
*END

*D_NET *254 0.0019406
*CONN
*I *3322:B1 I *D sky130_fd_sc_hd__o21ai_2
*I *3321:Y O *D sky130_fd_sc_hd__o211ai_2
*CAP
1 *3322:B1 0.000435781
2 *3321:Y 0.000138572
3 *254:12 0.000574353
4 *3322:B1 *255:10 0.000272377
5 *254:12 *260:20 2.45549e-06
6 *3325:A1 *3322:B1 4.5051e-05
7 *217:12 *3322:B1 0.000182826
8 *228:16 *254:12 0.000111852
9 *229:12 *254:12 3.56537e-05
10 *251:16 *3322:B1 0.000141675
*RES
1 *3321:Y *254:12 40.6721 
2 *254:12 *3322:B1 46.7207 
*END

*D_NET *255 0.00121156
*CONN
*I *3327:A2_N I *D sky130_fd_sc_hd__o2bb2ai_2
*I *3322:Y O *D sky130_fd_sc_hd__o21ai_2
*CAP
1 *3327:A2_N 0
2 *3322:Y 0.00035672
3 *255:10 0.00035672
4 *255:10 *3326:B1 0
5 *255:10 *671:10 6.40032e-05
6 *255:10 *718:91 0.000140328
7 *255:10 *718:114 2.14123e-05
8 *3322:B1 *255:10 0.000272377
*RES
1 *3322:Y *255:10 47.2593 
2 *255:10 *3327:A2_N 38 
*END

*D_NET *256 0.000221615
*CONN
*I *3327:B1 I *D sky130_fd_sc_hd__o2bb2ai_2
*I *3323:Y O *D sky130_fd_sc_hd__nand2_2
*CAP
1 *3327:B1 5.5625e-05
2 *3323:Y 5.5625e-05
3 *3327:B1 *3323:B 5.58003e-05
4 *3327:B1 *260:12 5.45644e-05
*RES
1 *3323:Y *3327:B1 47.595 
*END

*D_NET *257 0.00139289
*CONN
*I *3326:A1 I *D sky130_fd_sc_hd__o22ai_2
*I *3324:Y O *D sky130_fd_sc_hd__nand2_2
*CAP
1 *3326:A1 0
2 *3324:Y 0.000413771
3 *257:8 0.000413771
4 *257:8 *568:29 0.000219882
5 *257:8 *596:10 8.51329e-05
6 *257:8 *905:25 0
7 *3320:A1_N *257:8 9.88678e-05
8 *3326:A2 *257:8 6.53445e-05
9 *195:10 *257:8 9.61266e-05
10 *253:14 *257:8 0
*RES
1 *3324:Y *257:8 49.0614 
2 *257:8 *3326:A1 38 
*END

*D_NET *258 0.000414652
*CONN
*I *3326:B2 I *D sky130_fd_sc_hd__o22ai_2
*I *3325:Y O *D sky130_fd_sc_hd__a21oi_2
*CAP
1 *3326:B2 0
2 *3325:Y 0.000140686
3 *258:10 0.000140686
4 *258:10 *3326:B1 9.64022e-05
5 *3326:A2 *258:10 4.6318e-06
6 *251:16 *258:10 3.22467e-05
7 *253:14 *258:10 0
*RES
1 *3325:Y *258:10 41.2314 
2 *258:10 *3326:B2 38 
*END

*D_NET *259 0.00176609
*CONN
*I *3327:B2 I *D sky130_fd_sc_hd__o2bb2ai_2
*I *3326:Y O *D sky130_fd_sc_hd__o22ai_2
*CAP
1 *3327:B2 0
2 *3326:Y 0.000503462
3 *259:10 0.000503462
4 *259:10 *3326:B1 0.000121096
5 *259:10 *557:10 0.000165538
6 *259:10 *558:10 1.00203e-05
7 *3308:A2_N *259:10 4.15081e-05
8 *217:22 *259:10 0.000222113
9 *229:12 *259:10 8.67156e-05
10 *251:16 *259:10 0.00011218
*RES
1 *3326:Y *259:10 49.6 
2 *259:10 *3327:B2 38 
*END

*D_NET *260 0.00424169
*CONN
*I *3328:B1 I *D sky130_fd_sc_hd__a21oi_2
*I *3327:Y O *D sky130_fd_sc_hd__o2bb2ai_2
*CAP
1 *3328:B1 0
2 *3327:Y 0.000320083
3 *260:20 0.00117748
4 *260:12 0.00149756
5 *260:12 *3323:B 1.21972e-05
6 *3306:B *260:20 0.000140094
7 *3306:C *260:20 3.30379e-05
8 *3308:A2_N *260:12 2.99696e-05
9 *3309:A1 *260:20 9.64943e-05
10 *3309:B1 *260:20 0.000101109
11 *3321:A1 *260:20 5.45541e-05
12 *3327:B1 *260:12 5.45644e-05
13 *205:55 *260:20 0.000312772
14 *209:35 *260:20 1.71017e-05
15 *228:18 *260:12 0.000111106
16 *239:6 *260:20 7.34019e-05
17 *242:10 *260:20 0.000207707
18 *254:12 *260:20 2.45549e-06
*RES
1 *3327:Y *260:12 43.0543 
2 *260:12 *260:20 38.6557 
3 *260:20 *3328:B1 23 
*END

*D_NET *261 0.000282316
*CONN
*I *3329:B2 I *D sky130_fd_sc_hd__o2bb2ai_2
*I *3328:Y O *D sky130_fd_sc_hd__a21oi_2
*CAP
1 *3329:B2 0
2 *3328:Y 8.41163e-05
3 *261:8 8.41163e-05
4 *242:10 *261:8 0
5 *242:23 *261:8 0
6 *247:10 *261:8 0.000114083
7 *248:8 *261:8 0
*RES
1 *3328:Y *261:8 39.9057 
2 *261:8 *3329:B2 38 
*END

*D_NET *262 0.00249121
*CONN
*I *3338:A I *D sky130_fd_sc_hd__nand3_4
*I *3329:Y O *D sky130_fd_sc_hd__o2bb2ai_2
*CAP
1 *3338:A 0
2 *3329:Y 0.000196438
3 *262:16 0.000533526
4 *262:8 0.000729964
5 *262:8 *3900:CLK 6.17437e-06
6 *262:16 *3336:B1 0.000208469
7 *262:16 *3893:CLK 0.000385735
8 *262:16 *265:10 8.16149e-05
9 *262:16 *266:10 0.000181131
10 *262:16 *270:8 0.000113153
11 *3311:A *262:16 0
12 *3329:B1 *262:8 5.50049e-05
13 *38:8 *262:16 0
14 *236:10 *262:16 0
*RES
1 *3329:Y *262:8 41.0036 
2 *262:8 *262:16 28.8579 
3 *262:16 *3338:A 23 
*END

*D_NET *263 0.00285851
*CONN
*I *3414:C I *D sky130_fd_sc_hd__and4_4
*I *3331:C1 I *D sky130_fd_sc_hd__a211o_2
*I *3330:Y O *D sky130_fd_sc_hd__xnor2_2
*CAP
1 *3414:C 0.000175169
2 *3331:C1 0
3 *3330:Y 6.93947e-05
4 *263:12 0.000541553
5 *263:8 0.000786117
6 *3414:C *887:10 0.000111158
7 *3414:C *887:12 3.82956e-05
8 *263:8 *888:8 9.84851e-05
9 *263:12 *3275:B_N 7.19778e-05
10 *263:12 *3278:A 0.000163102
11 *263:12 *265:10 0
12 *263:12 *887:12 4.08641e-05
13 *263:12 *887:14 6.96786e-05
14 *263:12 *887:16 8.27077e-05
15 *263:12 *888:34 0
16 *263:12 *888:62 0.000202029
17 *233:29 *263:12 0.000396529
18 *233:37 *263:12 1.14452e-05
19 *235:8 *263:12 0
*RES
1 *3330:Y *263:8 39.0979 
2 *263:8 *263:12 28.1743 
3 *263:12 *3331:C1 23 
4 *263:8 *3414:C 42.0186 
*END

*D_NET *264 0.000288271
*CONN
*I *3338:B I *D sky130_fd_sc_hd__nand3_4
*I *3331:X O *D sky130_fd_sc_hd__a211o_2
*CAP
1 *3338:B 0
2 *3331:X 8.07105e-05
3 *264:8 8.07105e-05
4 *264:8 *265:10 8.76088e-05
5 *38:8 *264:8 3.92407e-05
*RES
1 *3331:X *264:8 40.2579 
2 *264:8 *3338:B 38 
*END

*D_NET *265 0.00233039
*CONN
*I *3337:A1_N I *D sky130_fd_sc_hd__a2bb2oi_2
*I *3332:X O *D sky130_fd_sc_hd__xor2_2
*CAP
1 *3337:A1_N 0
2 *3332:X 0
3 *265:10 0.000820084
4 *265:6 0.000820084
5 *265:10 *3275:A 0.000138331
6 *265:10 *3278:A 4.21494e-05
7 *265:10 *266:10 7.03663e-05
8 *265:10 *270:8 1.02387e-05
9 *265:10 *888:34 1.43577e-05
10 *265:10 *888:62 5.35695e-05
11 *38:8 *265:10 1.17152e-05
12 *233:29 *265:10 0.000117406
13 *233:37 *265:10 6.28695e-05
14 *236:10 *265:10 0
15 *262:16 *265:10 8.16149e-05
16 *263:12 *265:10 0
17 *264:8 *265:10 8.76088e-05
*RES
1 *3332:X *265:6 38 
2 *265:6 *265:10 32.4 
3 *265:10 *3337:A1_N 23 
*END

*D_NET *266 0.00112829
*CONN
*I *3337:A2_N I *D sky130_fd_sc_hd__a2bb2oi_2
*I *3333:Y O *D sky130_fd_sc_hd__a21oi_2
*CAP
1 *3337:A2_N 0
2 *3333:Y 0.000346132
3 *266:10 0.000346132
4 *38:8 *266:10 0.000141869
5 *233:37 *266:10 2.31797e-05
6 *233:43 *266:10 1.94812e-05
7 *262:16 *266:10 0.000181131
8 *265:10 *266:10 7.03663e-05
*RES
1 *3333:Y *266:10 43.8621 
2 *266:10 *3337:A2_N 38 
*END

*D_NET *267 0.00190531
*CONN
*I *3336:A1 I *D sky130_fd_sc_hd__a31oi_2
*I *3334:X O *D sky130_fd_sc_hd__a221o_2
*CAP
1 *3336:A1 3.77894e-05
2 *3334:X 0.000593244
3 *267:10 0.000631033
4 *267:10 *268:8 0.000170909
5 *267:10 *269:8 0
6 *205:23 *267:10 0.000187129
7 *233:43 *267:10 2.18409e-05
8 *233:51 *267:10 7.44354e-05
9 *234:28 *267:10 0.000188926
10 *243:10 *267:10 0
*RES
1 *3334:X *267:10 48.585 
2 *267:10 *3336:A1 38.6214 
*END

*D_NET *268 0.000945028
*CONN
*I *3336:A3 I *D sky130_fd_sc_hd__a31oi_2
*I *3335:X O *D sky130_fd_sc_hd__or2_2
*CAP
1 *3336:A3 0
2 *3335:X 0.000227992
3 *268:8 0.000227992
4 *205:23 *268:8 0
5 *233:51 *268:8 8.68081e-05
6 *234:18 *268:8 0
7 *234:28 *268:8 9.21347e-06
8 *242:31 *268:8 0.000222113
9 *267:10 *268:8 0.000170909
*RES
1 *3335:X *268:8 44.4836 
2 *268:8 *3336:A3 38 
*END

*D_NET *269 0.000522172
*CONN
*I *3337:B1 I *D sky130_fd_sc_hd__a2bb2oi_2
*I *3336:Y O *D sky130_fd_sc_hd__a31oi_2
*CAP
1 *3337:B1 6.22256e-05
2 *3336:Y 0.000118373
3 *269:8 0.000180599
4 *3311:A *269:8 0
5 *231:10 *3337:B1 5.41385e-05
6 *234:28 *269:8 0
7 *243:10 *3337:B1 5.12254e-05
8 *243:10 *269:8 5.561e-05
9 *267:10 *269:8 0
*RES
1 *3336:Y *269:8 40.2579 
2 *269:8 *3337:B1 39.5743 
*END

*D_NET *270 0.000294979
*CONN
*I *3338:C I *D sky130_fd_sc_hd__nand3_4
*I *3337:Y O *D sky130_fd_sc_hd__a2bb2oi_2
*CAP
1 *3338:C 0
2 *3337:Y 6.33651e-05
3 *270:8 6.33651e-05
4 *236:10 *270:8 4.48568e-05
5 *262:16 *270:8 0.000113153
6 *265:10 *270:8 1.02387e-05
*RES
1 *3337:Y *270:8 39.9057 
2 *270:8 *3338:C 38 
*END

*D_NET *271 0.00132103
*CONN
*I *3364:A1 I *D sky130_fd_sc_hd__o211a_2
*I *3348:A1 I *D sky130_fd_sc_hd__o211ai_2
*I *3351:A I *D sky130_fd_sc_hd__nor2_2
*I *3339:X O *D sky130_fd_sc_hd__and2_2
*CAP
1 *3364:A1 5.64101e-05
2 *3348:A1 2.39621e-05
3 *3351:A 0
4 *3339:X 0.000188368
5 *271:21 0.000186048
6 *271:10 0.000294045
7 *3348:A1 *3364:A2 4.78497e-05
8 *3348:A1 *276:16 0.000100061
9 *3364:A1 *3364:A2 8.46301e-05
10 *3364:A1 *276:16 3.3077e-05
11 *271:10 *272:8 0
12 *271:21 *283:10 0.000107232
13 *176:12 *271:10 0.000102389
14 *178:27 *271:10 7.07799e-05
15 *178:27 *271:21 2.61756e-05
*RES
1 *3339:X *271:10 41.3557 
2 *271:10 *3351:A 38 
3 *271:10 *271:21 17.2579 
4 *271:21 *3348:A1 24.0979 
5 *271:21 *3364:A1 24.4189 
*END

*D_NET *272 0.00196219
*CONN
*I *3364:A2 I *D sky130_fd_sc_hd__o211a_2
*I *3348:A2 I *D sky130_fd_sc_hd__o211ai_2
*I *3351:B I *D sky130_fd_sc_hd__nor2_2
*I *3340:Y O *D sky130_fd_sc_hd__nor2_2
*CAP
1 *3364:A2 0.000145083
2 *3348:A2 0
3 *3351:B 0.000146181
4 *3340:Y 0.000143527
5 *272:23 0.000298666
6 *272:8 0.00044329
7 *3364:A2 *3348:C1 8.99655e-05
8 *3364:A2 *276:10 2.72847e-05
9 *3364:A2 *276:16 8.89695e-05
10 *3364:A2 *296:8 0.000236102
11 *272:23 *3348:B1 3.13952e-05
12 *272:23 *3369:B1 5.0518e-05
13 *272:23 *276:16 2.95526e-05
14 *272:23 *296:8 2.19403e-05
15 *3348:A1 *3364:A2 4.78497e-05
16 *3364:A1 *3364:A2 8.46301e-05
17 *3369:D1 *272:8 7.72327e-05
18 *178:27 *272:8 0
19 *271:10 *272:8 0
*RES
1 *3340:Y *272:8 40.61 
2 *272:8 *3351:B 40.5271 
3 *272:8 *272:23 18.2314 
4 *272:23 *3348:A2 23 
5 *272:23 *3364:A2 28.4271 
*END

*D_NET *273 0.000741544
*CONN
*I *3350:A I *D sky130_fd_sc_hd__nand3_2
*I *3344:A I *D sky130_fd_sc_hd__nand3_2
*I *3341:Y O *D sky130_fd_sc_hd__inv_2
*CAP
1 *3350:A 0
2 *3344:A 6.37766e-05
3 *3341:Y 0.000204977
4 *273:24 0.0001412
5 *3344:A *3341:A 1.12796e-05
6 *3344:A *3344:C 0
7 *3344:A *279:6 9.91548e-05
8 *3344:A *709:71 1.84917e-05
9 *273:24 *3349:C 7.33172e-05
10 *273:24 *279:6 5.82853e-05
11 *273:24 *327:27 7.10623e-05
*RES
1 *3341:Y *3344:A 47.595 
2 *3341:Y *273:24 40.8793 
3 *273:24 *3350:A 38 
*END

*D_NET *274 0.00315148
*CONN
*I *3385:B I *D sky130_fd_sc_hd__and3_2
*I *3355:A I *D sky130_fd_sc_hd__nand4_2
*I *3344:B I *D sky130_fd_sc_hd__nand3_2
*I *3349:A I *D sky130_fd_sc_hd__nand3_2
*I *3342:Y O *D sky130_fd_sc_hd__nand2b_2
*CAP
1 *3385:B 0
2 *3355:A 0
3 *3344:B 0
4 *3349:A 0.000248928
5 *3342:Y 0
6 *274:47 0.000347979
7 *274:14 0.000423598
8 *274:8 0.000463853
9 *274:4 0.000637162
10 *3349:A *275:25 5.71002e-06
11 *3349:A *275:42 4.84492e-05
12 *3349:A *290:18 5.5792e-05
13 *3349:A *566:10 6.04369e-05
14 *274:8 *3342:B 5.5792e-05
15 *274:8 *3345:A 1.1258e-05
16 *274:8 *3345:B 1.24376e-05
17 *274:8 *3355:B 1.24376e-05
18 *274:14 *3355:B 9.79925e-05
19 *274:14 *275:10 2.81425e-05
20 *274:14 *275:25 6.33351e-05
21 *274:14 *285:8 2.35118e-06
22 *274:47 *277:60 0.000138747
23 *274:47 *290:18 0.000230723
24 *180:42 *274:47 0.000150562
25 *181:23 *3349:A 5.5792e-05
*RES
1 *3342:Y *274:4 23 
2 *274:4 *274:8 4.93 
3 *274:8 *274:14 18.7079 
4 *274:14 *3349:A 42.5571 
5 *274:14 *3344:B 38 
6 *274:8 *3355:A 23 
7 *274:4 *274:47 36.8979 
8 *274:47 *3385:B 23 
*END

*D_NET *275 0.004353
*CONN
*I *3385:C I *D sky130_fd_sc_hd__and3_2
*I *3349:B I *D sky130_fd_sc_hd__nand3_2
*I *3344:C I *D sky130_fd_sc_hd__nand3_2
*I *3355:B I *D sky130_fd_sc_hd__nand4_2
*I *3343:Y O *D sky130_fd_sc_hd__nand2b_2
*CAP
1 *3385:C 0
2 *3349:B 0
3 *3344:C 0.000138374
4 *3355:B 0.00013221
5 *3343:Y 0.00045413
6 *275:61 0.000256477
7 *275:42 0.000394229
8 *275:25 0.000348705
9 *275:10 0.000658918
10 *3344:C *276:6 5.82853e-05
11 *3344:C *279:6 0.000158434
12 *275:10 *3343:A_N 2.93845e-05
13 *275:10 *285:8 0
14 *275:10 *709:58 0.000141552
15 *275:10 *895:16 2.11807e-05
16 *275:25 *3349:C 3.96108e-05
17 *275:25 *709:58 4.11274e-05
18 *275:42 *3349:C 9.66177e-05
19 *275:61 *3350:B 0.000100477
20 *275:61 *3350:C 0.000156278
21 *275:61 *3384:C 5.71002e-06
22 *275:61 *277:60 8.0612e-06
23 *275:61 *278:47 1.51481e-05
24 *275:61 *290:18 0.000555966
25 *275:61 *321:10 5.58003e-05
26 *3344:A *3344:C 0
27 *3349:A *275:25 5.71002e-06
28 *3349:A *275:42 4.84492e-05
29 *181:23 *275:61 0.000220166
30 *181:31 *275:61 1.0092e-05
31 *274:8 *3355:B 1.24376e-05
32 *274:14 *3355:B 9.79925e-05
33 *274:14 *275:10 2.81425e-05
34 *274:14 *275:25 6.33351e-05
*RES
1 *3343:Y *275:10 44.9186 
2 *275:10 *3355:B 40.5686 
3 *275:10 *275:25 2.25786 
4 *275:25 *3344:C 41.1693 
5 *275:25 *275:42 17.9621 
6 *275:42 *3349:B 23 
7 *275:42 *275:61 38.4514 
8 *275:61 *3385:C 23 
*END

*D_NET *276 0.00413765
*CONN
*I *3373:B I *D sky130_fd_sc_hd__and3_2
*I *3364:B1 I *D sky130_fd_sc_hd__o211a_2
*I *3348:B1 I *D sky130_fd_sc_hd__o211ai_2
*I *3369:B1 I *D sky130_fd_sc_hd__o2111a_2
*I *3344:Y O *D sky130_fd_sc_hd__nand3_2
*CAP
1 *3373:B 0
2 *3364:B1 0
3 *3348:B1 1.7598e-05
4 *3369:B1 0.0001994
5 *3344:Y 0.000238314
6 *276:49 6.69241e-05
7 *276:16 0.000724338
8 *276:10 0.000635765
9 *276:6 0.000433665
10 *3348:B1 *279:52 2.79653e-05
11 *3369:B1 *279:52 4.11274e-05
12 *3369:B1 *301:8 4.5857e-05
13 *276:6 *3348:C1 2.02872e-05
14 *276:6 *3364:C1 4.21921e-05
15 *276:6 *279:6 0.000580577
16 *276:10 *3348:C1 0.000169001
17 *276:10 *3364:C1 0.000228975
18 *276:16 *3348:C1 5.7418e-06
19 *276:16 *296:8 9.97435e-06
20 *276:49 *3364:C1 3.67392e-05
21 *276:49 *3373:C 0.000101014
22 *3344:C *276:6 5.82853e-05
23 *3348:A1 *276:16 0.000100061
24 *3364:A1 *276:16 3.3077e-05
25 *3364:A2 *276:10 2.72847e-05
26 *3364:A2 *276:16 8.89695e-05
27 *3369:D1 *3369:B1 2.95423e-05
28 *176:14 *276:49 6.35124e-05
29 *272:23 *3348:B1 3.13952e-05
30 *272:23 *3369:B1 5.0518e-05
31 *272:23 *276:16 2.95526e-05
*RES
1 *3344:Y *276:6 29.815 
2 *276:6 *276:10 3.97714 
3 *276:10 *276:16 22.1879 
4 *276:16 *3369:B1 42.1014 
5 *276:16 *3348:B1 38.8493 
6 *276:10 *3364:B1 23 
7 *276:6 *276:49 31.9057 
8 *276:49 *3373:B 23 
*END

*D_NET *277 0.0047425
*CONN
*I *3384:C I *D sky130_fd_sc_hd__and4_2
*I *3350:B I *D sky130_fd_sc_hd__nand3_2
*I *3347:A I *D sky130_fd_sc_hd__nand3_2
*I *3358:B1 I *D sky130_fd_sc_hd__o211ai_2
*I *3388:B I *D sky130_fd_sc_hd__and3_2
*I *3389:A I *D sky130_fd_sc_hd__nand2_2
*I *3345:X O *D sky130_fd_sc_hd__or2_4
*CAP
1 *3384:C 0.000149724
2 *3350:B 2.05586e-05
3 *3347:A 9.91537e-05
4 *3358:B1 0
5 *3388:B 0.000409273
6 *3389:A 0.000107629
7 *3345:X 0.000227559
8 *277:60 0.000312815
9 *277:47 0.000470325
10 *277:38 0.00022864
11 *277:14 0.000707822
12 *277:10 0.000418478
13 *3347:A *279:6 5.58003e-05
14 *3347:A *709:71 4.68426e-05
15 *3384:C *3384:D 5.5792e-05
16 *3384:C *320:18 3.46216e-05
17 *3388:B *278:32 6.5117e-06
18 *3388:B *320:6 9.91548e-05
19 *3389:A *3389:B 0.000100069
20 *3389:A *321:10 4.93812e-05
21 *277:10 *3356:B 0.000189689
22 *277:10 *289:8 3.68285e-05
23 *277:14 *278:8 2.35118e-06
24 *277:14 *278:32 5.83896e-05
25 *277:47 *3347:B 0.000143712
26 *277:47 *3358:C1 0.000100486
27 *277:47 *290:10 0.000124874
28 *277:47 *709:71 1.12268e-05
29 *3390:B *3384:C 1.20296e-05
30 *180:42 *3384:C 3.13192e-05
31 *180:42 *277:60 1.98991e-05
32 *181:23 *3350:B 0.000100477
33 *181:31 *3384:C 5.80679e-05
34 *274:47 *277:60 0.000138747
35 *275:61 *3350:B 0.000100477
36 *275:61 *3384:C 5.71002e-06
37 *275:61 *277:60 8.0612e-06
*RES
1 *3345:X *277:10 41.9564 
2 *277:10 *277:14 3.58357 
3 *277:14 *3389:A 40.5479 
4 *277:14 *3388:B 44.5457 
5 *277:10 *277:38 15 
6 *277:38 *3358:B1 23 
7 *277:38 *277:47 5.88286 
8 *277:47 *3347:A 25.0714 
9 *277:47 *277:60 17.9621 
10 *277:60 *3350:B 39.0979 
11 *277:60 *3384:C 41.3557 
*END

*D_NET *278 0.00390168
*CONN
*I *3389:B I *D sky130_fd_sc_hd__nand2_2
*I *3388:C I *D sky130_fd_sc_hd__and3_2
*I *3384:D I *D sky130_fd_sc_hd__and4_2
*I *3350:C I *D sky130_fd_sc_hd__nand3_2
*I *3358:C1 I *D sky130_fd_sc_hd__o211ai_2
*I *3347:B I *D sky130_fd_sc_hd__nand3_2
*I *3346:Y O *D sky130_fd_sc_hd__nand2_2
*CAP
1 *3389:B 7.22126e-05
2 *3388:C 0
3 *3384:D 0.000218846
4 *3350:C 4.90048e-05
5 *3358:C1 4.03958e-05
6 *3347:B 0.00015213
7 *3346:Y 0.000325462
8 *278:47 0.000347414
9 *278:34 0.000222544
10 *278:32 0.000266133
11 *278:10 0.000192526
12 *278:8 0.000474411
13 *3347:B *709:71 0.000100477
14 *3350:C *290:18 4.69418e-05
15 *3350:C *321:10 4.39489e-05
16 *3384:D *320:6 9.08709e-06
17 *3384:D *320:18 2.75956e-05
18 *3389:B *321:10 0.000230309
19 *278:8 *896:33 7.44458e-05
20 *278:8 *898:47 0
21 *278:32 *290:10 5.0518e-05
22 *278:34 *321:10 9.79925e-05
23 *278:47 *317:8 8.36198e-05
24 *3384:C *3384:D 5.5792e-05
25 *3388:B *278:32 6.5117e-06
26 *3389:A *3389:B 0.000100069
27 *181:23 *3350:C 5.82853e-05
28 *181:31 *3384:D 5.58003e-05
29 *181:31 *278:47 2.28401e-05
30 *275:61 *3350:C 0.000156278
31 *275:61 *278:47 1.51481e-05
32 *277:14 *278:8 2.35118e-06
33 *277:14 *278:32 5.83896e-05
34 *277:47 *3347:B 0.000143712
35 *277:47 *3358:C1 0.000100486
*RES
1 *3346:Y *278:8 43.4271 
2 *278:8 *278:10 15 
3 *278:10 *3347:B 26.9979 
4 *278:10 *3358:C1 24.0979 
5 *278:8 *278:32 18.3143 
6 *278:32 *278:34 1.09786 
7 *278:34 *3350:C 25.0507 
8 *278:34 *278:47 31.9057 
9 *278:47 *3384:D 26.0036 
10 *278:47 *3388:C 23 
11 *278:32 *3389:B 25.5271 
*END

*D_NET *279 0.00610721
*CONN
*I *3369:C1 I *D sky130_fd_sc_hd__o2111a_2
*I *3348:C1 I *D sky130_fd_sc_hd__o211ai_2
*I *3373:C I *D sky130_fd_sc_hd__and3_2
*I *3364:C1 I *D sky130_fd_sc_hd__o211a_2
*I *3347:Y O *D sky130_fd_sc_hd__nand3_2
*CAP
1 *3369:C1 0
2 *3348:C1 0.000879101
3 *3373:C 0.000185507
4 *3364:C1 0.000189713
5 *3347:Y 0.000592691
6 *279:52 5.65444e-05
7 *279:8 0.000375221
8 *279:6 0.00141525
9 *3348:C1 *280:8 3.26241e-05
10 *3348:C1 *296:8 0.000322988
11 *3364:C1 *561:13 2.58781e-05
12 *3373:C *3360:A2 1.24376e-05
13 *3373:C *281:10 1.07299e-05
14 *3373:C *290:18 5.3304e-05
15 *3373:C *290:33 3.46013e-05
16 *3373:C *305:8 6.17437e-06
17 *3373:C *561:13 8.27077e-05
18 *279:6 *709:71 3.66663e-05
19 *279:52 *565:80 6.90927e-05
20 *3344:A *279:6 9.91548e-05
21 *3344:C *279:6 0.000158434
22 *3347:A *279:6 5.58003e-05
23 *3348:B1 *279:52 2.79653e-05
24 *3364:A2 *3348:C1 8.99655e-05
25 *3369:B1 *279:52 4.11274e-05
26 *176:14 *3364:C1 5.71002e-06
27 *176:14 *3373:C 5.01232e-06
28 *273:24 *279:6 5.82853e-05
29 *276:6 *3348:C1 2.02872e-05
30 *276:6 *3364:C1 4.21921e-05
31 *276:6 *279:6 0.000580577
32 *276:10 *3348:C1 0.000169001
33 *276:10 *3364:C1 0.000228975
34 *276:16 *3348:C1 5.7418e-06
35 *276:49 *3364:C1 3.67392e-05
36 *276:49 *3373:C 0.000101014
*RES
1 *3347:Y *279:6 35.0557 
2 *279:6 *279:8 15 
3 *279:8 *3364:C1 41.8529 
4 *279:8 *3373:C 41.7286 
5 *279:6 *3348:C1 35.0971 
6 *3348:C1 *279:52 39.9057 
7 *279:52 *3369:C1 38 
*END

*D_NET *280 0.00537657
*CONN
*I *3371:B I *D sky130_fd_sc_hd__nand4_2
*I *3361:A2 I *D sky130_fd_sc_hd__a32o_2
*I *3362:C I *D sky130_fd_sc_hd__nand3_2
*I *3366:B1 I *D sky130_fd_sc_hd__a2bb2oi_2
*I *3348:Y O *D sky130_fd_sc_hd__o211ai_2
*CAP
1 *3371:B 3.86679e-05
2 *3361:A2 0
3 *3362:C 0
4 *3366:B1 0.000206168
5 *3348:Y 5.71838e-05
6 *280:37 0.000152288
7 *280:29 0.000386654
8 *280:21 0.000364065
9 *280:10 0.000745519
10 *280:8 0.000505504
11 *3366:B1 *3366:B2 0.00018282
12 *3366:B1 *565:10 6.53382e-05
13 *3371:B *303:10 1.94693e-05
14 *280:10 *292:10 0.000297259
15 *280:10 *565:70 0.000321377
16 *280:10 *565:72 0.000113389
17 *280:10 *565:74 0.000196165
18 *280:10 *565:80 0.000193024
19 *280:10 *688:14 2.60152e-05
20 *280:21 *292:10 0.000108672
21 *280:21 *688:14 0.00010044
22 *280:29 *3361:A3 4.08664e-05
23 *280:29 *3361:B1 7.41341e-05
24 *280:29 *292:21 6.43253e-05
25 *280:29 *688:14 0.000359755
26 *280:37 *3361:A3 5.50049e-05
27 *280:37 *3367:A2 1.02387e-05
28 *280:37 *4022:A 0.000141954
29 *280:37 *297:12 5.93485e-05
30 *280:37 *298:14 0.000218023
31 *280:37 *688:14 0.000224605
32 *280:37 *731:38 1.56762e-05
33 *3348:C1 *280:8 3.26241e-05
*RES
1 *3348:Y *280:8 39.0979 
2 *280:8 *280:10 11.4136 
3 *280:10 *3366:B1 41.9564 
4 *280:10 *280:21 2.96214 
5 *280:21 *280:29 20.6343 
6 *280:29 *280:37 35.4893 
7 *280:37 *3362:C 23 
8 *280:29 *3361:A2 23 
9 *280:21 *3371:B 38.6214 
*END

*D_NET *281 0.00582104
*CONN
*I *3374:B I *D sky130_fd_sc_hd__and3_2
*I *3386:A1 I *D sky130_fd_sc_hd__a21o_2
*I *3352:A I *D sky130_fd_sc_hd__nand3_2
*I *3370:B I *D sky130_fd_sc_hd__and3_2
*I *3349:Y O *D sky130_fd_sc_hd__nand3_2
*CAP
1 *3374:B 0.000158211
2 *3386:A1 0.000171213
3 *3352:A 0
4 *3370:B 4.6478e-05
5 *3349:Y 0.000262174
6 *281:38 0.000381077
7 *281:31 0.000199972
8 *281:14 0.000572971
9 *281:10 0.000541689
10 *281:8 0.000425688
11 *3370:B *304:14 5.52998e-05
12 *3374:B *3948:A 2.69066e-07
13 *3374:B *282:22 4.85126e-05
14 *3374:B *305:14 5.30518e-05
15 *3374:B *306:10 4.6318e-06
16 *3374:B *561:15 2.93747e-05
17 *3374:B *733:54 0.000141888
18 *3386:A1 *3386:A2 5.67058e-05
19 *3386:A1 *3386:B1 8.25681e-05
20 *3386:A1 *733:37 5.3304e-05
21 *281:8 *3360:A2 5.58003e-05
22 *281:8 *282:8 0.000406974
23 *281:8 *290:18 0.000648705
24 *281:10 *290:33 0.000221513
25 *281:10 *305:14 6.84563e-05
26 *281:14 *282:14 9.58714e-05
27 *281:14 *282:31 1.56762e-05
28 *281:14 *304:14 0.000316338
29 *281:31 *282:54 9.709e-05
30 *281:31 *296:18 0
31 *281:31 *732:33 1.12863e-05
32 *281:38 *305:14 3.72639e-05
33 *281:38 *733:54 3.47781e-05
34 *3373:C *281:10 1.07299e-05
35 *176:14 *281:10 9.10172e-05
36 *176:27 *281:10 0.000318771
37 *176:27 *281:38 0.000101708
38 *178:27 *281:31 3.98082e-06
*RES
1 *3349:Y *281:8 45.7679 
2 *281:8 *281:10 5.42714 
3 *281:10 *281:14 19.9093 
4 *281:14 *3370:B 23.6214 
5 *281:14 *281:31 33.0243 
6 *281:31 *3352:A 23 
7 *281:10 *281:38 1.55357 
8 *281:38 *3386:A1 41.0036 
9 *281:38 *3374:B 41.9357 
*END

*D_NET *282 0.00635053
*CONN
*I *3386:A2 I *D sky130_fd_sc_hd__a21o_2
*I *3352:B I *D sky130_fd_sc_hd__nand3_2
*I *3370:C I *D sky130_fd_sc_hd__and3_2
*I *3374:C I *D sky130_fd_sc_hd__and3_2
*I *3350:Y O *D sky130_fd_sc_hd__nand3_2
*CAP
1 *3386:A2 8.61087e-05
2 *3352:B 0
3 *3370:C 0
4 *3374:C 0
5 *3350:Y 0.000538307
6 *282:54 0.000225216
7 *282:39 7.51434e-05
8 *282:31 0.000383057
9 *282:22 0.000197016
10 *282:14 0.000494502
11 *282:10 0.000595027
12 *282:8 0.000832436
13 *3386:A2 *3386:B1 9.84794e-05
14 *3386:A2 *561:13 1.59312e-05
15 *282:8 *290:18 0.000330716
16 *282:10 *304:22 0
17 *282:10 *561:13 9.52742e-05
18 *282:14 *3386:B1 0.000267173
19 *282:14 *733:37 5.62507e-05
20 *282:22 *3948:A 1.42996e-05
21 *282:22 *304:14 1.00084e-05
22 *282:22 *561:15 5.18157e-06
23 *282:31 *3386:B1 4.00259e-06
24 *282:31 *304:14 0.000263034
25 *282:31 *733:37 0.000319905
26 *282:39 *303:10 0
27 *282:39 *304:14 0.000100061
28 *282:39 *733:37 9.77405e-05
29 *282:54 *3352:C 0.000102286
30 *282:54 *296:18 0
31 *282:54 *303:10 0
32 *3374:B *282:22 4.85126e-05
33 *3386:A1 *3386:A2 5.67058e-05
34 *176:27 *282:22 8.4047e-05
35 *176:35 *282:39 5.58975e-06
36 *178:6 *282:54 0.000185364
37 *178:27 *282:54 3.43144e-05
38 *181:19 *282:10 0.000113235
39 *281:8 *282:8 0.000406974
40 *281:14 *282:14 9.58714e-05
41 *281:14 *282:31 1.56762e-05
42 *281:31 *282:54 9.709e-05
*RES
1 *3350:Y *282:8 46.2443 
2 *282:8 *282:10 6.13143 
3 *282:10 *282:14 19.4329 
4 *282:14 *282:22 33.2314 
5 *282:22 *3374:C 23 
6 *282:14 *282:31 3.97714 
7 *282:31 *282:39 31.9471 
8 *282:39 *3370:C 23 
9 *282:31 *282:54 35.1579 
10 *282:54 *3352:B 23 
11 *282:10 *3386:A2 39.9471 
*END

*D_NET *283 0.00204044
*CONN
*I *3352:C I *D sky130_fd_sc_hd__nand3_2
*I *3351:Y O *D sky130_fd_sc_hd__nor2_2
*CAP
1 *3352:C 0.00019951
2 *3351:Y 0.000343587
3 *283:10 0.000543098
4 *3352:C *284:10 3.26241e-05
5 *283:10 *732:33 0.000164851
6 *178:6 *3352:C 2.70567e-05
7 *178:27 *283:10 0.000520197
8 *271:21 *283:10 0.000107232
9 *282:54 *3352:C 0.000102286
*RES
1 *3351:Y *283:10 45.8093 
2 *283:10 *3352:C 41.9771 
*END

*D_NET *284 0.00519277
*CONN
*I *3362:A I *D sky130_fd_sc_hd__nand3_2
*I *3361:A3 I *D sky130_fd_sc_hd__a32o_2
*I *3371:C I *D sky130_fd_sc_hd__nand4_2
*I *3365:A I *D sky130_fd_sc_hd__nand2_2
*I *3366:B2 I *D sky130_fd_sc_hd__a2bb2oi_2
*I *3352:Y O *D sky130_fd_sc_hd__nand3_2
*CAP
1 *3362:A 0.000266195
2 *3361:A3 3.28483e-05
3 *3371:C 0
4 *3365:A 0.000200334
5 *3366:B2 0.000138942
6 *3352:Y 0.000530065
7 *284:43 0.000387927
8 *284:34 0.000104849
9 *284:21 0.000295447
10 *284:10 0.000748155
11 *3361:A3 *731:38 9.58714e-05
12 *3362:A *3362:B 0
13 *3362:A *3378:A1 6.87338e-05
14 *3362:A *3378:A2 2.02872e-05
15 *3362:A *291:45 0
16 *3362:A *293:8 0
17 *3362:A *294:10 0.000105586
18 *3362:A *296:35 1.01436e-05
19 *3362:A *565:10 0.00019426
20 *3362:A *565:61 6.8858e-05
21 *3362:A *688:14 2.71291e-05
22 *3365:A *3371:D 2.35625e-05
23 *3365:A *731:28 2.34838e-05
24 *3366:B2 *565:10 5.3304e-05
25 *284:10 *301:12 0.000215337
26 *284:10 *565:10 3.47781e-05
27 *284:10 *683:8 2.94193e-05
28 *284:10 *687:12 0
29 *284:10 *688:14 8.32902e-05
30 *284:21 *565:10 0.000181943
31 *284:21 *688:14 9.39159e-05
32 *284:34 *565:10 5.46706e-05
33 *284:34 *688:14 3.3123e-05
34 *284:43 *565:10 0.000182863
35 *284:43 *688:14 9.63815e-05
36 *3352:C *284:10 3.26241e-05
37 *3366:B1 *3366:B2 0.00018282
38 *178:6 *284:10 0.000479747
39 *280:29 *3361:A3 4.08664e-05
40 *280:37 *3361:A3 5.50049e-05
*RES
1 *3352:Y *284:10 48.8129 
2 *284:10 *3366:B2 41.0036 
3 *284:10 *284:21 2.61 
4 *284:21 *3365:A 41.3764 
5 *284:21 *284:34 0.849286 
6 *284:34 *3371:C 38 
7 *284:34 *284:43 2.61 
8 *284:43 *3361:A3 39.0979 
9 *284:43 *3362:A 44.0279 
*END

*D_NET *285 0.000447808
*CONN
*I *3355:C I *D sky130_fd_sc_hd__nand4_2
*I *3353:X O *D sky130_fd_sc_hd__or2_2
*CAP
1 *3355:C 5.145e-05
2 *3353:X 8.66815e-05
3 *285:8 0.000138131
4 *285:8 *566:10 0.000169194
5 *274:14 *285:8 2.35118e-06
6 *275:10 *285:8 0
*RES
1 *3353:X *285:8 40.2579 
2 *285:8 *3355:C 38.6214 
*END

*D_NET *286 0.000261585
*CONN
*I *3355:D I *D sky130_fd_sc_hd__nand4_2
*I *3354:Y O *D sky130_fd_sc_hd__nand2_2
*CAP
1 *3355:D 0
2 *3354:Y 0.000105235
3 *286:8 0.000105235
4 *286:8 *566:10 5.11157e-05
5 *181:19 *286:8 0
*RES
1 *3354:Y *286:8 40.2579 
2 *286:8 *3355:D 38 
*END

*D_NET *287 0.00268367
*CONN
*I *3359:B I *D sky130_fd_sc_hd__nand3_2
*I *3360:A1 I *D sky130_fd_sc_hd__a21o_4
*I *3355:Y O *D sky130_fd_sc_hd__nand4_2
*CAP
1 *3359:B 0.000229011
2 *3360:A1 5.53539e-05
3 *3355:Y 0.000395263
4 *287:10 0.0005452
5 *287:8 0.000656098
6 *3359:B *290:33 5.56279e-05
7 *3360:A1 *3360:A2 5.56279e-05
8 *3384:A *3359:B 7.40718e-05
9 *176:14 *3359:B 3.67392e-05
10 *176:14 *287:10 0.000451182
11 *176:27 *3359:B 0.000129494
*RES
1 *3355:Y *287:8 44.3386 
2 *287:8 *287:10 6.13143 
3 *287:10 *3360:A1 39.0979 
4 *287:10 *3359:B 42.8057 
*END

*D_NET *288 0.000420848
*CONN
*I *3358:A1 I *D sky130_fd_sc_hd__o211ai_2
*I *3356:Y O *D sky130_fd_sc_hd__nor2_2
*CAP
1 *3358:A1 0
2 *3356:Y 0.000159148
3 *288:10 0.000159148
4 *288:10 *3356:B 0.000102551
*RES
1 *3356:Y *288:10 40.6514 
2 *288:10 *3358:A1 38 
*END

*D_NET *289 0.000222758
*CONN
*I *3358:A2 I *D sky130_fd_sc_hd__o211ai_2
*I *3357:X O *D sky130_fd_sc_hd__and2_2
*CAP
1 *3358:A2 0
2 *3357:X 9.29645e-05
3 *289:8 9.29645e-05
4 *277:10 *289:8 3.68285e-05
*RES
1 *3357:X *289:8 39.9057 
2 *289:8 *3358:A2 38 
*END

*D_NET *290 0.00531237
*CONN
*I *3359:C I *D sky130_fd_sc_hd__nand3_2
*I *3360:A2 I *D sky130_fd_sc_hd__a21o_4
*I *3358:Y O *D sky130_fd_sc_hd__o211ai_2
*CAP
1 *3359:C 0
2 *3360:A2 0.000123764
3 *3358:Y 0.000263007
4 *290:33 0.000202454
5 *290:18 0.000820423
6 *290:10 0.000757211
7 *290:18 *305:8 1.47795e-05
8 *290:33 *305:14 0.000140875
9 *290:33 *561:13 1.26897e-05
10 *3349:A *290:18 5.5792e-05
11 *3350:C *290:18 4.69418e-05
12 *3359:B *290:33 5.56279e-05
13 *3360:A1 *3360:A2 5.56279e-05
14 *3373:C *3360:A2 1.24376e-05
15 *3373:C *290:18 5.3304e-05
16 *3373:C *290:33 3.46013e-05
17 *3384:A *290:33 0.000182044
18 *181:23 *290:18 0.000261971
19 *274:47 *290:18 0.000230723
20 *275:61 *290:18 0.000555966
21 *277:47 *290:10 0.000124874
22 *278:32 *290:10 5.0518e-05
23 *281:8 *3360:A2 5.58003e-05
24 *281:8 *290:18 0.000648705
25 *281:10 *290:33 0.000221513
26 *282:8 *290:18 0.000330716
*RES
1 *3358:Y *290:10 42.0807 
2 *290:10 *290:18 31.5093 
3 *290:18 *3360:A2 25.0507 
4 *290:18 *290:33 35.0129 
5 *290:33 *3359:C 23 
*END

*D_NET *291 0.00664534
*CONN
*I *3363:C I *D sky130_fd_sc_hd__nand3b_2
*I *3379:A1 I *D sky130_fd_sc_hd__a21o_2
*I *3378:B1 I *D sky130_fd_sc_hd__o211ai_2
*I *3375:A I *D sky130_fd_sc_hd__nand2_2
*I *3361:B1 I *D sky130_fd_sc_hd__a32o_2
*I *3372:B1 I *D sky130_fd_sc_hd__o211ai_2
*I *3359:Y O *D sky130_fd_sc_hd__nand3_2
*CAP
1 *3363:C 2.94473e-05
2 *3379:A1 0.000251492
3 *3378:B1 4.59221e-05
4 *3375:A 0.000169193
5 *3361:B1 0.000187866
6 *3372:B1 0
7 *3359:Y 0.000380798
8 *291:60 0.000424841
9 *291:45 0.000291234
10 *291:21 0.00035706
11 *291:19 0.000280035
12 *291:10 0.000559424
13 *3361:B1 *3361:B2 6.55442e-05
14 *3361:B1 *292:32 2.02872e-05
15 *3361:B1 *731:38 4.00259e-06
16 *3363:C *294:23 6.16531e-05
17 *3363:C *310:10 2.04774e-05
18 *3375:A *3376:B1 9.89114e-05
19 *3375:A *292:32 4.96717e-05
20 *3378:B1 *294:10 1.21972e-05
21 *3378:B1 *296:18 7.35557e-05
22 *3378:B1 *310:10 6.17437e-06
23 *3379:A1 *3379:A2 0.000363099
24 *291:10 *292:10 0.000168447
25 *291:10 *296:18 0.000166318
26 *291:19 *292:10 0.00042262
27 *291:19 *292:21 0.000169674
28 *291:19 *296:18 0.000592294
29 *291:45 *292:21 5.24393e-05
30 *291:45 *292:49 1.12487e-05
31 *291:45 *293:8 0.000138718
32 *291:45 *296:18 0.000219891
33 *291:60 *3375:B 9.03784e-05
34 *291:60 *292:49 0.000166522
35 *291:60 *294:10 2.62931e-05
36 *291:60 *294:23 7.39034e-05
37 *291:60 *296:18 4.08664e-05
38 *291:60 *310:10 2.93845e-05
39 *3362:A *291:45 0
40 *178:6 *291:10 0.000449317
41 *280:29 *3361:B1 7.41341e-05
*RES
1 *3359:Y *291:10 45.1671 
2 *291:10 *3372:B1 38 
3 *291:10 *291:19 7.89214 
4 *291:19 *291:21 15 
5 *291:21 *3361:B1 26.4075 
6 *291:21 *3375:A 26.5007 
7 *291:19 *291:45 18.3143 
8 *291:45 *3378:B1 24.1186 
9 *291:45 *291:60 18.8321 
10 *291:60 *3379:A1 41.9564 
11 *291:60 *3363:C 38.8493 
*END

*D_NET *292 0.00606458
*CONN
*I *3376:B1 I *D sky130_fd_sc_hd__o211ai_2
*I *3379:A2 I *D sky130_fd_sc_hd__a21o_2
*I *3363:B I *D sky130_fd_sc_hd__nand3b_2
*I *3378:C1 I *D sky130_fd_sc_hd__o211ai_2
*I *3361:B2 I *D sky130_fd_sc_hd__a32o_2
*I *3371:A I *D sky130_fd_sc_hd__nand4_2
*I *3360:X O *D sky130_fd_sc_hd__a21o_4
*CAP
1 *3376:B1 0.000271857
2 *3379:A2 0.000138784
3 *3363:B 6.11935e-05
4 *3378:C1 0
5 *3361:B2 7.0955e-05
6 *3371:A 0
7 *3360:X 0.000157746
8 *292:49 0.00031361
9 *292:36 0.000175825
10 *292:32 0.000436066
11 *292:21 0.000265556
12 *292:10 0.000424695
13 *292:8 0.000489857
14 *3376:B1 *3376:C1 0.000143259
15 *3379:A2 *3379:B1 0.000233367
16 *3379:A2 *309:21 5.68958e-05
17 *292:8 *732:27 0.000322162
18 *292:10 *296:18 0.00011036
19 *292:36 *3375:B 8.51432e-05
20 *292:36 *296:18 0.000167452
21 *292:49 *3375:B 1.37246e-05
22 *292:49 *293:8 1.52362e-05
23 *292:49 *310:10 5.21127e-05
24 *3361:B1 *3361:B2 6.55442e-05
25 *3361:B1 *292:32 2.02872e-05
26 *3375:A *3376:B1 9.89114e-05
27 *3375:A *292:32 4.96717e-05
28 *3379:A1 *3379:A2 0.000363099
29 *280:10 *292:10 0.000297259
30 *280:21 *292:10 0.000108672
31 *280:29 *292:21 6.43253e-05
32 *291:10 *292:10 0.000168447
33 *291:19 *292:10 0.00042262
34 *291:19 *292:21 0.000169674
35 *291:45 *292:21 5.24393e-05
36 *291:45 *292:49 1.12487e-05
37 *291:60 *292:49 0.000166522
*RES
1 *3360:X *292:8 41.48 
2 *292:8 *292:10 11.0614 
3 *292:10 *3371:A 38 
4 *292:10 *292:21 17.9621 
5 *292:21 *3361:B2 24.595 
6 *292:21 *292:32 1.57429 
7 *292:32 *292:36 17.2579 
8 *292:36 *3378:C1 38 
9 *292:36 *292:49 18.1071 
10 *292:49 *3363:B 24.1186 
11 *292:49 *3379:A2 27.9093 
12 *292:32 *3376:B1 28.8829 
*END

*D_NET *293 0.00162947
*CONN
*I *3368:A1 I *D sky130_fd_sc_hd__a32oi_2
*I *3361:X O *D sky130_fd_sc_hd__a32o_2
*CAP
1 *3368:A1 0
2 *3361:X 0.000440215
3 *293:8 0.000440215
4 *293:8 *295:10 0.000104454
5 *293:8 *296:35 0
6 *293:8 *299:22 8.4795e-05
7 *293:8 *310:10 0.000405837
8 *3362:A *293:8 0
9 *291:45 *293:8 0.000138718
10 *292:49 *293:8 1.52362e-05
*RES
1 *3361:X *293:8 48.3571 
2 *293:8 *3368:A1 38 
*END

*D_NET *294 0.00263777
*CONN
*I *3379:B1 I *D sky130_fd_sc_hd__a21o_2
*I *3363:A_N I *D sky130_fd_sc_hd__nand3b_2
*I *3375:B I *D sky130_fd_sc_hd__nand2_2
*I *3362:Y O *D sky130_fd_sc_hd__nand3_2
*CAP
1 *3379:B1 7.09168e-05
2 *3363:A_N 0
3 *3375:B 0.000163271
4 *3362:Y 0.000492925
5 *294:23 0.000172917
6 *294:10 0.000758195
7 *3375:B *296:18 9.20311e-06
8 *3375:B *629:10 0
9 *3379:B1 *311:10 5.68958e-05
10 *294:10 *3362:B 4.00259e-06
11 *294:10 *3378:A1 1.72202e-05
12 *294:10 *3378:A2 1.57571e-05
13 *294:10 *296:18 0.000119209
14 *294:10 *310:10 5.50106e-05
15 *3362:A *294:10 0.000105586
16 *3363:C *294:23 6.16531e-05
17 *3378:B1 *294:10 1.21972e-05
18 *3379:A2 *3379:B1 0.000233367
19 *291:60 *3375:B 9.03784e-05
20 *291:60 *294:10 2.62931e-05
21 *291:60 *294:23 7.39034e-05
22 *292:36 *3375:B 8.51432e-05
23 *292:49 *3375:B 1.37246e-05
*RES
1 *3362:Y *294:10 44.8357 
2 *294:10 *3375:B 42.0186 
3 *294:10 *294:23 16.9057 
4 *294:23 *3363:A_N 23 
5 *294:23 *3379:B1 25.5271 
*END

*D_NET *295 0.000955765
*CONN
*I *3368:A2 I *D sky130_fd_sc_hd__a32oi_2
*I *3363:Y O *D sky130_fd_sc_hd__nand3b_2
*CAP
1 *3368:A2 0
2 *3363:Y 0.000242003
3 *295:10 0.000242003
4 *295:10 *296:35 0.000367305
5 *293:8 *295:10 0.000104454
*RES
1 *3363:Y *295:10 43.6964 
2 *295:10 *3368:A2 38 
*END

*D_NET *296 0.00648269
*CONN
*I *3367:A1 I *D sky130_fd_sc_hd__o21ba_2
*I *3378:A1 I *D sky130_fd_sc_hd__o211ai_2
*I *3364:X O *D sky130_fd_sc_hd__o211a_2
*CAP
1 *3367:A1 0
2 *3378:A1 3.09904e-05
3 *3364:X 5.91994e-05
4 *296:35 0.000413774
5 *296:18 0.00135621
6 *296:8 0.000970643
7 *3378:A1 *3378:A2 0.000109901
8 *296:18 *3378:A2 6.38926e-05
9 *296:18 *303:10 0.000400867
10 *296:18 *629:10 0
11 *296:35 *3368:A3 0.000186772
12 *296:35 *299:14 9.67816e-05
13 *296:35 *554:10 0.000163759
14 *296:35 *565:61 7.63441e-05
15 *3348:C1 *296:8 0.000322988
16 *3362:A *3378:A1 6.87338e-05
17 *3362:A *296:35 1.01436e-05
18 *3364:A2 *296:8 0.000236102
19 *3375:B *296:18 9.20311e-06
20 *3378:B1 *296:18 7.35557e-05
21 *272:23 *296:8 2.19403e-05
22 *276:16 *296:8 9.97435e-06
23 *281:31 *296:18 0
24 *282:54 *296:18 0
25 *291:10 *296:18 0.000166318
26 *291:19 *296:18 0.000592294
27 *291:45 *296:18 0.000219891
28 *291:60 *296:18 4.08664e-05
29 *292:10 *296:18 0.00011036
30 *292:36 *296:18 0.000167452
31 *293:8 *296:35 0
32 *294:10 *3378:A1 1.72202e-05
33 *294:10 *296:18 0.000119209
34 *295:10 *296:35 0.000367305
*RES
1 *3364:X *296:8 41.48 
2 *296:8 *296:18 38.1586 
3 *296:18 *3378:A1 24.595 
4 *296:18 *296:35 40.295 
5 *296:35 *3367:A1 23 
*END

*D_NET *297 0.00292819
*CONN
*I *3367:A2 I *D sky130_fd_sc_hd__o21ba_2
*I *3378:A2 I *D sky130_fd_sc_hd__o211ai_2
*I *3365:Y O *D sky130_fd_sc_hd__nand2_2
*CAP
1 *3367:A2 0.000364118
2 *3378:A2 0.000156151
3 *3365:Y 0.000282134
4 *297:12 0.000802403
5 *3367:A2 *3889:RESET_B 2.79603e-05
6 *3367:A2 *298:14 0
7 *3367:A2 *299:14 5.5792e-05
8 *3367:A2 *565:61 0.000151817
9 *3367:A2 *638:8 0.000344789
10 *3378:A2 *565:18 5.3304e-05
11 *297:12 *298:14 0
12 *297:12 *565:10 0.000195451
13 *297:12 *565:18 2.24608e-05
14 *297:12 *565:61 5.62433e-06
15 *297:12 *687:12 4.71063e-05
16 *297:12 *731:38 0.000139657
17 *3362:A *3378:A2 2.02872e-05
18 *3378:A1 *3378:A2 0.000109901
19 *280:37 *3367:A2 1.02387e-05
20 *280:37 *297:12 5.93485e-05
21 *294:10 *3378:A2 1.57571e-05
22 *296:18 *3378:A2 6.38926e-05
*RES
1 *3365:Y *297:12 44.8979 
2 *297:12 *3378:A2 41.5007 
3 *297:12 *3367:A2 47.2179 
*END

*D_NET *298 0.00258765
*CONN
*I *3367:B1_N I *D sky130_fd_sc_hd__o21ba_2
*I *3366:Y O *D sky130_fd_sc_hd__a2bb2oi_2
*CAP
1 *3367:B1_N 0
2 *3366:Y 6.78864e-05
3 *298:14 0.000769673
4 *298:8 0.00083756
5 *298:14 *3889:RESET_B 0.000115526
6 *298:14 *299:14 1.24376e-05
7 *298:14 *687:12 0.000175459
8 *298:14 *715:12 0.000391087
9 *3367:A2 *298:14 0
10 *280:37 *298:14 0.000218023
11 *297:12 *298:14 0
*RES
1 *3366:Y *298:8 39.0979 
2 *298:8 *298:14 31.965 
3 *298:14 *3367:B1_N 23 
*END

*D_NET *299 0.00296008
*CONN
*I *3368:B1 I *D sky130_fd_sc_hd__a32oi_2
*I *3383:A2 I *D sky130_fd_sc_hd__o2111a_2
*I *3367:X O *D sky130_fd_sc_hd__o21ba_2
*CAP
1 *3368:B1 0
2 *3383:A2 0
3 *3367:X 0.000358089
4 *299:22 0.000474836
5 *299:14 0.000832925
6 *299:14 *300:6 2.95423e-05
7 *299:14 *713:79 0.000507005
8 *299:22 *310:10 8.80774e-05
9 *299:22 *311:10 0
10 *299:22 *553:23 6.03323e-05
11 *299:22 *565:61 0.000359464
12 *3367:A2 *299:14 5.5792e-05
13 *293:8 *299:22 8.4795e-05
14 *296:35 *299:14 9.67816e-05
15 *298:14 *299:14 1.24376e-05
*RES
1 *3367:X *299:14 32.28 
2 *299:14 *299:22 37.6229 
3 *299:22 *3383:A2 23 
4 *299:14 *3368:B1 23 
*END

*D_NET *300 0.002047
*CONN
*I *3382:A I *D sky130_fd_sc_hd__nor2_2
*I *3383:D1 I *D sky130_fd_sc_hd__o2111a_2
*I *3368:Y O *D sky130_fd_sc_hd__a32oi_2
*CAP
1 *3382:A 0.000146883
2 *3383:D1 0
3 *3368:Y 0.000186215
4 *300:14 0.000174106
5 *300:6 0.000507203
6 *3382:A *713:79 0.000352588
7 *300:6 *713:79 0.000493497
8 *300:14 *312:6 5.56356e-05
9 *300:14 *312:19 4.44329e-05
10 *300:14 *565:61 5.68958e-05
11 *299:14 *300:6 2.95423e-05
*RES
1 *3368:Y *300:6 28.3857 
2 *300:6 *300:14 33.3557 
3 *300:14 *3383:D1 23 
4 *300:6 *3382:A 27.4536 
*END

*D_NET *301 0.00241966
*CONN
*I *3372:A1 I *D sky130_fd_sc_hd__o211ai_2
*I *3369:X O *D sky130_fd_sc_hd__o2111a_2
*CAP
1 *3372:A1 0
2 *3369:X 0.000208975
3 *301:12 0.000360813
4 *301:8 0.000569788
5 *301:12 *565:74 3.42043e-05
6 *301:12 *565:80 0.000222389
7 *301:12 *688:14 0.000374783
8 *301:12 *729:12 0.000265059
9 *3369:A1 *301:12 6.66613e-05
10 *3369:B1 *301:8 4.5857e-05
11 *3369:D1 *301:8 5.5792e-05
12 *284:10 *301:12 0.000215337
*RES
1 *3369:X *301:8 41.48 
2 *301:8 *301:12 27.1179 
3 *301:12 *3372:A1 23 
*END

*D_NET *302 0.000745556
*CONN
*I *3372:A2 I *D sky130_fd_sc_hd__o211ai_2
*I *3370:X O *D sky130_fd_sc_hd__and3_2
*CAP
1 *3372:A2 0
2 *3370:X 0.000201708
3 *302:12 0.000201708
4 *302:12 *3941:D 0.000224977
5 *302:12 *304:14 7.30632e-05
6 *302:12 *733:37 4.40995e-05
*RES
1 *3370:X *302:12 28.0957 
2 *302:12 *3372:A2 23 
*END

*D_NET *303 0.00156506
*CONN
*I *3372:C1 I *D sky130_fd_sc_hd__o211ai_2
*I *3371:Y O *D sky130_fd_sc_hd__nand4_2
*CAP
1 *3372:C1 0
2 *3371:Y 0.000492027
3 *303:10 0.000492027
4 *303:10 *733:10 0.000160672
5 *3371:B *303:10 1.94693e-05
6 *282:39 *303:10 0
7 *282:54 *303:10 0
8 *296:18 *303:10 0.000400867
*RES
1 *3371:Y *303:10 46.9071 
2 *303:10 *3372:C1 38 
*END

*D_NET *304 0.00703658
*CONN
*I *3393:A1 I *D sky130_fd_sc_hd__a21bo_2
*I *3377:B I *D sky130_fd_sc_hd__nand3b_2
*I *3387:B2 I *D sky130_fd_sc_hd__a2bb2oi_2
*I *3391:C1 I *D sky130_fd_sc_hd__o211a_2
*I *3372:Y O *D sky130_fd_sc_hd__o211ai_2
*CAP
1 *3393:A1 7.01773e-05
2 *3377:B 0.000210187
3 *3387:B2 0.000403704
4 *3391:C1 0
5 *3372:Y 0.000429876
6 *304:44 0.000870508
7 *304:31 0.00108452
8 *304:22 0.000715601
9 *304:14 0.0010548
10 *3377:B *3377:A_N 0.0001082
11 *3377:B *3393:A2 4.31789e-05
12 *3377:B *309:21 0
13 *3387:B2 *318:18 0.000331806
14 *3387:B2 *561:35 2.98648e-05
15 *3393:A1 *3377:A_N 9.84851e-05
16 *3393:A1 *3393:A2 5.50106e-05
17 *3393:A1 *308:10 0
18 *3393:A1 *878:14 1.62015e-05
19 *304:14 *733:37 4.87617e-05
20 *304:22 *318:18 6.07611e-06
21 *304:22 *322:10 2.65002e-05
22 *304:22 *566:10 8.60837e-05
23 *304:31 *318:18 6.6869e-05
24 *304:31 *561:13 0
25 *304:44 *305:14 0
26 *304:44 *308:10 0
27 *304:44 *318:18 1.83667e-05
28 *304:44 *323:10 0
29 *304:44 *328:10 0
30 *304:44 *330:10 0
31 *304:44 *331:8 0
32 *304:44 *561:13 0
33 *304:44 *561:35 0
34 *304:44 *878:14 4.3407e-05
35 *3370:B *304:14 5.52998e-05
36 *3384:A *304:22 0.000358994
37 *176:27 *304:14 4.15888e-05
38 *281:14 *304:14 0.000316338
39 *282:10 *304:22 0
40 *282:22 *304:14 1.00084e-05
41 *282:31 *304:14 0.000263034
42 *282:39 *304:14 0.000100061
43 *302:12 *304:14 7.30632e-05
*RES
1 *3372:Y *304:14 47.4871 
2 *304:14 *304:22 39.5493 
3 *304:22 *3391:C1 38 
4 *304:22 *304:31 1.90571 
5 *304:31 *3387:B2 44.235 
6 *304:31 *304:44 11.4136 
7 *304:44 *3377:B 41.3764 
8 *304:44 *3393:A1 39.9471 
*END

*D_NET *305 0.00203358
*CONN
*I *3376:A1 I *D sky130_fd_sc_hd__o211ai_2
*I *3373:X O *D sky130_fd_sc_hd__and3_2
*CAP
1 *3376:A1 0
2 *3373:X 4.74353e-05
3 *305:14 0.000575543
4 *305:8 0.000622978
5 *305:14 *306:10 0
6 *305:14 *308:10 1.94693e-05
7 *305:14 *561:13 0.000281032
8 *305:14 *733:54 0.000166522
9 *3373:C *305:8 6.17437e-06
10 *3374:B *305:14 5.30518e-05
11 *281:10 *305:14 6.84563e-05
12 *281:38 *305:14 3.72639e-05
13 *290:18 *305:8 1.47795e-05
14 *290:33 *305:14 0.000140875
15 *304:44 *305:14 0
*RES
1 *3373:X *305:8 38.6214 
2 *305:8 *305:14 28.4436 
3 *305:14 *3376:A1 23 
*END

*D_NET *306 0.000637656
*CONN
*I *3376:A2 I *D sky130_fd_sc_hd__o211ai_2
*I *3374:X O *D sky130_fd_sc_hd__and3_2
*CAP
1 *3376:A2 0
2 *3374:X 0.000300389
3 *306:10 0.000300389
4 *306:10 *3948:A 3.22467e-05
5 *3374:B *306:10 4.6318e-06
6 *305:14 *306:10 0
*RES
1 *3374:X *306:10 43.3443 
2 *306:10 *3376:A2 38 
*END

*D_NET *307 0.000278089
*CONN
*I *3376:C1 I *D sky130_fd_sc_hd__o211ai_2
*I *3375:Y O *D sky130_fd_sc_hd__nand2_2
*CAP
1 *3376:C1 6.74149e-05
2 *3375:Y 6.74149e-05
3 *3376:B1 *3376:C1 0.000143259
*RES
1 *3375:Y *3376:C1 47.5743 
*END

*D_NET *308 0.001623
*CONN
*I *3393:A2 I *D sky130_fd_sc_hd__a21bo_2
*I *3377:C I *D sky130_fd_sc_hd__nand3b_2
*I *3376:Y O *D sky130_fd_sc_hd__o211ai_2
*CAP
1 *3393:A2 0.000124482
2 *3377:C 0
3 *3376:Y 0.00060126
4 *308:12 0.000124482
5 *308:10 0.00060126
6 *3393:A2 *3377:A_N 5.38612e-05
7 *3377:B *3393:A2 4.31789e-05
8 *3393:A1 *3393:A2 5.50106e-05
9 *3393:A1 *308:10 0
10 *304:44 *308:10 0
11 *305:14 *308:10 1.94693e-05
*RES
1 *3376:Y *308:10 47.9843 
2 *308:10 *308:12 15 
3 *308:12 *3377:C 23 
4 *308:12 *3393:A2 26.0243 
*END

*D_NET *309 0.001151
*CONN
*I *3383:B1 I *D sky130_fd_sc_hd__o2111a_2
*I *3381:A I *D sky130_fd_sc_hd__nand2_2
*I *3377:Y O *D sky130_fd_sc_hd__nand3b_2
*CAP
1 *3383:B1 0
2 *3381:A 0
3 *3377:Y 8.1851e-05
4 *309:21 0.000389304
5 *309:6 0.000471155
6 *309:21 *310:10 0
7 *309:21 *311:10 0.000151795
8 *3377:B *309:21 0
9 *3379:A2 *309:21 5.68958e-05
*RES
1 *3377:Y *309:6 24.5743 
2 *309:6 *3381:A 23 
3 *309:6 *309:21 37.54 
4 *309:21 *3383:B1 23 
*END

*D_NET *310 0.00106054
*CONN
*I *3380:B I *D sky130_fd_sc_hd__nand3b_2
*I *3378:Y O *D sky130_fd_sc_hd__o211ai_2
*CAP
1 *3380:B 0
2 *3378:Y 0.000201735
3 *310:10 0.000201735
4 *310:10 *311:10 0
5 *3363:C *310:10 2.04774e-05
6 *3378:B1 *310:10 6.17437e-06
7 *291:60 *310:10 2.93845e-05
8 *292:49 *310:10 5.21127e-05
9 *293:8 *310:10 0.000405837
10 *294:10 *310:10 5.50106e-05
11 *299:22 *310:10 8.80774e-05
12 *309:21 *310:10 0
*RES
1 *3378:Y *310:10 44.0486 
2 *310:10 *3380:B 38 
*END

*D_NET *311 0.00178581
*CONN
*I *3380:C I *D sky130_fd_sc_hd__nand3b_2
*I *3379:X O *D sky130_fd_sc_hd__a21o_2
*CAP
1 *3380:C 0.00015688
2 *3379:X 0.000174063
3 *311:10 0.000330943
4 *3380:C *3383:A1 0.000278555
5 *3380:C *312:6 4.65096e-05
6 *3380:C *553:6 5.53039e-05
7 *3380:C *565:61 0.000534865
8 *3379:B1 *311:10 5.68958e-05
9 *299:22 *311:10 0
10 *309:21 *311:10 0.000151795
11 *310:10 *311:10 0
*RES
1 *3379:X *311:10 41.3557 
2 *311:10 *3380:C 44.3593 
*END

*D_NET *312 0.00158801
*CONN
*I *3381:B I *D sky130_fd_sc_hd__nand2_2
*I *3383:C1 I *D sky130_fd_sc_hd__o2111a_2
*I *3380:Y O *D sky130_fd_sc_hd__nand3b_2
*CAP
1 *3381:B 0
2 *3383:C1 0
3 *3380:Y 0.000218652
4 *312:19 0.000321098
5 *312:6 0.00053975
6 *312:6 *3383:A1 0.000236355
7 *312:6 *553:23 5.82853e-05
8 *312:6 *565:61 2.19845e-05
9 *312:19 *565:61 4.53056e-05
10 *3380:C *312:6 4.65096e-05
11 *300:14 *312:6 5.56356e-05
12 *300:14 *312:19 4.44329e-05
*RES
1 *3380:Y *312:6 27.9093 
2 *312:6 *3383:C1 23 
3 *312:6 *312:19 35.7171 
4 *312:19 *3381:B 23 
*END

*D_NET *313 0.000790914
*CONN
*I *3382:B I *D sky130_fd_sc_hd__nor2_2
*I *3381:Y O *D sky130_fd_sc_hd__nand2_2
*CAP
1 *3382:B 3.06567e-05
2 *3381:Y 0.000328949
3 *313:8 0.000359606
4 *3382:B *713:79 2.95526e-05
5 *313:8 *649:10 4.21494e-05
*RES
1 *3381:Y *313:8 43.4271 
2 *313:8 *3382:B 38.6214 
*END

*D_NET *314 0.00202939
*CONN
*I *3401:A1 I *D sky130_fd_sc_hd__o311a_4
*I *3382:Y O *D sky130_fd_sc_hd__nor2_2
*CAP
1 *3401:A1 0.000432115
2 *3382:Y 0.000464289
3 *314:8 0.000896404
4 *3401:A1 *3401:A2 0
5 *3401:A1 *3891:RESET_B 0.000138593
6 *3401:A1 *324:10 0
7 *3401:A1 *555:8 0
8 *3401:A1 *878:14 0
9 *314:8 *713:79 9.79925e-05
*RES
1 *3382:Y *314:8 46.2443 
2 *314:8 *3401:A1 45.8921 
*END

*D_NET *315 0.002952
*CONN
*I *3401:A2 I *D sky130_fd_sc_hd__o311a_4
*I *3383:X O *D sky130_fd_sc_hd__o2111a_2
*CAP
1 *3401:A2 0.000337233
2 *3383:X 0.000713126
3 *315:8 0.00105036
4 *3401:A2 *3401:B1 0.000153155
5 *3401:A2 *555:8 0.000169665
6 *3401:A2 *878:14 0.000326973
7 *315:8 *3891:D 4.05309e-05
8 *315:8 *3891:RESET_B 9.45324e-06
9 *315:8 *565:61 9.82009e-05
10 *315:8 *878:14 5.3304e-05
11 *3401:A1 *3401:A2 0
*RES
1 *3383:X *315:8 47.6736 
2 *315:8 *3401:A2 46.3479 
*END

*D_NET *316 0.000663877
*CONN
*I *3387:A1_N I *D sky130_fd_sc_hd__a2bb2oi_2
*I *3384:X O *D sky130_fd_sc_hd__and4_2
*CAP
1 *3387:A1_N 0
2 *3384:X 0.00030162
3 *316:10 0.00030162
4 *316:10 *320:18 5.82853e-05
5 *316:10 *320:29 0
6 *316:10 *327:27 0
7 *3390:B *316:10 2.35118e-06
*RES
1 *3384:X *316:10 43.3443 
2 *316:10 *3387:A1_N 38 
*END

*D_NET *317 0.00126404
*CONN
*I *3387:A2_N I *D sky130_fd_sc_hd__a2bb2oi_2
*I *3385:X O *D sky130_fd_sc_hd__and3_2
*CAP
1 *3387:A2_N 0.000121341
2 *3385:X 0.000333157
3 *317:8 0.000454498
4 *317:8 *320:29 0.000118099
5 *317:8 *566:39 0.000116314
6 *317:8 *566:48 3.70094e-05
7 *278:47 *317:8 8.36198e-05
*RES
1 *3385:X *317:8 45.54 
2 *317:8 *3387:A2_N 39.5743 
*END

*D_NET *318 0.00139152
*CONN
*I *3391:B1 I *D sky130_fd_sc_hd__o211a_2
*I *3387:B1 I *D sky130_fd_sc_hd__a2bb2oi_2
*I *3386:X O *D sky130_fd_sc_hd__a21o_2
*CAP
1 *3391:B1 0
2 *3387:B1 0
3 *3386:X 0.000158794
4 *318:18 0.000250389
5 *318:8 0.000409183
6 *318:8 *3386:B1 0
7 *318:8 *320:18 3.7972e-06
8 *318:8 *566:8 1.39431e-05
9 *318:18 *322:10 1.14452e-05
10 *318:18 *561:35 0.000120853
11 *3387:B2 *318:18 0.000331806
12 *304:22 *318:18 6.07611e-06
13 *304:31 *318:18 6.6869e-05
14 *304:44 *318:18 1.83667e-05
*RES
1 *3386:X *318:8 25.5479 
2 *318:8 *318:18 36.235 
3 *318:18 *3387:B1 23 
4 *318:8 *3391:B1 23 
*END

*D_NET *319 0.0019637
*CONN
*I *3400:B I *D sky130_fd_sc_hd__or3_4
*I *3392:A1 I *D sky130_fd_sc_hd__o21ai_2
*I *3396:A2 I *D sky130_fd_sc_hd__o21bai_2
*I *3397:B I *D sky130_fd_sc_hd__nor2_2
*I *3387:Y O *D sky130_fd_sc_hd__a2bb2oi_2
*CAP
1 *3400:B 0
2 *3392:A1 5.82188e-05
3 *3396:A2 0
4 *3397:B 0.000193961
5 *3387:Y 0.000162001
6 *319:34 0.000234379
7 *319:14 0.000234625
8 *319:10 0.000378826
9 *3392:A1 *3392:B1 2.18409e-05
10 *3392:A1 *3400:C 0.000143655
11 *3392:A1 *324:10 5.70419e-05
12 *3397:B *3397:A 9.5877e-05
13 *3397:B *329:10 8.99287e-05
14 *319:10 *320:29 0
15 *319:10 *327:27 9.63815e-05
16 *319:14 *328:10 5.50106e-05
17 *319:14 *329:10 0.00014196
18 *319:34 *323:10 0
19 *319:34 *566:48 0
*RES
1 *3387:Y *319:10 41.2314 
2 *319:10 *319:14 16.5743 
3 *319:14 *3397:B 27.4743 
4 *319:14 *3396:A2 23 
5 *319:10 *319:34 17.9621 
6 *319:34 *3392:A1 25.0507 
7 *319:34 *3400:B 23 
*END

*D_NET *320 0.00360387
*CONN
*I *3397:A I *D sky130_fd_sc_hd__nor2_2
*I *3396:A1 I *D sky130_fd_sc_hd__o21bai_2
*I *3391:A1 I *D sky130_fd_sc_hd__o211a_2
*I *3388:X O *D sky130_fd_sc_hd__and3_2
*CAP
1 *3397:A 3.28208e-05
2 *3396:A1 0
3 *3391:A1 0
4 *3388:X 7.71793e-05
5 *320:29 0.000381054
6 *320:18 0.000438394
7 *320:6 0.000863806
8 *3397:A *329:10 9.5877e-05
9 *320:18 *322:10 0.000255889
10 *320:18 *323:10 0
11 *320:18 *327:27 0
12 *320:18 *566:8 4.10495e-06
13 *320:18 *566:10 8.52094e-06
14 *320:29 *327:27 0
15 *320:29 *566:39 0.000116314
16 *320:29 *566:48 0.000263098
17 *3384:A *320:18 0.000371083
18 *3384:C *320:18 3.46216e-05
19 *3384:D *320:6 9.08709e-06
20 *3384:D *320:18 2.75956e-05
21 *3388:B *320:6 9.91548e-05
22 *3390:B *320:18 0.000230715
23 *3397:B *3397:A 9.5877e-05
24 *181:31 *320:18 1.84917e-05
25 *316:10 *320:18 5.82853e-05
26 *316:10 *320:29 0
27 *317:8 *320:29 0.000118099
28 *318:8 *320:18 3.7972e-06
29 *319:10 *320:29 0
*RES
1 *3388:X *320:6 24.5743 
2 *320:6 *320:18 41.0977 
3 *320:18 *3391:A1 23 
4 *320:6 *320:29 38.2443 
5 *320:29 *3396:A1 23 
6 *320:29 *3397:A 24.0979 
*END

*D_NET *321 0.00250598
*CONN
*I *3390:C I *D sky130_fd_sc_hd__and3_2
*I *3389:Y O *D sky130_fd_sc_hd__nand2_2
*CAP
1 *3390:C 0
2 *3389:Y 0.000716766
3 *321:16 7.42513e-05
4 *321:10 0.000791018
5 *3350:C *321:10 4.39489e-05
6 *3389:A *321:10 4.93812e-05
7 *3389:B *321:10 0.000230309
8 *181:23 *321:10 0.00044651
9 *275:61 *321:10 5.58003e-05
10 *278:34 *321:10 9.79925e-05
*RES
1 *3389:Y *321:10 35.2214 
2 *321:10 *321:16 31.2014 
3 *321:16 *3390:C 23 
*END

*D_NET *322 0.000818795
*CONN
*I *3391:A2 I *D sky130_fd_sc_hd__o211a_2
*I *3390:X O *D sky130_fd_sc_hd__and3_2
*CAP
1 *3391:A2 0
2 *3390:X 0.000227056
3 *322:10 0.000227056
4 *322:10 *323:10 0
5 *322:10 *561:35 6.07611e-06
6 *322:10 *566:10 3.97596e-05
7 *3384:A *322:10 2.50118e-05
8 *304:22 *322:10 2.65002e-05
9 *318:18 *322:10 1.14452e-05
10 *320:18 *322:10 0.000255889
*RES
1 *3390:X *322:10 42.3086 
2 *322:10 *3391:A2 38 
*END

*D_NET *323 0.00177778
*CONN
*I *3400:C I *D sky130_fd_sc_hd__or3_4
*I *3392:A2 I *D sky130_fd_sc_hd__o21ai_2
*I *3391:X O *D sky130_fd_sc_hd__o211a_2
*CAP
1 *3400:C 9.92796e-05
2 *3392:A2 0
3 *3391:X 0.000520254
4 *323:12 9.92796e-05
5 *323:10 0.000520254
6 *3400:C *3392:B1 5.67058e-05
7 *323:10 *3949:A 3.6862e-05
8 *323:10 *327:27 0
9 *323:10 *328:10 0.000192096
10 *323:10 *330:10 9.21347e-06
11 *323:10 *561:35 0
12 *323:10 *566:8 0.00010018
13 *3392:A1 *3400:C 0.000143655
14 *304:44 *323:10 0
15 *319:34 *323:10 0
16 *320:18 *323:10 0
17 *322:10 *323:10 0
*RES
1 *3391:X *323:10 48.0464 
2 *323:10 *323:12 15 
3 *323:12 *3392:A2 23 
4 *323:12 *3400:C 25.5271 
*END

*D_NET *324 0.000828872
*CONN
*I *3394:A I *D sky130_fd_sc_hd__nand2_2
*I *3392:Y O *D sky130_fd_sc_hd__o21ai_2
*CAP
1 *3394:A 0
2 *3392:Y 0.000299962
3 *324:10 0.000299962
4 *324:10 *326:10 0.000171906
5 *324:10 *331:8 0
6 *324:10 *332:8 0
7 *324:10 *566:61 0
8 *3392:A1 *324:10 5.70419e-05
9 *3401:A1 *324:10 0
*RES
1 *3392:Y *324:10 43.8207 
2 *324:10 *3394:A 38 
*END

*D_NET *325 0.000248321
*CONN
*I *3394:B I *D sky130_fd_sc_hd__nand2_2
*I *3393:X O *D sky130_fd_sc_hd__a21bo_2
*CAP
1 *3394:B 0.000124161
2 *3393:X 0.000124161
*RES
1 *3393:X *3394:B 48.0507 
*END

*D_NET *326 0.000431743
*CONN
*I *3401:A3 I *D sky130_fd_sc_hd__o311a_4
*I *3394:Y O *D sky130_fd_sc_hd__nand2_2
*CAP
1 *3401:A3 0
2 *3394:Y 0.000129919
3 *326:10 0.000129919
4 *326:10 *332:8 0
5 *326:10 *566:61 0
6 *324:10 *326:10 0.000171906
*RES
1 *3394:Y *326:10 40.8793 
2 *326:10 *3401:A3 38 
*END

*D_NET *327 0.00635096
*CONN
*I *3396:B1_N I *D sky130_fd_sc_hd__o21bai_2
*I *3398:B I *D sky130_fd_sc_hd__nand2_2
*I *3407:B1 I *D sky130_fd_sc_hd__a21oi_2
*I *3395:X O *D sky130_fd_sc_hd__xor2_2
*CAP
1 *3396:B1_N 1.49804e-05
2 *3398:B 0
3 *3407:B1 0
4 *3395:X 3.31581e-05
5 *327:29 1.49804e-05
6 *327:27 0.00103688
7 *327:18 0.00121838
8 *327:6 0.00228842
9 *3396:B1_N *328:10 5.50106e-05
10 *3396:B1_N *329:10 5.50106e-05
11 *327:18 *3409:B1 0.000132394
12 *327:18 *3409:C1 9.52332e-06
13 *327:18 *3913:D 3.99649e-05
14 *327:18 *561:59 0
15 *327:18 *709:38 0
16 *327:18 *872:10 3.21556e-05
17 *327:27 *709:58 0
18 *3261:B *327:18 0
19 *3390:B *327:27 0.000132778
20 *15:30 *327:6 3.17482e-05
21 *15:30 *327:18 9.00728e-05
22 *178:40 *327:18 0
23 *180:42 *327:18 0
24 *180:42 *327:27 0.000998047
25 *273:24 *327:27 7.10623e-05
26 *316:10 *327:27 0
27 *319:10 *327:27 9.63815e-05
28 *320:18 *327:27 0
29 *320:29 *327:27 0
30 *323:10 *327:27 0
*RES
1 *3395:X *327:6 23.6214 
2 *327:6 *327:18 49.1607 
3 *327:18 *3407:B1 23 
4 *327:6 *327:27 38.0343 
5 *327:27 *327:29 15 
6 *327:29 *3398:B 23 
7 *327:29 *3396:B1_N 23.6214 
*END

*D_NET *328 0.00136782
*CONN
*I *3399:A I *D sky130_fd_sc_hd__nand2_2
*I *3396:Y O *D sky130_fd_sc_hd__o21bai_2
*CAP
1 *3399:A 0.000165176
2 *3396:Y 0.00028868
3 *328:10 0.000453856
4 *328:10 *329:10 6.36209e-05
5 *328:10 *330:10 9.43726e-05
6 *3396:B1_N *328:10 5.50106e-05
7 *304:44 *328:10 0
8 *319:14 *328:10 5.50106e-05
9 *323:10 *328:10 0.000192096
*RES
1 *3396:Y *328:10 44.5664 
2 *328:10 *3399:A 40.5479 
*END

*D_NET *329 0.0011367
*CONN
*I *3398:A I *D sky130_fd_sc_hd__nand2_2
*I *3397:Y O *D sky130_fd_sc_hd__nor2_2
*CAP
1 *3398:A 0
2 *3397:Y 0.00034515
3 *329:10 0.00034515
4 *3396:B1_N *329:10 5.50106e-05
5 *3397:A *329:10 9.5877e-05
6 *3397:B *329:10 8.99287e-05
7 *319:14 *329:10 0.00014196
8 *328:10 *329:10 6.36209e-05
*RES
1 *3397:Y *329:10 30.3329 
2 *329:10 *3398:A 23 
*END

*D_NET *330 0.000535216
*CONN
*I *3399:B I *D sky130_fd_sc_hd__nand2_2
*I *3398:Y O *D sky130_fd_sc_hd__nand2_2
*CAP
1 *3399:B 0
2 *3398:Y 0.000215815
3 *330:10 0.000215815
4 *304:44 *330:10 0
5 *323:10 *330:10 9.21347e-06
6 *328:10 *330:10 9.43726e-05
*RES
1 *3398:Y *330:10 41.8321 
2 *330:10 *3399:B 38 
*END

*D_NET *331 0.000937552
*CONN
*I *3401:B1 I *D sky130_fd_sc_hd__o311a_4
*I *3399:Y O *D sky130_fd_sc_hd__nand2_2
*CAP
1 *3401:B1 0.000284963
2 *3399:Y 0.000107236
3 *331:8 0.000392199
4 *3401:A2 *3401:B1 0.000153155
5 *304:44 *331:8 0
6 *324:10 *331:8 0
*RES
1 *3399:Y *331:8 39.9057 
2 *331:8 *3401:B1 43.8829 
*END

*D_NET *332 0.000351196
*CONN
*I *3401:C1 I *D sky130_fd_sc_hd__o311a_4
*I *3400:X O *D sky130_fd_sc_hd__or3_4
*CAP
1 *3401:C1 0
2 *3400:X 0.000137806
3 *332:8 0.000137806
4 *332:8 *566:48 4.21594e-06
5 *332:8 *566:61 7.13673e-05
6 *324:10 *332:8 0
7 *326:10 *332:8 0
*RES
1 *3400:X *332:8 40.9621 
2 *332:8 *3401:C1 38 
*END

*D_NET *333 0.000948971
*CONN
*I *3409:A1 I *D sky130_fd_sc_hd__o211a_2
*I *3402:Y O *D sky130_fd_sc_hd__nor2_2
*CAP
1 *3409:A1 5.62361e-06
2 *3402:Y 0.000203159
3 *333:10 0.000208782
4 *3409:A1 *3409:A2 1.28818e-05
5 *3409:A1 *3409:B1 1.28818e-05
6 *333:10 *3403:A 5.58003e-05
7 *333:10 *3407:A2 0
8 *333:10 *334:10 0.000165571
9 *333:10 *335:10 1.32377e-05
10 *333:10 *339:10 4.85126e-05
11 *333:10 *875:10 0.000222521
*RES
1 *3402:Y *333:10 43.6964 
2 *333:10 *3409:A1 38.1502 
*END

*D_NET *334 0.00171828
*CONN
*I *3409:A2 I *D sky130_fd_sc_hd__o211a_2
*I *3403:X O *D sky130_fd_sc_hd__and2_2
*CAP
1 *3409:A2 0.000106268
2 *3403:X 0.000375576
3 *334:10 0.000481843
4 *3409:A2 *3409:B1 7.94463e-05
5 *3409:A2 *3409:C1 9.72057e-06
6 *3409:A2 *872:10 0
7 *334:10 *3403:A 1.88391e-05
8 *334:10 *335:10 0.000468137
9 *3409:A1 *3409:A2 1.28818e-05
10 *333:10 *334:10 0.000165571
*RES
1 *3403:X *334:10 45.8507 
2 *334:10 *3409:A2 40.0714 
*END

*D_NET *335 0.00217657
*CONN
*I *3409:B1 I *D sky130_fd_sc_hd__o211a_2
*I *3404:Y O *D sky130_fd_sc_hd__xnor2_2
*CAP
1 *3409:B1 0.000101547
2 *3404:Y 0.000341587
3 *335:10 0.000443134
4 *3409:B1 *3409:C1 9.61895e-06
5 *3409:B1 *872:10 3.7122e-06
6 *335:10 *3402:A 1.57659e-05
7 *335:10 *3403:A 9.66585e-05
8 *335:10 *3403:B 5.58003e-05
9 *335:10 *3407:A2 0
10 *335:10 *566:18 2.70366e-05
11 *335:10 *893:10 0.000375614
12 *3409:A1 *3409:B1 1.28818e-05
13 *3409:A2 *3409:B1 7.94463e-05
14 *327:18 *3409:B1 0.000132394
15 *333:10 *335:10 1.32377e-05
16 *334:10 *335:10 0.000468137
*RES
1 *3404:Y *335:10 47.7357 
2 *335:10 *3409:B1 41.0243 
*END

*D_NET *336 0.0017819
*CONN
*I *3407:A1 I *D sky130_fd_sc_hd__a21oi_2
*I *3408:A1 I *D sky130_fd_sc_hd__o211a_2
*I *3405:Y O *D sky130_fd_sc_hd__inv_2
*CAP
1 *3407:A1 0
2 *3408:A1 0.000322284
3 *3405:Y 0.000222622
4 *336:10 0.000544907
5 *3408:A1 *3407:A2 6.22372e-05
6 *3408:A1 *3408:A2 0.000121699
7 *3408:A1 *338:10 0.000323341
8 *336:10 *3407:A2 1.83564e-05
9 *336:10 *642:20 2.29192e-05
10 *336:10 *712:24 0.000143535
*RES
1 *3405:Y *336:10 41.8321 
2 *336:10 *3408:A1 45.8921 
3 *336:10 *3407:A1 38 
*END

*D_NET *337 0.000494166
*CONN
*I *3408:B1 I *D sky130_fd_sc_hd__o211a_2
*I *3406:Y O *D sky130_fd_sc_hd__xnor2_2
*CAP
1 *3408:B1 0
2 *3406:Y 0.000238514
3 *337:10 0.000238514
4 *337:10 *3408:A2 1.13812e-05
5 *337:10 *338:10 5.75756e-06
*RES
1 *3406:Y *337:10 41.48 
2 *337:10 *3408:B1 38 
*END

*D_NET *338 0.000895639
*CONN
*I *3408:C1 I *D sky130_fd_sc_hd__o211a_2
*I *3407:Y O *D sky130_fd_sc_hd__a21oi_2
*CAP
1 *3408:C1 0
2 *3407:Y 0.000268549
3 *338:10 0.000268549
4 *338:10 *3407:A2 1.59094e-05
5 *338:10 *3408:A2 1.35333e-05
6 *3408:A1 *338:10 0.000323341
7 *337:10 *338:10 5.75756e-06
*RES
1 *3407:Y *338:10 43.6964 
2 *338:10 *3408:C1 38 
*END

*D_NET *339 0.00100862
*CONN
*I *3409:C1 I *D sky130_fd_sc_hd__o211a_2
*I *3408:X O *D sky130_fd_sc_hd__o211a_2
*CAP
1 *3409:C1 0.00011817
2 *3408:X 0.000236193
3 *339:10 0.000354364
4 *3409:C1 *872:10 0
5 *339:10 *3407:A2 0
6 *339:10 *3408:A2 0
7 *339:10 *875:10 0.000222521
8 *3409:A2 *3409:C1 9.72057e-06
9 *3409:B1 *3409:C1 9.61895e-06
10 *327:18 *3409:C1 9.52332e-06
11 *333:10 *339:10 4.85126e-05
*RES
1 *3408:X *339:10 42.9921 
2 *339:10 *3409:C1 39.9471 
*END

*D_NET *340 6.69045e-05
*CONN
*I *3412:A I *D sky130_fd_sc_hd__nor2_2
*I *3410:X O *D sky130_fd_sc_hd__xor2_2
*CAP
1 *3412:A 3.34522e-05
2 *3410:X 3.34522e-05
*RES
1 *3410:X *3412:A 46.6214 
*END

*D_NET *341 0.00432203
*CONN
*I *3412:B I *D sky130_fd_sc_hd__nor2_2
*I *3411:X O *D sky130_fd_sc_hd__xor2_2
*CAP
1 *3412:B 0
2 *3411:X 0.000314392
3 *341:20 0.0011104
4 *341:8 0.00142479
5 *341:8 *3244:A1 0.000135037
6 *341:20 *3241:A1 3.21214e-05
7 *341:20 *3241:B1 2.89076e-05
8 *341:20 *3986:A 0.000318702
9 *341:20 *572:10 0.000122362
10 *341:20 *603:73 0.000101137
11 *341:20 *702:43 0.000158796
12 *3241:A2 *341:20 1.92253e-05
13 *183:10 *341:20 0
14 *183:76 *341:20 0.00026025
15 *188:8 *341:20 3.29458e-05
16 *188:12 *341:8 5.3304e-05
17 *188:33 *341:8 4.08664e-05
18 *189:50 *341:8 2.02872e-05
19 *202:44 *341:8 6.57815e-06
20 *202:54 *341:8 0.000141924
*RES
1 *3411:X *341:8 44.3386 
2 *341:8 *341:20 34.3264 
3 *341:20 *3412:B 23 
*END

*D_NET *342 0.00203358
*CONN
*I *3414:B I *D sky130_fd_sc_hd__and4_4
*I *3412:Y O *D sky130_fd_sc_hd__nor2_2
*CAP
1 *3414:B 0.000436487
2 *3412:Y 0.00027086
3 *342:8 0.000707347
4 *3414:B *717:10 0.000137383
5 *342:8 *3925:D 6.53553e-05
6 *342:8 *717:10 0.000382574
7 *3414:A *3414:B 3.3577e-05
*RES
1 *3412:Y *342:8 44.8357 
2 *342:8 *3414:B 44.3386 
*END

*D_NET *343 0.000893467
*CONN
*I *3414:D I *D sky130_fd_sc_hd__and4_4
*I *3413:X O *D sky130_fd_sc_hd__xor2_2
*CAP
1 *3414:D 0
2 *3413:X 0.000372291
3 *343:14 0.000372291
4 *343:14 *3918:CLK 6.00575e-05
5 *343:14 *3918:D 5.67058e-05
6 *343:14 *344:14 0
7 *343:14 *887:10 3.21223e-05
*RES
1 *3413:X *343:14 44.1521 
2 *343:14 *3414:D 38 
*END

*D_NET *344 0.00114786
*CONN
*I *3415:A I *D sky130_fd_sc_hd__buf_6
*I *3414:X O *D sky130_fd_sc_hd__and4_4
*CAP
1 *3415:A 2.63285e-05
2 *3414:X 0.00045021
3 *344:14 0.000476539
4 *3415:A *604:36 5.40337e-05
5 *3415:A *904:6 0.000100069
6 *344:14 *3922:RESET_B 0
7 *344:14 *716:17 0
8 *344:14 *717:10 4.06849e-05
9 *344:14 *730:37 0
10 *343:14 *344:14 0
*RES
1 *3414:X *344:14 45.2914 
2 *344:14 *3415:A 39.0979 
*END

*D_NET *345 0.00131923
*CONN
*I *3418:A0 I *D sky130_fd_sc_hd__mux2_2
*I *3416:X O *D sky130_fd_sc_hd__mux4_2
*CAP
1 *3418:A0 0
2 *3416:X 0.000479812
3 *345:10 0.000479812
4 *345:10 *3416:S0 0.000292745
5 *345:10 *346:16 0
6 *345:10 *461:108 0
7 *345:10 *584:8 6.68587e-05
*RES
1 *3416:X *345:10 45.7679 
2 *345:10 *3418:A0 38 
*END

*D_NET *346 0.00252954
*CONN
*I *3418:A1 I *D sky130_fd_sc_hd__mux2_2
*I *3417:X O *D sky130_fd_sc_hd__mux4_2
*CAP
1 *3418:A1 0.000120405
2 *3417:X 0.00057655
3 *346:16 0.000696955
4 *3418:A1 *461:108 5.41288e-05
5 *3418:A1 *626:51 0.000105934
6 *3418:A1 *681:141 0.000272377
7 *346:16 *3417:A0 8.84696e-05
8 *346:16 *3417:A1 6.99133e-05
9 *346:16 *3417:S0 2.51824e-05
10 *346:16 *461:98 6.25829e-05
11 *346:16 *461:108 0.000163158
12 *346:16 *585:22 4.74809e-05
13 *346:16 *585:38 2.34364e-05
14 *346:16 *686:120 0.000169665
15 *346:16 *686:134 5.3304e-05
16 *345:10 *346:16 0
*RES
1 *3417:X *346:16 49.6 
2 *346:16 *3418:A1 42.4536 
*END

*D_NET *347 0.00780747
*CONN
*I *3424:A0 I *D sky130_fd_sc_hd__mux2_2
*I *3418:X O *D sky130_fd_sc_hd__mux2_2
*CAP
1 *3424:A0 0
2 *3418:X 3.43764e-05
3 *347:10 0.00277944
4 *347:8 0.00281382
5 *347:8 *626:51 0.00014196
6 *347:8 *662:82 5.47927e-05
7 *347:10 *3416:A0 0
8 *347:10 *3424:S 0
9 *347:10 *3882:CLK 0
10 *347:10 *352:73 0
11 *347:10 *366:18 0
12 *347:10 *367:8 0.000218952
13 *347:10 *396:8 0.000325773
14 *347:10 *402:14 0
15 *347:10 *452:81 0
16 *347:10 *455:8 0.00059738
17 *347:10 *466:10 0
18 *347:10 *538:8 0.000169683
19 *347:10 *543:8 0.000237686
20 *347:10 *544:38 0
21 *347:10 *544:61 9.38467e-05
22 *347:10 *622:10 0
23 *347:10 *662:52 0
24 *347:10 *662:59 0
25 *347:10 *852:14 0
26 *347:10 *856:14 3.84905e-05
27 *347:10 *856:25 7.91543e-05
28 *347:10 *864:24 0.000222113
*RES
1 *3418:X *347:8 39.5743 
2 *347:8 *347:10 59.305 
3 *347:10 *3424:A0 38 
*END

*D_NET *348 0.00177435
*CONN
*I *3422:A0 I *D sky130_fd_sc_hd__mux2_2
*I *3419:X O *D sky130_fd_sc_hd__mux4_2
*CAP
1 *3422:A0 0.000462338
2 *3419:X 0.000106271
3 *348:10 0.000568609
4 *3422:A0 *349:14 1.57571e-05
5 *3422:A0 *350:73 5.50106e-05
6 *3422:A0 *508:8 0.000187084
7 *3422:A0 *625:99 4.84129e-06
8 *3422:A0 *684:21 8.21011e-05
9 *3422:A0 *684:27 9.77287e-05
10 *348:10 *3419:S0 2.93335e-05
11 *348:10 *3675:A0 8.62876e-05
12 *348:10 *3676:A 7.89883e-05
*RES
1 *3419:X *348:10 39.8229 
2 *348:10 *3422:A0 47.715 
*END

*D_NET *349 0.00341146
*CONN
*I *3422:A1 I *D sky130_fd_sc_hd__mux2_2
*I *3420:X O *D sky130_fd_sc_hd__mux4_2
*CAP
1 *3422:A1 0
2 *3420:X 0.000408662
3 *349:14 0.000384995
4 *349:8 0.000793657
5 *349:8 *3420:A0 0.000354116
6 *349:8 *574:8 2.30292e-05
7 *349:14 *3424:S 3.70187e-05
8 *349:14 *350:73 6.17437e-06
9 *349:14 *366:18 0.000341956
10 *349:14 *402:14 0.000820983
11 *349:14 *684:27 0.000139352
12 *349:14 *836:14 8.57577e-05
13 *3422:A0 *349:14 1.57571e-05
*RES
1 *3420:X *349:8 43.8621 
2 *349:8 *349:14 27.6357 
3 *349:14 *3422:A1 23 
*END

*D_NET *350 0.0170803
*CONN
*I *4087:A I *D sky130_fd_sc_hd__clkbuf_2
*I *3456:S I *D sky130_fd_sc_hd__mux2_2
*I *3480:S I *D sky130_fd_sc_hd__mux2_2
*I *3422:S I *D sky130_fd_sc_hd__mux2_2
*I *3439:S I *D sky130_fd_sc_hd__mux2_2
*I *3421:X O *D sky130_fd_sc_hd__clkbuf_1
*CAP
1 *4087:A 0.000157069
2 *3456:S 0
3 *3480:S 0
4 *3422:S 0
5 *3439:S 0.000336666
6 *3421:X 0
7 *350:73 0.000847257
8 *350:57 0.00170131
9 *350:36 0.00170767
10 *350:30 0.000632222
11 *350:26 0.00224106
12 *350:20 0.00260354
13 *350:4 0.000634826
14 *3439:S *3437:A0 0.000422647
15 *3439:S *364:10 0
16 *3439:S *366:16 0
17 *3439:S *501:10 0.000178623
18 *3439:S *510:10 3.79019e-05
19 *3439:S *621:78 0.000274078
20 *3439:S *822:10 1.01436e-05
21 *4087:A *665:56 0.000141355
22 *350:20 *562:248 7.57281e-06
23 *350:20 *634:35 2.05503e-05
24 *350:20 *665:56 9.79925e-05
25 *350:20 *692:30 7.57281e-06
26 *350:26 *3683:A1 8.38067e-05
27 *350:26 *3720:A 5.40337e-05
28 *350:26 *525:58 0.000166387
29 *350:26 *562:214 0.000219815
30 *350:26 *562:220 3.6054e-05
31 *350:26 *562:224 5.45644e-05
32 *350:26 *581:10 0.000364782
33 *350:26 *594:10 0.000212121
34 *350:26 *725:59 4.41821e-06
35 *350:30 *380:22 0.000181794
36 *350:36 *380:22 3.48471e-05
37 *350:36 *381:14 5.13783e-06
38 *350:57 *3480:A0 0.000230604
39 *350:57 *3723:A1 0
40 *350:57 *3988:A 0
41 *350:57 *507:73 0.000622282
42 *350:57 *510:10 2.12107e-05
43 *350:57 *515:10 0.000868945
44 *350:57 *562:81 0
45 *350:57 *592:14 0
46 *350:57 *665:36 0.000227208
47 *350:57 *685:40 0
48 *350:57 *851:8 0
49 *350:73 *3709:A1 4.58097e-05
50 *350:73 *3988:A 0.000227307
51 *350:73 *3991:A 0.000194354
52 *350:73 *402:14 0.000255491
53 *350:73 *526:10 0.000346523
54 *350:73 *562:75 0
55 *350:73 *562:81 0
56 *350:73 *684:27 1.5769e-05
57 *3422:A0 *350:73 5.50106e-05
58 *129:8 *3439:S 0.000169683
59 *134:8 *350:57 0.000169683
60 *143:8 *350:73 0.000113244
61 *173:29 *4087:A 3.32096e-05
62 *349:14 *350:73 6.17437e-06
*RES
1 *3421:X *350:4 23 
2 *350:4 *350:20 48.4829 
3 *350:20 *350:26 46.2993 
4 *350:26 *350:30 17.0507 
5 *350:30 *350:36 21.8357 
6 *350:36 *3439:S 48.1914 
7 *350:36 *350:57 38.8629 
8 *350:57 *350:73 49.6786 
9 *350:73 *3422:S 23 
10 *350:57 *3480:S 23 
11 *350:30 *3456:S 23 
12 *350:4 *4087:A 25.5479 
*END

*D_NET *351 0.00038323
*CONN
*I *3424:A1 I *D sky130_fd_sc_hd__mux2_2
*I *3422:X O *D sky130_fd_sc_hd__mux2_2
*CAP
1 *3424:A1 3.59196e-05
2 *3422:X 3.59196e-05
3 *3424:A1 *3424:S 0.000133958
4 *3424:A1 *684:27 0.000177433
*RES
1 *3422:X *3424:A1 47.9575 
*END

*D_NET *352 0.0182325
*CONN
*I *3448:S I *D sky130_fd_sc_hd__mux2_2
*I *3471:B1 I *D sky130_fd_sc_hd__o21a_2
*I *3464:S I *D sky130_fd_sc_hd__mux2_2
*I *3431:B1 I *D sky130_fd_sc_hd__o21a_2
*I *3481:B2 I *D sky130_fd_sc_hd__a22o_2
*I *3440:S I *D sky130_fd_sc_hd__mux2_2
*I *3424:S I *D sky130_fd_sc_hd__mux2_2
*I *3457:B2 I *D sky130_fd_sc_hd__a22o_2
*I *3423:X O *D sky130_fd_sc_hd__buf_1
*CAP
1 *3448:S 0
2 *3471:B1 2.1727e-05
3 *3464:S 0
4 *3431:B1 0
5 *3481:B2 0
6 *3440:S 2.53514e-05
7 *3424:S 0.000231789
8 *3457:B2 0
9 *3423:X 0.000621334
10 *352:107 0.000277432
11 *352:73 0.000530855
12 *352:67 0.00120824
13 *352:58 0.00179893
14 *352:50 0.00143774
15 *352:44 0.00106078
16 *352:34 0.00162556
17 *352:14 0.000920857
18 *352:10 0.000703234
19 *3424:S *366:18 9.98514e-05
20 *3424:S *402:14 0.000137442
21 *3424:S *684:27 2.42565e-05
22 *3440:S *3440:A0 0.000141954
23 *3440:S *544:38 0.000141954
24 *3471:B1 *3471:A1 4.00259e-06
25 *352:10 *4010:A 0.000100947
26 *352:10 *370:10 0
27 *352:10 *442:10 0.00057812
28 *352:14 *3448:A1 0.00032099
29 *352:14 *461:6 1.71983e-05
30 *352:14 *727:22 0.000197774
31 *352:34 *3471:A1 9.64588e-05
32 *352:34 *3570:A_N 5.3304e-05
33 *352:34 *3725:B 0
34 *352:34 *393:14 1.57571e-05
35 *352:34 *431:10 0.000111129
36 *352:34 *432:12 3.76959e-05
37 *352:34 *451:8 2.13733e-05
38 *352:34 *461:6 5.56356e-05
39 *352:34 *461:18 4.4426e-05
40 *352:34 *562:302 9.80805e-05
41 *352:34 *562:329 2.97113e-05
42 *352:34 *600:73 0.000182087
43 *352:34 *700:10 5.25144e-05
44 *352:34 *700:66 0
45 *352:34 *727:22 4.16038e-05
46 *352:44 *3464:A1 0.000401094
47 *352:44 *3472:A1 5.57755e-05
48 *352:44 *394:10 9.88574e-06
49 *352:44 *413:24 0.000209405
50 *352:44 *451:8 1.73399e-05
51 *352:44 *525:115 4.6318e-06
52 *352:44 *562:23 0.000330436
53 *352:44 *599:59 0
54 *352:44 *674:8 1.79888e-05
55 *352:44 *674:12 7.59794e-05
56 *352:44 *683:69 0
57 *352:44 *685:10 5.50049e-05
58 *352:44 *727:28 0.000127821
59 *352:44 *727:34 9.84851e-05
60 *352:50 *3432:A2 2.32004e-05
61 *352:50 *3464:A1 5.56356e-05
62 *352:50 *358:14 5.3304e-05
63 *352:50 *388:12 0.000316755
64 *352:50 *413:24 3.35959e-05
65 *352:50 *681:44 0.000473495
66 *352:50 *681:52 9.5877e-05
67 *352:58 *3432:A2 6.46394e-05
68 *352:58 *3432:B1 3.16784e-05
69 *352:58 *3453:A1 8.82055e-05
70 *352:58 *3453:A2 2.30292e-05
71 *352:58 *360:8 5.67058e-05
72 *352:58 *378:10 0.000366442
73 *352:58 *461:34 0.000109717
74 *352:58 *674:39 0.000171111
75 *352:58 *729:94 3.79407e-05
76 *352:67 *3457:A1 0.000486396
77 *352:67 *378:10 4.09344e-05
78 *352:67 *648:6 5.72091e-05
79 *352:73 *402:14 0.000300117
80 *352:73 *648:6 3.53051e-05
81 *352:107 *3992:A 2.43944e-05
82 *352:107 *375:10 0.000205481
83 *352:107 *402:14 0.000199863
84 *352:107 *610:12 8.80821e-05
85 *352:107 *681:58 6.07929e-05
86 *352:107 *681:77 3.4702e-05
87 *3424:A1 *3424:S 0.000133958
88 *3570:D *352:34 5.50106e-05
89 *347:10 *3424:S 0
90 *347:10 *352:73 0
91 *349:14 *3424:S 3.70187e-05
*RES
1 *3423:X *352:10 49.3721 
2 *352:10 *352:14 18.9564 
3 *352:14 *352:34 46.675 
4 *352:34 *352:44 48.2493 
5 *352:44 *352:50 8.88643 
6 *352:50 *352:58 20.445 
7 *352:58 *3457:B2 23 
8 *352:58 *352:67 10.0464 
9 *352:67 *352:73 20.5929 
10 *352:73 *3424:S 43.4271 
11 *352:73 *3440:S 39.5743 
12 *352:67 *352:107 36.7943 
13 *352:107 *3481:B2 23 
14 *352:50 *3431:B1 23 
15 *352:44 *3464:S 23 
16 *352:34 *3471:B1 23.4971 
17 *352:14 *3448:S 23 
*END

*D_NET *353 0.00163543
*CONN
*I *3425:A I *D sky130_fd_sc_hd__buf_1
*I *3424:X O *D sky130_fd_sc_hd__mux2_2
*CAP
1 *3425:A 0
2 *3424:X 0.00057491
3 *353:12 0.00057491
4 *353:12 *3753:A 0.000221301
5 *353:12 *367:14 0.000264307
*RES
1 *3424:X *353:12 35.2421 
2 *353:12 *3425:A 23 
*END

*D_NET *354 0.000813973
*CONN
*I *3428:A0 I *D sky130_fd_sc_hd__mux2_2
*I *3426:X O *D sky130_fd_sc_hd__mux4_2
*CAP
1 *3428:A0 1.55776e-05
2 *3426:X 0.00018636
3 *354:8 0.000201938
4 *3428:A0 *3428:S 5.56356e-05
5 *3428:A0 *355:14 5.56356e-05
6 *354:8 *3428:S 0.000261808
7 *354:8 *355:14 3.70187e-05
*RES
1 *3426:X *354:8 42.3707 
2 *354:8 *3428:A0 38.6214 
*END

*D_NET *355 0.00300669
*CONN
*I *3428:A1 I *D sky130_fd_sc_hd__mux2_2
*I *3427:X O *D sky130_fd_sc_hd__mux4_2
*CAP
1 *3428:A1 0
2 *3427:X 0.000287647
3 *355:14 0.000558707
4 *355:8 0.000846354
5 *355:8 *3536:S 0.000346297
6 *355:14 *3428:S 0.000134473
7 *355:14 *3806:CLK 0
8 *355:14 *630:14 0.000391167
9 *355:14 *667:39 0.000349386
10 *3428:A0 *355:14 5.56356e-05
11 *354:8 *355:14 3.70187e-05
*RES
1 *3427:X *355:8 41.9564 
2 *355:8 *355:14 28.4643 
3 *355:14 *3428:A1 23 
*END

*D_NET *356 0.00462093
*CONN
*I *3433:A2 I *D sky130_fd_sc_hd__a21bo_2
*I *3428:X O *D sky130_fd_sc_hd__mux2_2
*CAP
1 *3433:A2 0
2 *3428:X 0.000167248
3 *356:14 0.000710921
4 *356:8 0.000878169
5 *356:8 *413:85 0.000200203
6 *356:8 *580:8 0.000219383
7 *356:8 *699:68 0.000305431
8 *356:14 *452:37 9.58714e-05
9 *356:14 *458:14 0.000191148
10 *356:14 *546:12 0.000816524
11 *356:14 *686:10 0.000163287
12 *356:14 *686:16 0.000454966
13 *356:14 *695:24 0
14 *356:14 *729:114 9.75779e-05
15 *356:14 *749:10 0.00015131
16 *356:14 *757:8 0.000168892
*RES
1 *3428:X *356:8 42.9093 
2 *356:8 *356:14 36.315 
3 *356:14 *3433:A2 23 
*END

*D_NET *357 0.00242896
*CONN
*I *3432:A2 I *D sky130_fd_sc_hd__o21ai_2
*I *3429:X O *D sky130_fd_sc_hd__mux4_2
*CAP
1 *3432:A2 0.000202341
2 *3429:X 0.000299604
3 *357:8 0.000501945
4 *3432:A2 *3432:B1 9.5877e-05
5 *3432:A2 *360:8 5.37348e-06
6 *3432:A2 *461:34 0.000223692
7 *3432:A2 *681:52 5.3304e-05
8 *3432:A2 *724:87 5.50049e-05
9 *357:8 *4024:A 0.000166513
10 *357:8 *358:14 0.000527238
11 *357:8 *388:12 2.34898e-05
12 *357:8 *388:16 2.24608e-05
13 *357:8 *633:35 0
14 *357:8 *681:52 0.000164282
15 *352:50 *3432:A2 2.32004e-05
16 *352:58 *3432:A2 6.46394e-05
*RES
1 *3429:X *357:8 46.2443 
2 *357:8 *3432:A2 43.4064 
*END

*D_NET *358 0.00373679
*CONN
*I *3431:A2 I *D sky130_fd_sc_hd__o21a_2
*I *3430:X O *D sky130_fd_sc_hd__mux4_2
*CAP
1 *3431:A2 0
2 *3430:X 4.2104e-05
3 *358:14 0.00104384
4 *358:8 0.00108595
5 *358:8 *582:27 1.73399e-05
6 *358:14 *3430:S0 0.000466473
7 *358:14 *4024:A 3.82956e-05
8 *358:14 *388:12 1.01436e-05
9 *358:14 *406:10 3.83778e-05
10 *358:14 *500:10 8.30753e-05
11 *358:14 *630:16 0.000111694
12 *358:14 *669:14 0
13 *358:14 *741:23 0.000218952
14 *120:8 *358:14 0
15 *352:50 *358:14 5.3304e-05
16 *357:8 *358:14 0.000527238
*RES
1 *3430:X *358:8 38.6214 
2 *358:8 *358:14 39.7121 
3 *358:14 *3431:A2 23 
*END

*D_NET *359 0.000213165
*CONN
*I *3432:B1 I *D sky130_fd_sc_hd__o21ai_2
*I *3431:X O *D sky130_fd_sc_hd__o21a_2
*CAP
1 *3432:B1 4.28046e-05
2 *3431:X 4.28046e-05
3 *3432:A2 *3432:B1 9.5877e-05
4 *352:58 *3432:B1 3.16784e-05
*RES
1 *3431:X *3432:B1 47.0979 
*END

*D_NET *360 0.00413693
*CONN
*I *3433:B1_N I *D sky130_fd_sc_hd__a21bo_2
*I *3432:Y O *D sky130_fd_sc_hd__o21ai_2
*CAP
1 *3433:B1_N 0
2 *3432:Y 1.659e-05
3 *360:14 0.00134342
4 *360:8 0.00136001
5 *360:8 *461:34 9.8971e-06
6 *360:14 *3788:CLK 0
7 *360:14 *3813:CLK 7.55729e-05
8 *360:14 *452:37 7.10716e-05
9 *360:14 *461:53 0
10 *360:14 *467:10 2.04774e-05
11 *360:14 *544:106 0
12 *360:14 *611:49 0
13 *360:14 *633:35 0.000248386
14 *360:14 *645:8 0
15 *360:14 *674:18 1.19796e-05
16 *360:14 *695:24 0.000167443
17 *3432:A2 *360:8 5.37348e-06
18 *52:8 *360:14 0.000168694
19 *84:8 *360:14 5.0896e-05
20 *92:8 *360:14 0.000530399
21 *352:58 *360:8 5.67058e-05
*RES
1 *3432:Y *360:8 38.6214 
2 *360:8 *360:14 44.8182 
3 *360:14 *3433:B1_N 23 
*END

*D_NET *361 0.00209033
*CONN
*I *3436:A0 I *D sky130_fd_sc_hd__mux2_2
*I *3434:X O *D sky130_fd_sc_hd__mux4_2
*CAP
1 *3436:A0 0
2 *3434:X 0.000635827
3 *361:10 0.000635827
4 *361:10 *3434:A0 0.000275403
5 *361:10 *3434:S0 0.000190664
6 *361:10 *461:88 0.000352612
*RES
1 *3434:X *361:10 49.5379 
2 *361:10 *3436:A0 38 
*END

*D_NET *362 0.00227722
*CONN
*I *3436:A1 I *D sky130_fd_sc_hd__mux2_2
*I *3435:X O *D sky130_fd_sc_hd__mux4_2
*CAP
1 *3436:A1 0.000480868
2 *3435:X 0.000141201
3 *362:10 0.000622069
4 *3436:A1 *363:8 1.90678e-05
5 *3436:A1 *577:25 0.000135037
6 *3436:A1 *622:82 0.000135037
7 *3436:A1 *688:93 0.000397846
8 *362:10 *3540:A1 0
9 *362:10 *766:31 5.54294e-05
10 *362:10 *774:29 4.75505e-05
11 *73:10 *3436:A1 0.00022159
12 *89:10 *3436:A1 2.15233e-05
*RES
1 *3435:X *362:10 40.175 
2 *362:10 *3436:A1 48.6264 
*END

*D_NET *363 0.00794559
*CONN
*I *3440:A0 I *D sky130_fd_sc_hd__mux2_2
*I *3436:X O *D sky130_fd_sc_hd__mux2_2
*CAP
1 *3440:A0 0.000212153
2 *3436:X 0.000372629
3 *363:18 0.00196344
4 *363:8 0.00212392
5 *3440:A0 *544:38 0.000216776
6 *3440:A0 *681:58 7.88828e-05
7 *363:8 *3436:S 2.95526e-05
8 *363:8 *577:25 0.000101152
9 *363:18 *3807:CLK 0
10 *363:18 *376:8 0.000135557
11 *363:18 *402:14 0
12 *363:18 *460:10 7.38036e-05
13 *363:18 *461:88 0
14 *363:18 *562:75 0.000607379
15 *363:18 *562:106 0.000898317
16 *363:18 *577:25 0.000305103
17 *363:18 *652:10 0.000203009
18 *363:18 *681:58 0
19 *363:18 *681:77 0
20 *363:18 *695:66 0
21 *363:18 *699:93 0.000353452
22 *3436:A1 *363:8 1.90678e-05
23 *3440:S *3440:A0 0.000141954
24 *86:10 *363:18 0
25 *94:8 *363:18 0.000109443
*RES
1 *3436:X *363:8 42.9093 
2 *363:8 *363:18 42.8786 
3 *363:18 *3440:A0 43.8621 
*END

*D_NET *364 0.000771015
*CONN
*I *3439:A0 I *D sky130_fd_sc_hd__mux2_2
*I *3437:X O *D sky130_fd_sc_hd__mux4_2
*CAP
1 *3439:A0 0
2 *3437:X 0.00027675
3 *364:10 0.00027675
4 *364:10 *3437:S0 2.93845e-05
5 *364:10 *366:16 0.000188131
6 *364:10 *822:10 0
7 *3439:S *364:10 0
8 *129:8 *364:10 0
*RES
1 *3437:X *364:10 43.6964 
2 *364:10 *3439:A0 38 
*END

*D_NET *365 0.00199905
*CONN
*I *3439:A1 I *D sky130_fd_sc_hd__mux2_2
*I *3438:X O *D sky130_fd_sc_hd__mux4_2
*CAP
1 *3439:A1 0
2 *3438:X 0
3 *365:12 0.000741356
4 *365:6 0.000741356
5 *365:12 *3438:A0 8.57393e-05
6 *365:12 *3438:S1 0
7 *365:12 *3610:A0 4.73585e-05
8 *365:12 *366:16 8.72173e-05
9 *365:12 *473:10 0
10 *365:12 *501:10 0.000137651
11 *365:12 *516:57 0
12 *365:12 *621:41 0
13 *365:12 *621:78 0.000137651
14 *365:12 *664:42 1.40087e-05
15 *365:12 *684:50 0
16 *365:12 *798:8 6.7177e-06
*RES
1 *3438:X *365:6 38 
2 *365:6 *365:12 29.0443 
3 *365:12 *3439:A1 23 
*END

*D_NET *366 0.00755673
*CONN
*I *3440:A1 I *D sky130_fd_sc_hd__mux2_2
*I *3439:X O *D sky130_fd_sc_hd__mux2_2
*CAP
1 *3440:A1 6.94194e-05
2 *3439:X 8.65463e-05
3 *366:18 0.00139614
4 *366:16 0.00195785
5 *366:8 0.000717677
6 *3440:A1 *544:38 9.84794e-05
7 *366:8 *621:78 7.4416e-05
8 *366:16 *3437:A3 9.20785e-05
9 *366:16 *3679:A0 8.90674e-06
10 *366:16 *3713:A0 6.17437e-06
11 *366:16 *3713:A1 2.79603e-05
12 *366:16 *3713:S 0.000100477
13 *366:16 *510:10 0
14 *366:16 *516:57 0
15 *366:16 *822:10 0
16 *366:16 *830:10 0.000117574
17 *366:18 *3420:A0 9.98891e-05
18 *366:18 *3484:A0 0.000137797
19 *366:18 *3713:A1 4.20525e-05
20 *366:18 *3988:A 0
21 *366:18 *402:14 0.000171794
22 *366:18 *404:77 0.00107219
23 *366:18 *405:14 0
24 *366:18 *516:70 0.00011169
25 *366:18 *533:10 0.00010133
26 *366:18 *592:31 0.000223225
27 *366:18 *625:50 4.01468e-05
28 *366:18 *836:14 8.57577e-05
29 *3424:S *366:18 9.98514e-05
30 *3439:S *366:16 0
31 *347:10 *366:18 0
32 *349:14 *366:18 0.000341956
33 *364:10 *366:16 0.000188131
34 *365:12 *366:16 8.72173e-05
*RES
1 *3439:X *366:8 39.5743 
2 *366:8 *366:16 43.9407 
3 *366:16 *366:18 36.4157 
4 *366:18 *3440:A1 39.0979 
*END

*D_NET *367 0.0026628
*CONN
*I *3441:A I *D sky130_fd_sc_hd__buf_1
*I *3440:X O *D sky130_fd_sc_hd__mux2_2
*CAP
1 *3441:A 0
2 *3440:X 0.000115239
3 *367:14 0.000606076
4 *367:8 0.000721315
5 *367:8 *3526:A1 0
6 *367:8 *544:38 3.2457e-05
7 *367:8 *609:40 0
8 *367:14 *3753:A 0.000399172
9 *367:14 *644:10 2.07484e-05
10 *367:14 *684:27 0.000227208
11 *163:10 *367:14 5.73309e-05
12 *347:10 *367:8 0.000218952
13 *353:12 *367:14 0.000264307
*RES
1 *3440:X *367:8 40.9621 
2 *367:8 *367:14 28.9821 
3 *367:14 *3441:A 23 
*END

*D_NET *368 0.00143495
*CONN
*I *3444:A0 I *D sky130_fd_sc_hd__mux2_2
*I *3442:X O *D sky130_fd_sc_hd__mux4_2
*CAP
1 *3444:A0 8.46703e-05
2 *3442:X 0.000353551
3 *368:10 0.000438221
4 *3444:A0 *369:12 0.000184576
5 *368:10 *370:10 0.000321368
6 *368:10 *571:8 0
7 *368:10 *729:76 5.25626e-05
*RES
1 *3442:X *368:10 43.945 
2 *368:10 *3444:A0 40.0507 
*END

*D_NET *369 0.00346137
*CONN
*I *3444:A1 I *D sky130_fd_sc_hd__mux2_2
*I *3443:X O *D sky130_fd_sc_hd__mux4_2
*CAP
1 *3444:A1 0
2 *3443:X 0
3 *369:12 0.00118159
4 *369:6 0.00118159
5 *369:12 *3524:A1 0
6 *369:12 *3984:A 0.000188934
7 *369:12 *3985:A 0.00068766
8 *369:12 *442:24 0
9 *369:12 *571:8 3.70187e-05
10 *369:12 *602:21 0
11 *369:12 *687:54 0
12 *369:12 *767:10 0
13 *3444:A0 *369:12 0.000184576
*RES
1 *3443:X *369:6 38 
2 *369:6 *369:12 37.91 
3 *369:12 *3444:A1 23 
*END

*D_NET *370 0.00268223
*CONN
*I *3448:A0 I *D sky130_fd_sc_hd__mux2_2
*I *3444:X O *D sky130_fd_sc_hd__mux2_2
*CAP
1 *3448:A0 0
2 *3444:X 0
3 *370:10 0.000756601
4 *370:6 0.000756601
5 *370:10 *3442:A0 0.000138747
6 *370:10 *3985:A 0
7 *370:10 *432:20 0.000161905
8 *370:10 *442:10 0
9 *370:10 *534:10 0.000378492
10 *370:10 *562:347 0
11 *370:10 *571:8 0
12 *370:10 *855:8 0.000168515
13 *352:10 *370:10 0
14 *368:10 *370:10 0.000321368
*RES
1 *3444:X *370:6 38 
2 *370:6 *370:10 32.4 
3 *370:10 *3448:A0 23 
*END

*D_NET *371 0.000216932
*CONN
*I *3447:A0 I *D sky130_fd_sc_hd__mux2_2
*I *3445:X O *D sky130_fd_sc_hd__mux4_2
*CAP
1 *3447:A0 0
2 *3445:X 5.83758e-05
3 *371:8 5.83758e-05
4 *371:8 *3664:A0 5.34638e-05
5 *371:8 *372:12 4.11274e-05
6 *371:8 *823:10 5.58975e-06
*RES
1 *3445:X *371:8 39.5536 
2 *371:8 *3447:A0 38 
*END

*D_NET *372 0.00348123
*CONN
*I *3447:A1 I *D sky130_fd_sc_hd__mux2_2
*I *3446:X O *D sky130_fd_sc_hd__mux4_2
*CAP
1 *3447:A1 0
2 *3446:X 0.000317929
3 *372:12 0.000875586
4 *372:8 0.00119352
5 *372:12 *3681:A0 0
6 *372:12 *568:14 0.00078372
7 *372:12 *595:54 6.45006e-05
8 *372:12 *632:25 0.000204851
9 *372:12 *743:21 0
10 *371:8 *372:12 4.11274e-05
*RES
1 *3446:X *372:8 41.9564 
2 *372:8 *372:12 35.9214 
3 *372:12 *3447:A1 23 
*END

*D_NET *373 0.00753545
*CONN
*I *3448:A1 I *D sky130_fd_sc_hd__mux2_2
*I *3447:X O *D sky130_fd_sc_hd__mux2_2
*CAP
1 *3448:A1 9.88582e-05
2 *3447:X 0.000143666
3 *373:10 0.00207018
4 *373:8 0.00211498
5 *3448:A1 *461:6 0.000400402
6 *3448:A1 *727:22 2.56886e-05
7 *373:10 *3656:B 0.000192087
8 *373:10 *3664:A0 4.89774e-05
9 *373:10 *403:36 0.00123488
10 *373:10 *404:27 0
11 *373:10 *441:10 0.000402855
12 *373:10 *442:10 0.000110913
13 *373:10 *683:59 4.83838e-05
14 *373:10 *703:82 0
15 *373:10 *705:10 0
16 *373:10 *705:32 0
17 *373:10 *869:14 0.00017165
18 *173:10 *373:10 0
19 *218:16 *373:10 0.000150936
20 *352:14 *3448:A1 0.00032099
*RES
1 *3447:X *373:8 39.5743 
2 *373:8 *373:10 43.8107 
3 *373:10 *3448:A1 42.4329 
*END

*D_NET *374 0.00825343
*CONN
*I *3449:A I *D sky130_fd_sc_hd__buf_1
*I *3448:X O *D sky130_fd_sc_hd__mux2_2
*CAP
1 *3449:A 0
2 *3448:X 0
3 *374:16 0.000605463
4 *374:6 0.00343065
5 *374:4 0.00282519
6 *374:6 *461:6 0.000174942
7 *374:6 *727:22 0.000268748
8 *374:6 *909:14 0.00020619
9 *374:16 *3937:CLK 0.000314596
10 *374:16 *3937:D 7.44257e-05
11 *374:16 *3937:RESET_B 7.58054e-05
12 *374:16 *738:14 0.000136486
13 *374:16 *739:12 2.93747e-05
14 *188:58 *374:6 8.22203e-05
15 *201:12 *374:6 2.93335e-05
*RES
1 *3448:X *374:4 23 
2 *374:4 *374:6 38.7357 
3 *374:6 *374:16 43.0293 
4 *374:16 *3449:A 23 
*END

*D_NET *375 0.00114626
*CONN
*I *3451:B I *D sky130_fd_sc_hd__or2_2
*I *3450:X O *D sky130_fd_sc_hd__mux4_2
*CAP
1 *3451:B 0
2 *3450:X 0.000333447
3 *375:10 0.000333447
4 *375:10 *3992:A 1.46708e-05
5 *375:10 *610:12 9.58714e-05
6 *375:10 *681:58 1.14452e-05
7 *375:10 *681:77 0.000151898
8 *352:107 *375:10 0.000205481
*RES
1 *3450:X *375:10 43.7379 
2 *375:10 *3451:B 38 
*END

*D_NET *376 0.00128284
*CONN
*I *3457:A1 I *D sky130_fd_sc_hd__a22o_2
*I *3451:X O *D sky130_fd_sc_hd__or2_2
*CAP
1 *3457:A1 0.000149082
2 *3451:X 7.66906e-05
3 *376:8 0.000225772
4 *3457:A1 *378:10 4.06285e-05
5 *3457:A1 *648:6 0.000127379
6 *376:8 *681:58 4.13358e-05
7 *352:67 *3457:A1 0.000486396
8 *363:18 *376:8 0.000135557
*RES
1 *3451:X *376:8 39.9057 
2 *376:8 *3457:A1 43.3857 
*END

*D_NET *377 0.00135352
*CONN
*I *3453:A2 I *D sky130_fd_sc_hd__o21a_2
*I *3452:X O *D sky130_fd_sc_hd__mux4_2
*CAP
1 *3453:A2 1.66872e-05
2 *3452:X 0.00038191
3 *377:10 0.000398597
4 *3453:A2 *461:34 2.93845e-05
5 *377:10 *3544:A0 1.14452e-05
6 *377:10 *562:56 0.000119921
7 *377:10 *612:24 0
8 *377:10 *729:94 0.000153585
9 *377:10 *768:10 0.000218962
10 *75:10 *377:10 0
11 *352:58 *3453:A2 2.30292e-05
*RES
1 *3452:X *377:10 46.1614 
2 *377:10 *3453:A2 38.6214 
*END

*D_NET *378 0.000951034
*CONN
*I *3457:A2 I *D sky130_fd_sc_hd__a22o_2
*I *3453:X O *D sky130_fd_sc_hd__o21a_2
*CAP
1 *3457:A2 0
2 *3453:X 0.000251514
3 *378:10 0.000251514
4 *3457:A1 *378:10 4.06285e-05
5 *352:58 *378:10 0.000366442
6 *352:67 *378:10 4.09344e-05
*RES
1 *3453:X *378:10 29.5302 
2 *378:10 *3457:A2 23 
*END

*D_NET *379 0.00354066
*CONN
*I *3456:A0 I *D sky130_fd_sc_hd__mux2_2
*I *3454:X O *D sky130_fd_sc_hd__mux4_2
*CAP
1 *3456:A0 0.000450509
2 *3454:X 0.00052121
3 *379:10 0.000971719
4 *3456:A0 *380:22 0.000655391
5 *3456:A0 *530:10 5.3304e-05
6 *379:10 *3454:A0 0.00010018
7 *379:10 *3454:A1 9.90162e-05
8 *379:10 *581:10 0.000178693
9 *379:10 *581:16 0.000308661
10 *379:10 *590:25 0.000116548
11 *3852:D *3456:A0 8.54287e-05
*RES
1 *3454:X *379:10 48.9164 
2 *379:10 *3456:A0 48.3157 
*END

*D_NET *380 0.00531508
*CONN
*I *3456:A1 I *D sky130_fd_sc_hd__mux2_2
*I *3455:X O *D sky130_fd_sc_hd__mux4_2
*CAP
1 *3456:A1 0
2 *3455:X 0.00029637
3 *380:22 0.00120192
4 *380:10 0.00149829
5 *380:10 *3455:A0 9.23357e-05
6 *380:10 *3455:S0 0
7 *380:10 *3614:A0 0.000150977
8 *380:10 *475:8 0
9 *380:10 *591:37 0
10 *380:10 *800:8 0.000120131
11 *380:22 *3454:A1 0
12 *380:22 *3455:S0 0
13 *380:22 *3717:A1 2.64616e-05
14 *380:22 *581:10 0.000138142
15 *380:22 *581:16 0.000832989
16 *380:22 *591:37 0
17 *3456:A0 *380:22 0.000655391
18 *3852:D *380:22 8.54287e-05
19 *350:30 *380:22 0.000181794
20 *350:36 *380:22 3.48471e-05
*RES
1 *3455:X *380:10 44.5768 
2 *380:10 *380:22 40.8204 
3 *380:22 *3456:A1 23 
*END

*D_NET *381 0.00791522
*CONN
*I *3457:B1 I *D sky130_fd_sc_hd__a22o_2
*I *3456:X O *D sky130_fd_sc_hd__mux2_2
*CAP
1 *3457:B1 0
2 *3456:X 0.000181134
3 *381:28 0.00377391
4 *381:14 0.00395504
5 *381:14 *594:10 0
6 *350:36 *381:14 5.13783e-06
*RES
1 *3456:X *381:14 47.7457 
2 *381:14 *381:28 49.9501 
3 *381:28 *3457:B1 23 
*END

*D_NET *382 0.000427008
*CONN
*I *3460:A0 I *D sky130_fd_sc_hd__mux2_2
*I *3458:X O *D sky130_fd_sc_hd__mux4_2
*CAP
1 *3460:A0 0
2 *3458:X 9.92944e-05
3 *382:10 9.92944e-05
4 *382:10 *383:14 0.00014411
5 *382:10 *681:32 7.03663e-05
6 *382:10 *865:12 1.39431e-05
*RES
1 *3458:X *382:10 40.5271 
2 *382:10 *3460:A0 38 
*END

*D_NET *383 0.00370511
*CONN
*I *3460:A1 I *D sky130_fd_sc_hd__mux2_2
*I *3459:X O *D sky130_fd_sc_hd__mux4_2
*CAP
1 *3460:A1 0
2 *3459:X 0.00011508
3 *383:14 0.000971359
4 *383:8 0.00108644
5 *383:8 *3459:A0 0.000137651
6 *383:14 *3546:A0 0.000108681
7 *383:14 *432:30 2.11066e-05
8 *383:14 *448:10 6.08751e-05
9 *383:14 *452:14 0
10 *383:14 *599:59 0
11 *383:14 *634:39 0.000887639
12 *383:14 *666:16 0
13 *383:14 *681:32 1.058e-05
14 *383:14 *687:101 0.000161594
15 *383:14 *865:8 0
16 *156:10 *383:14 0
17 *382:10 *383:14 0.00014411
*RES
1 *3459:X *383:8 39.5743 
2 *383:8 *383:14 37.9514 
3 *383:14 *3460:A1 23 
*END

*D_NET *384 0.000762642
*CONN
*I *3464:A0 I *D sky130_fd_sc_hd__mux2_2
*I *3460:X O *D sky130_fd_sc_hd__mux2_2
*CAP
1 *3464:A0 0
2 *3460:X 0.000299021
3 *384:10 0.000299021
4 *384:10 *544:32 5.10946e-06
5 *384:10 *562:23 9.48568e-05
6 *384:10 *681:44 5.44904e-05
7 *384:10 *865:28 1.01436e-05
*RES
1 *3460:X *384:10 42.2154 
2 *384:10 *3464:A0 38 
*END

*D_NET *385 0.00036899
*CONN
*I *3463:A0 I *D sky130_fd_sc_hd__mux2_2
*I *3461:X O *D sky130_fd_sc_hd__mux4_2
*CAP
1 *3463:A0 0
2 *3461:X 4.13286e-05
3 *385:8 4.13286e-05
4 *385:8 *386:16 0.000143166
5 *385:8 *692:30 0.000143166
*RES
1 *3461:X *385:8 39.9057 
2 *385:8 *3463:A0 38 
*END

*D_NET *386 0.00372352
*CONN
*I *3463:A1 I *D sky130_fd_sc_hd__mux2_2
*I *3462:X O *D sky130_fd_sc_hd__mux4_2
*CAP
1 *3463:A1 0
2 *3462:X 3.12643e-05
3 *386:16 0.000957849
4 *386:8 0.000989114
5 *386:8 *685:93 3.58055e-05
6 *386:16 *3446:S0 1.7403e-05
7 *386:16 *3981:A 0
8 *386:16 *504:10 0.000370869
9 *386:16 *562:248 0.000219013
10 *386:16 *562:256 9.88678e-05
11 *386:16 *598:24 0
12 *386:16 *692:30 5.3603e-05
13 *386:16 *692:32 0.000130606
14 *386:16 *692:38 0.000675958
15 *385:8 *386:16 0.000143166
*RES
1 *3462:X *386:8 38.6214 
2 *386:8 *386:16 39.505 
3 *386:16 *3463:A1 23 
*END

*D_NET *387 0.00856826
*CONN
*I *3464:A1 I *D sky130_fd_sc_hd__mux2_2
*I *3463:X O *D sky130_fd_sc_hd__mux2_2
*CAP
1 *3464:A1 9.96574e-05
2 *3463:X 0
3 *387:8 0.00121784
4 *387:6 0.00111819
5 *3464:A1 *413:24 0.000443207
6 *387:8 *3721:A0 0.00042579
7 *387:8 *3822:CLK 0.000237291
8 *387:8 *495:10 0.000246748
9 *387:8 *597:8 0.000359539
10 *387:8 *597:12 6.437e-05
11 *387:8 *599:59 0.000127628
12 *387:8 *634:35 0.00182359
13 *387:8 *634:39 4.04573e-05
14 *387:8 *692:30 0.00147061
15 *387:8 *721:42 0.000270476
16 *387:8 *721:79 0.000166133
17 *352:44 *3464:A1 0.000401094
18 *352:50 *3464:A1 5.56356e-05
*RES
1 *3463:X *387:6 38 
2 *387:6 *387:8 40.6414 
3 *387:8 *3464:A1 42.9093 
*END

*D_NET *388 0.0116881
*CONN
*I *3465:A I *D sky130_fd_sc_hd__buf_1
*I *3464:X O *D sky130_fd_sc_hd__mux2_2
*CAP
1 *3465:A 0
2 *3464:X 0.000246623
3 *388:24 0.000177579
4 *388:18 0.00380197
5 *388:16 0.00408959
6 *388:12 0.000711824
7 *388:12 *630:16 3.34859e-05
8 *388:16 *630:16 0.000116119
9 *388:16 *697:72 0.00034711
10 *388:16 *724:49 2.271e-05
11 *388:16 *724:73 0.000900951
12 *388:16 *724:87 3.47879e-05
13 *388:18 *3477:A2 5.5792e-05
14 *388:18 *3544:A0 0.000146999
15 *388:18 *3544:S 1.61361e-05
16 *388:18 *399:8 0.000240683
17 *388:18 *437:10 5.3304e-05
18 *388:18 *618:83 9.27264e-06
19 *388:18 *652:20 0.000177063
20 *388:18 *674:54 1.35714e-05
21 *388:18 *724:32 1.59094e-05
22 *388:18 *724:36 3.20631e-05
23 *388:18 *761:10 6.89359e-06
24 *388:24 *650:8 6.15779e-05
25 *3804:D *388:18 3.24476e-06
26 *352:50 *388:12 0.000316755
27 *357:8 *388:12 2.34898e-05
28 *357:8 *388:16 2.24608e-05
29 *358:14 *388:12 1.01436e-05
*RES
1 *3464:X *388:12 43.1268 
2 *388:12 *388:16 29.7589 
3 *388:16 *388:18 46.835 
4 *388:18 *388:24 33.6664 
5 *388:24 *3465:A 23 
*END

*D_NET *389 0.00126865
*CONN
*I *3468:A0 I *D sky130_fd_sc_hd__mux2_2
*I *3466:X O *D sky130_fd_sc_hd__mux4_2
*CAP
1 *3468:A0 0.00015872
2 *3466:X 6.5448e-05
3 *389:8 0.000224168
4 *3468:A0 *3468:A1 3.59538e-05
5 *3468:A0 *3468:S 7.43345e-05
6 *3468:A0 *3739:A0 5.3304e-05
7 *3468:A0 *3739:S 9.84851e-05
8 *3468:A0 *688:47 6.17437e-06
9 *3468:A0 *722:18 0.000313255
10 *389:8 *390:10 8.62876e-05
11 *389:8 *442:37 0.000135557
12 *389:8 *688:142 1.69668e-05
*RES
1 *3466:X *389:8 39.9057 
2 *389:8 *3468:A0 42.9093 
*END

*D_NET *390 0.00286869
*CONN
*I *3468:A1 I *D sky130_fd_sc_hd__mux2_2
*I *3467:X O *D sky130_fd_sc_hd__mux4_2
*CAP
1 *3468:A1 0.000313817
2 *3467:X 0.000347391
3 *390:10 0.000661208
4 *3468:A1 *3468:S 3.91683e-06
5 *3468:A1 *3739:A0 5.3304e-05
6 *3468:A1 *722:18 0.000227208
7 *390:10 *3467:A1 2.64616e-05
8 *390:10 *442:37 0.00012812
9 *390:10 *544:169 0.000230707
10 *390:10 *635:10 7.64851e-06
11 *390:10 *635:28 1.38338e-05
12 *390:10 *688:142 5.41369e-05
13 *390:10 *722:76 0.00032159
14 *390:10 *866:23 0.000162789
15 *3468:A0 *3468:A1 3.59538e-05
16 *77:10 *390:10 0.000194318
17 *389:8 *390:10 8.62876e-05
*RES
1 *3467:X *390:10 48.2743 
2 *390:10 *3468:A1 42.4329 
*END

*D_NET *391 0.000390004
*CONN
*I *3473:A2 I *D sky130_fd_sc_hd__a21bo_2
*I *3468:X O *D sky130_fd_sc_hd__mux2_2
*CAP
1 *3473:A2 0
2 *3468:X 0.000108239
3 *391:10 0.000108239
4 *391:10 *461:181 7.03663e-05
5 *391:10 *688:47 5.50106e-05
6 *26:20 *391:10 4.81484e-05
*RES
1 *3468:X *391:10 40.5271 
2 *391:10 *3473:A2 38 
*END

*D_NET *392 0.00234292
*CONN
*I *3472:A2 I *D sky130_fd_sc_hd__o21ai_2
*I *3469:X O *D sky130_fd_sc_hd__mux4_2
*CAP
1 *3472:A2 0
2 *3469:X 5.24681e-05
3 *392:14 0.000594844
4 *392:8 0.000647312
5 *392:8 *507:24 4.49581e-06
6 *392:14 *3472:A1 0
7 *392:14 *394:10 0.000317323
8 *392:14 *413:16 7.44257e-05
9 *392:14 *570:10 4.5628e-05
10 *392:14 *674:8 0
11 *392:14 *691:8 8.51432e-05
12 *392:14 *726:37 0.000198511
13 *392:14 *727:28 4.77568e-05
14 *392:14 *727:34 9.7043e-05
15 *392:14 *826:8 8.78864e-05
16 *26:22 *392:14 9.0086e-05
*RES
1 *3469:X *392:8 38.6214 
2 *392:8 *392:14 29.7486 
3 *392:14 *3472:A2 23 
*END

*D_NET *393 0.00351022
*CONN
*I *3471:A2 I *D sky130_fd_sc_hd__o21a_2
*I *3470:X O *D sky130_fd_sc_hd__mux4_2
*CAP
1 *3471:A2 0
2 *3470:X 5.45698e-05
3 *393:14 0.000803863
4 *393:8 0.000858433
5 *393:14 *3471:A1 2.00104e-05
6 *393:14 *451:8 5.50049e-05
7 *393:14 *470:25 0.000188916
8 *393:14 *562:200 0.000809922
9 *393:14 *721:10 0.000251352
10 *393:14 *721:12 0.000251756
11 *125:10 *393:14 0.000110458
12 *202:65 *393:14 7.80954e-05
13 *202:78 *393:14 1.20764e-05
14 *352:34 *393:14 1.57571e-05
*RES
1 *3470:X *393:8 38.6214 
2 *393:8 *393:14 37.9514 
3 *393:14 *3471:A2 23 
*END

*D_NET *394 0.00110517
*CONN
*I *3472:B1 I *D sky130_fd_sc_hd__o21ai_2
*I *3471:X O *D sky130_fd_sc_hd__o21a_2
*CAP
1 *3472:B1 0
2 *3471:X 0.000221702
3 *394:10 0.000221702
4 *394:10 *727:28 0.000334561
5 *352:44 *394:10 9.88574e-06
6 *392:14 *394:10 0.000317323
*RES
1 *3471:X *394:10 43.4686 
2 *394:10 *3472:B1 38 
*END

*D_NET *395 0.00635115
*CONN
*I *3473:B1_N I *D sky130_fd_sc_hd__a21bo_2
*I *3472:Y O *D sky130_fd_sc_hd__o21ai_2
*CAP
1 *3473:B1_N 0.000106871
2 *3472:Y 0
3 *395:8 0.00181428
4 *395:6 0.00170741
5 *3473:B1_N *413:75 0.000152679
6 *3473:B1_N *729:37 5.50049e-05
7 *395:8 *3442:A2 0
8 *395:8 *3571:A 0
9 *395:8 *413:48 0
10 *395:8 *413:69 0.000174931
11 *395:8 *461:168 0.000432528
12 *395:8 *461:181 0.000373573
13 *395:8 *548:10 4.83785e-05
14 *395:8 *751:10 0
15 *26:20 *395:8 0.000375502
16 *26:22 *395:8 0.00110999
17 *162:10 *395:8 0
*RES
1 *3472:Y *395:6 38 
2 *395:6 *395:8 43.8107 
3 *395:8 *3473:B1_N 40.8689 
*END

*D_NET *396 0.0011447
*CONN
*I *3475:B I *D sky130_fd_sc_hd__or2_2
*I *3474:X O *D sky130_fd_sc_hd__mux4_2
*CAP
1 *3475:B 0.000229385
2 *3474:X 0.000127107
3 *396:8 0.000356493
4 *396:8 *544:61 0.000105943
5 *347:10 *396:8 0.000325773
*RES
1 *3474:X *396:8 42.3707 
2 *396:8 *3475:B 41.48 
*END

*D_NET *397 0.00221749
*CONN
*I *3481:A1 I *D sky130_fd_sc_hd__a22o_2
*I *3475:X O *D sky130_fd_sc_hd__or2_2
*CAP
1 *3481:A1 0
2 *3475:X 0.00032162
3 *397:10 0.00032162
4 *397:10 *3807:CLK 0.000165926
5 *397:10 *610:12 0.000163352
6 *397:10 *610:23 0.000453797
7 *397:10 *681:77 0.000791172
*RES
1 *3475:X *397:10 48.9786 
2 *397:10 *3481:A1 38 
*END

*D_NET *398 0.00159335
*CONN
*I *3477:A2 I *D sky130_fd_sc_hd__o21a_2
*I *3476:X O *D sky130_fd_sc_hd__mux4_2
*CAP
1 *3477:A2 1.11013e-05
2 *3476:X 0.000496549
3 *398:8 0.000507651
4 *3477:A2 *3544:A0 5.82853e-05
5 *398:8 *3568:A0 0.000341568
6 *398:8 *440:8 0
7 *398:8 *544:116 0
8 *398:8 *666:24 4.75766e-05
9 *398:8 *720:87 1.80419e-05
10 *398:8 *729:86 2.88827e-05
11 *398:8 *771:8 2.79004e-05
12 *388:18 *3477:A2 5.5792e-05
*RES
1 *3476:X *398:8 48.005 
2 *398:8 *3477:A2 38.6214 
*END

*D_NET *399 0.00313707
*CONN
*I *3481:A2 I *D sky130_fd_sc_hd__a22o_2
*I *3477:X O *D sky130_fd_sc_hd__o21a_2
*CAP
1 *3481:A2 0.000263861
2 *3477:X 0.000543742
3 *399:8 0.000807603
4 *3481:A2 *3992:A 3.97587e-05
5 *3481:A2 *610:12 3.85934e-05
6 *3481:A2 *652:10 0.000556964
7 *3481:A2 *681:77 0.000177878
8 *399:8 *618:83 5.56356e-05
9 *399:8 *652:20 5.3304e-05
10 *399:8 *784:10 0.000144494
11 *83:8 *3481:A2 0.000214556
12 *388:18 *399:8 0.000240683
*RES
1 *3477:X *399:8 49.1029 
2 *399:8 *3481:A2 46.7207 
*END

*D_NET *400 0.00304559
*CONN
*I *3480:A0 I *D sky130_fd_sc_hd__mux2_2
*I *3478:X O *D sky130_fd_sc_hd__mux4_2
*CAP
1 *3480:A0 0.000414198
2 *3478:X 0.000466194
3 *400:14 0.000880392
4 *3480:A0 *665:36 0.000442062
5 *400:14 *3478:S0 0.000184125
6 *400:14 *498:42 0
7 *400:14 *506:8 8.62783e-05
8 *400:14 *567:8 0.000105374
9 *400:14 *827:8 2.86209e-05
10 *400:14 *835:10 0.000207738
11 *350:57 *3480:A0 0.000230604
*RES
1 *3478:X *400:14 48.3571 
2 *400:14 *3480:A0 46.265 
*END

*D_NET *401 0.0040134
*CONN
*I *3480:A1 I *D sky130_fd_sc_hd__mux2_2
*I *3479:X O *D sky130_fd_sc_hd__mux4_2
*CAP
1 *3480:A1 0
2 *3479:X 0
3 *401:12 0.00123999
4 *401:6 0.00123999
5 *401:12 *3479:S0 0
6 *401:12 *3484:A1 5.3304e-05
7 *401:12 *404:57 0.00035322
8 *401:12 *412:10 0.000248715
9 *401:12 *524:8 0
10 *401:12 *631:18 0.000173513
11 *401:12 *665:36 0.000195448
12 *401:12 *684:31 0.000457321
13 *401:12 *719:68 5.19048e-05
*RES
1 *3479:X *401:6 38 
2 *401:6 *401:12 37.9721 
3 *401:12 *3480:A1 23 
*END

*D_NET *402 0.0047684
*CONN
*I *3481:B1 I *D sky130_fd_sc_hd__a22o_2
*I *3480:X O *D sky130_fd_sc_hd__mux2_2
*CAP
1 *3481:B1 0
2 *3480:X 3.16967e-05
3 *402:14 0.00105753
4 *402:8 0.00108922
5 *402:8 *665:36 2.93747e-05
6 *402:14 *3988:A 0.000220464
7 *402:14 *3991:A 8.97167e-05
8 *402:14 *3992:A 2.64616e-05
9 *402:14 *466:10 0.000163361
10 *402:14 *562:75 0
11 *402:14 *610:12 6.16439e-05
12 *402:14 *681:58 0
13 *3424:S *402:14 0.000137442
14 *143:8 *402:14 0.000113244
15 *347:10 *402:14 0
16 *349:14 *402:14 0.000820983
17 *350:73 *402:14 0.000255491
18 *352:73 *402:14 0.000300117
19 *352:107 *402:14 0.000199863
20 *363:18 *402:14 0
21 *366:18 *402:14 0.000171794
*RES
1 *3480:X *402:8 38.6214 
2 *402:8 *402:14 44.6421 
3 *402:14 *3481:B1 23 
*END

*D_NET *403 0.00568855
*CONN
*I *3534:C I *D sky130_fd_sc_hd__and3_2
*I *3725:C I *D sky130_fd_sc_hd__and3b_2
*I *3656:B I *D sky130_fd_sc_hd__and3b_2
*I *3483:C_N I *D sky130_fd_sc_hd__nor3b_4
*I *3482:X O *D sky130_fd_sc_hd__and4bb_2
*CAP
1 *3534:C 2.98063e-05
2 *3725:C 0.000132329
3 *3656:B 0.000303829
4 *3483:C_N 3.32149e-05
5 *3482:X 0.00010492
6 *403:36 0.000919929
7 *403:17 0.00106162
8 *403:8 0.000138135
9 *3483:C_N *869:20 5.3304e-05
10 *3656:B *3656:C 6.66035e-05
11 *3656:B *497:10 0.000477003
12 *3656:B *707:33 4.10604e-05
13 *3725:C *431:10 5.38356e-05
14 *3725:C *703:82 4.96303e-05
15 *3725:C *705:86 0.000162185
16 *403:8 *869:14 9.84851e-05
17 *403:8 *869:20 2.55283e-05
18 *403:36 *431:10 3.66555e-05
19 *403:36 *497:10 0.000418492
20 *403:36 *703:61 0
21 *403:36 *705:86 0
22 *218:16 *3656:B 5.50106e-05
23 *373:10 *3656:B 0.000192087
24 *373:10 *403:36 0.00123488
*RES
1 *3482:X *403:8 25.0714 
2 *403:8 *3483:C_N 23.6214 
3 *403:8 *403:17 15 
4 *403:17 *3656:B 46.0164 
5 *403:17 *403:36 33.7464 
6 *403:36 *3725:C 26.6146 
7 *403:36 *3534:C 23.8493 
*END

*D_NET *404 0.0165878
*CONN
*I *3498:S I *D sky130_fd_sc_hd__mux2_2
*I *3484:S I *D sky130_fd_sc_hd__mux2_2
*I *3486:S I *D sky130_fd_sc_hd__mux2_2
*I *4086:A I *D sky130_fd_sc_hd__clkbuf_2
*I *3496:S I *D sky130_fd_sc_hd__mux2_2
*I *3483:Y O *D sky130_fd_sc_hd__nor3b_4
*CAP
1 *3498:S 0
2 *3484:S 0
3 *3486:S 4.21879e-05
4 *4086:A 0
5 *3496:S 0
6 *3483:Y 4.59971e-05
7 *404:77 0.000858251
8 *404:69 0.000858251
9 *404:57 0.00145449
10 *404:40 0.00156639
11 *404:36 0.00198338
12 *404:27 0.00019478
13 *404:14 0.000763786
14 *404:8 0.00252868
15 *3486:S *507:46 8.62783e-05
16 *3486:S *623:22 3.47781e-05
17 *3486:S *633:23 2.49733e-05
18 *404:8 *3766:CLK 5.09988e-05
19 *404:8 *700:119 0.000114092
20 *404:14 *3496:A1 0.000218158
21 *404:14 *3605:A 8.57661e-05
22 *404:14 *3766:CLK 0.000189796
23 *404:14 *663:16 0
24 *404:14 *700:119 6.48049e-05
25 *404:14 *701:37 0.000271382
26 *404:14 *705:10 0
27 *404:14 *705:32 0
28 *404:14 *705:60 0
29 *404:27 *411:8 0
30 *404:27 *705:10 3.7122e-06
31 *404:36 *3608:A0 0.000136738
32 *404:36 *4081:A 2.81066e-05
33 *404:36 *665:8 0.000336332
34 *404:36 *669:14 0.000124894
35 *404:36 *669:24 1.41077e-05
36 *404:36 *707:33 2.9437e-05
37 *404:40 *507:46 0.000184174
38 *404:40 *623:22 8.62876e-05
39 *404:40 *633:23 5.30518e-05
40 *404:57 *623:28 0.00048023
41 *404:57 *665:36 0.00124782
42 *404:77 *3484:A0 1.14452e-05
43 *404:77 *412:10 8.03135e-05
44 *404:77 *516:70 0.000223805
45 *404:77 *524:8 0
46 *404:77 *583:10 0.000495023
47 *404:77 *747:27 1.35999e-05
48 *404:77 *843:12 7.53239e-05
49 *3833:D *404:57 0.000100782
50 *366:18 *404:77 0.00107219
51 *373:10 *404:27 0
52 *401:12 *404:57 0.00035322
*RES
1 *3483:Y *404:8 39.5536 
2 *404:8 *404:14 27.7807 
3 *404:14 *3496:S 23 
4 *404:14 *404:27 33.5836 
5 *404:27 *4086:A 23 
6 *404:8 *404:36 46.1129 
7 *404:36 *404:40 17.61 
8 *404:40 *3486:S 39.2014 
9 *404:40 *404:57 43.8964 
10 *404:57 *3484:S 23 
11 *3484:S *404:69 38 
12 *404:69 *404:77 38.925 
13 *404:77 *3498:S 23 
*END

*D_NET *405 0.00268443
*CONN
*I *3485:A I *D sky130_fd_sc_hd__buf_1
*I *3484:X O *D sky130_fd_sc_hd__mux2_2
*CAP
1 *3485:A 0
2 *3484:X 2.86404e-05
3 *405:14 0.000923684
4 *405:8 0.000952324
5 *405:8 *665:36 5.50106e-05
6 *405:14 *3484:A0 0
7 *405:14 *3484:A1 0
8 *405:14 *608:67 0.000141038
9 *405:14 *609:40 9.82009e-05
10 *405:14 *625:50 0
11 *405:14 *625:58 0.000133426
12 *405:14 *684:27 0
13 *405:14 *684:31 0
14 *405:14 *689:52 9.69279e-05
15 *3856:D *405:14 0.000255181
16 *366:18 *405:14 0
*RES
1 *3484:X *405:8 38.6214 
2 *405:8 *405:14 34.0157 
3 *405:14 *3485:A 23 
*END

*D_NET *406 0.000882259
*CONN
*I *3487:A I *D sky130_fd_sc_hd__buf_1
*I *3486:X O *D sky130_fd_sc_hd__mux2_2
*CAP
1 *3487:A 0
2 *3486:X 0.000384933
3 *406:10 0.000384933
4 *406:10 *488:27 4.57742e-05
5 *406:10 *582:27 0
6 *406:10 *593:24 0
7 *406:10 *633:23 0
8 *406:10 *741:23 2.8241e-05
9 *406:10 *797:10 0
10 *358:14 *406:10 3.83778e-05
*RES
1 *3486:X *406:10 44.2971 
2 *406:10 *3487:A 38 
*END

*D_NET *407 0.00175978
*CONN
*I *3489:A I *D sky130_fd_sc_hd__buf_1
*I *3488:X O *D sky130_fd_sc_hd__mux2_2
*CAP
1 *3489:A 0
2 *3488:X 0.000362971
3 *407:10 0.000362971
4 *407:10 *3438:A0 0.000299641
5 *407:10 *3488:A0 0.000298548
6 *407:10 *3488:A1 5.72217e-05
7 *407:10 *798:8 0.000378428
*RES
1 *3488:X *407:10 47.9429 
2 *407:10 *3489:A 38 
*END

*D_NET *408 0.00267228
*CONN
*I *3491:A I *D sky130_fd_sc_hd__buf_1
*I *3490:X O *D sky130_fd_sc_hd__mux2_2
*CAP
1 *3491:A 0
2 *3490:X 4.55235e-05
3 *408:14 0.000539075
4 *408:8 0.000584599
5 *408:8 *3763:CLK 2.93845e-05
6 *408:14 *3763:CLK 8.15327e-05
7 *408:14 *619:21 5.86328e-05
8 *408:14 *632:10 0.000802554
9 *30:9 *408:14 2.76611e-06
10 *42:14 *408:14 0
11 *98:10 *408:14 0.000528209
*RES
1 *3490:X *408:8 38.6214 
2 *408:8 *408:14 30.5771 
3 *408:14 *3491:A 23 
*END

*D_NET *409 0.000630644
*CONN
*I *3493:A I *D sky130_fd_sc_hd__buf_1
*I *3492:X O *D sky130_fd_sc_hd__mux2_2
*CAP
1 *3493:A 7.31103e-05
2 *3492:X 7.31103e-05
3 *3493:A *633:21 0.000210345
4 *3493:A *725:6 0.000274078
*RES
1 *3492:X *3493:A 49.8529 
*END

*D_NET *410 0.000305664
*CONN
*I *3495:A I *D sky130_fd_sc_hd__buf_1
*I *3494:X O *D sky130_fd_sc_hd__mux2_2
*CAP
1 *3495:A 0
2 *3494:X 9.59394e-05
3 *410:8 9.59394e-05
4 *410:8 *634:10 0.000113785
5 *410:8 *672:30 0
*RES
1 *3494:X *410:8 40.2579 
2 *410:8 *3495:A 38 
*END

*D_NET *411 0.000571196
*CONN
*I *3497:A I *D sky130_fd_sc_hd__buf_1
*I *3496:X O *D sky130_fd_sc_hd__mux2_2
*CAP
1 *3497:A 6.84301e-05
2 *3496:X 0.000122646
3 *411:8 0.000191076
4 *3497:A *672:8 0.000189044
5 *411:8 *663:16 0
6 *404:27 *411:8 0
*RES
1 *3496:X *411:8 40.2579 
2 *411:8 *3497:A 40.0507 
*END

*D_NET *412 0.00165733
*CONN
*I *3499:A I *D sky130_fd_sc_hd__buf_1
*I *3498:X O *D sky130_fd_sc_hd__mux2_2
*CAP
1 *3499:A 0
2 *3498:X 0.000611854
3 *412:10 0.000611854
4 *412:10 *3479:S0 0
5 *412:10 *719:68 7.8128e-05
6 *412:10 *747:27 2.64616e-05
7 *401:12 *412:10 0.000248715
8 *404:77 *412:10 8.03135e-05
*RES
1 *3498:X *412:10 48.1086 
2 *412:10 *3499:A 38 
*END

*D_NET *413 0.0311091
*CONN
*I *3513:S I *D sky130_fd_sc_hd__mux2_2
*I *3503:S I *D sky130_fd_sc_hd__mux2_2
*I *3505:S I *D sky130_fd_sc_hd__mux2_2
*I *3515:S I *D sky130_fd_sc_hd__mux2_2
*I *3509:S I *D sky130_fd_sc_hd__mux2_2
*I *3501:S I *D sky130_fd_sc_hd__mux2_2
*I *3507:S I *D sky130_fd_sc_hd__mux2_2
*I *3511:S I *D sky130_fd_sc_hd__mux2_2
*I *3500:X O *D sky130_fd_sc_hd__and4bb_2
*CAP
1 *3513:S 0
2 *3503:S 0
3 *3505:S 9.32103e-05
4 *3515:S 3.66077e-05
5 *3509:S 0
6 *3501:S 0
7 *3507:S 2.56978e-05
8 *3511:S 0.000200429
9 *3500:X 0.000536184
10 *413:120 0.000526954
11 *413:112 0.00103233
12 *413:108 0.00122838
13 *413:99 0.000226014
14 *413:91 0.00324893
15 *413:85 0.00336521
16 *413:75 0.00156857
17 *413:69 0.00155102
18 *413:54 0.00123127
19 *413:48 0.000590067
20 *413:24 0.00128354
21 *413:16 0.00170996
22 *413:8 0.000787396
23 *3505:S *3434:A2 0.000229793
24 *3507:S *3507:A0 6.17437e-06
25 *3507:S *3507:A1 5.3304e-05
26 *3507:S *620:22 1.24376e-05
27 *3511:S *562:37 0.000132088
28 *3515:S *3515:A0 0.000144494
29 *3515:S *720:23 7.59041e-05
30 *413:8 *3571:A 0
31 *413:8 *707:97 6.07611e-06
32 *413:16 *3472:A1 8.4047e-05
33 *413:16 *683:69 0
34 *413:16 *727:22 0.000190816
35 *413:24 *562:23 2.47815e-05
36 *413:24 *630:16 9.39159e-05
37 *413:24 *681:44 4.21062e-05
38 *413:24 *724:87 0.000188927
39 *413:48 *3442:A2 5.36496e-06
40 *413:48 *422:10 2.29088e-05
41 *413:48 *535:26 0.000205279
42 *413:48 *539:10 5.01232e-06
43 *413:48 *687:64 4.96024e-05
44 *413:48 *700:48 0.000113153
45 *413:48 *707:97 0.000136486
46 *413:54 *3442:A2 0.000350353
47 *413:54 *3442:S0 0.000373343
48 *413:54 *535:26 1.16767e-05
49 *413:54 *620:22 4.08664e-05
50 *413:54 *620:33 3.47781e-05
51 *413:69 *3466:S0 0.000156336
52 *413:69 *3507:A0 2.93747e-05
53 *413:69 *461:168 0.000537907
54 *413:69 *461:181 0.00077319
55 *413:69 *620:33 0.000248269
56 *413:69 *620:42 0.000315664
57 *413:69 *620:70 0.000104295
58 *413:69 *751:10 0.000109377
59 *413:75 *729:37 6.53382e-05
60 *413:85 *3428:S 0.000274234
61 *413:85 *3503:A0 0.000135037
62 *413:85 *3513:A1 9.67842e-05
63 *413:85 *3514:A 9.75779e-05
64 *413:85 *580:8 0.00026025
65 *413:85 *624:42 2.02872e-05
66 *413:85 *699:68 8.48502e-06
67 *413:91 *3503:A0 5.50049e-05
68 *413:91 *3540:A1 0.000148031
69 *413:91 *3967:A 0.000144494
70 *413:91 *432:66 0.000700216
71 *413:91 *435:10 0.000143782
72 *413:91 *624:42 2.93747e-05
73 *413:91 *624:48 9.91895e-05
74 *413:91 *766:31 5.56279e-05
75 *413:99 *668:72 4.83778e-05
76 *413:108 *544:78 0.0001081
77 *413:108 *544:89 0.000489638
78 *413:108 *614:21 8.14696e-05
79 *413:108 *631:18 1.19317e-05
80 *413:108 *668:72 0
81 *413:108 *758:28 8.78864e-05
82 *413:112 *544:78 0
83 *413:112 *636:17 7.10099e-05
84 *413:112 *668:51 0
85 *413:112 *720:10 0
86 *413:112 *720:16 0
87 *413:112 *763:21 0.000269151
88 *413:120 *421:10 0
89 *413:120 *613:44 0.000223786
90 *413:120 *636:17 0.000852112
91 *413:120 *720:16 0
92 *413:120 *763:21 0.000138718
93 *3464:A1 *413:24 0.000443207
94 *3473:B1_N *413:75 0.000152679
95 *53:10 *413:85 0.000187091
96 *154:8 *413:48 0.000343067
97 *202:78 *413:8 0.000271392
98 *202:88 *413:48 0.000153333
99 *352:44 *413:24 0.000209405
100 *352:50 *413:24 3.35959e-05
101 *356:8 *413:85 0.000200203
102 *392:14 *413:16 7.44257e-05
103 *395:8 *413:48 0
104 *395:8 *413:69 0.000174931
*RES
1 *3500:X *413:8 41.6664 
2 *413:8 *413:16 38.4929 
3 *413:16 *413:24 46.5714 
4 *413:24 *3511:S 41.5007 
5 *3500:X *413:48 47.5596 
6 *413:48 *413:54 21.2246 
7 *413:54 *3507:S 23.6214 
8 *413:54 *413:69 44.2071 
9 *413:69 *413:75 22.7886 
10 *413:75 *413:85 20.3621 
11 *413:85 *413:91 38.6529 
12 *413:91 *413:99 33.48 
13 *413:99 *3501:S 23 
14 *413:91 *413:108 29.5829 
15 *413:108 *413:112 9.92214 
16 *413:112 *413:120 29.2929 
17 *413:120 *3509:S 23 
18 *413:112 *3515:S 39.5743 
19 *413:108 *3505:S 40.5271 
20 *413:85 *3503:S 23 
21 *413:75 *3513:S 23 
*END

*D_NET *414 0.00022994
*CONN
*I *3502:A I *D sky130_fd_sc_hd__buf_2
*I *3501:X O *D sky130_fd_sc_hd__mux2_2
*CAP
1 *3502:A 0.00011497
2 *3501:X 0.00011497
*RES
1 *3501:X *3502:A 47.9471 
*END

*D_NET *415 0.00133607
*CONN
*I *3504:A I *D sky130_fd_sc_hd__buf_2
*I *3503:X O *D sky130_fd_sc_hd__mux2_2
*CAP
1 *3504:A 5.71406e-05
2 *3503:X 0.000217163
3 *415:8 0.000274304
4 *3504:A *3435:S0 0.000141347
5 *3504:A *424:10 4.49462e-05
6 *415:8 *432:66 0.000191427
7 *415:8 *588:57 3.74442e-05
8 *415:8 *624:48 0.000372297
*RES
1 *3503:X *415:8 44.4836 
2 *415:8 *3504:A 39.5743 
*END

*D_NET *416 0.00128751
*CONN
*I *3506:A I *D sky130_fd_sc_hd__buf_2
*I *3505:X O *D sky130_fd_sc_hd__mux2_2
*CAP
1 *3506:A 0.000304415
2 *3505:X 0.000172622
3 *416:8 0.000477037
4 *3506:A *3770:CLK 5.58003e-05
5 *3506:A *750:10 7.58527e-05
6 *416:8 *750:10 2.8653e-05
7 *3770:D *3506:A 0.000173134
*RES
1 *3505:X *416:8 41.3143 
2 *416:8 *3506:A 43.8621 
*END

*D_NET *417 0.000937799
*CONN
*I *3508:A I *D sky130_fd_sc_hd__buf_2
*I *3507:X O *D sky130_fd_sc_hd__mux2_2
*CAP
1 *3508:A 1.20049e-05
2 *3507:X 0.000382059
3 *417:10 0.000394064
4 *417:10 *662:34 0.000141954
5 *417:10 *666:16 0
6 *3771:D *3508:A 7.71797e-06
7 *26:22 *417:10 0
*RES
1 *3507:X *417:10 43.2614 
2 *417:10 *3508:A 38.1813 
*END

*D_NET *418 0.00226668
*CONN
*I *3510:A I *D sky130_fd_sc_hd__buf_2
*I *3509:X O *D sky130_fd_sc_hd__mux2_2
*CAP
1 *3510:A 0
2 *3509:X 5.45124e-05
3 *418:12 0.0005008
4 *418:8 0.000555313
5 *418:12 *609:56 0
6 *418:12 *636:17 0
7 *418:12 *658:10 0
8 *51:10 *418:12 0.000745682
9 *163:10 *418:12 0.000410369
*RES
1 *3509:X *418:8 38.6214 
2 *418:8 *418:12 28.5264 
3 *418:12 *3510:A 23 
*END

*D_NET *419 0.00168522
*CONN
*I *3512:A I *D sky130_fd_sc_hd__buf_2
*I *3511:X O *D sky130_fd_sc_hd__mux2_2
*CAP
1 *3512:A 6.10891e-05
2 *3511:X 0.000267102
3 *419:10 0.000328191
4 *3512:A *668:18 0.000145163
5 *419:10 *461:53 0.00028831
6 *419:10 *576:12 5.67058e-05
7 *419:10 *633:35 0.000538659
*RES
1 *3511:X *419:10 46.5136 
2 *419:10 *3512:A 39.5743 
*END

*D_NET *420 0.000272339
*CONN
*I *3514:A I *D sky130_fd_sc_hd__buf_2
*I *3513:X O *D sky130_fd_sc_hd__mux2_2
*CAP
1 *3514:A 8.73804e-05
2 *3513:X 8.73804e-05
3 *413:85 *3514:A 9.75779e-05
*RES
1 *3513:X *3514:A 47.9471 
*END

*D_NET *421 0.00140532
*CONN
*I *3516:A I *D sky130_fd_sc_hd__buf_2
*I *3515:X O *D sky130_fd_sc_hd__mux2_2
*CAP
1 *3516:A 3.93442e-05
2 *3515:X 0.000547259
3 *421:10 0.000586603
4 *3516:A *4098:A 3.49864e-05
5 *421:10 *430:10 0
6 *421:10 *613:24 0
7 *421:10 *613:44 0
8 *421:10 *655:10 0
9 *421:10 *720:16 5.7607e-05
10 *54:10 *3516:A 2.93335e-05
11 *54:10 *421:10 0.000110184
12 *413:120 *421:10 0
*RES
1 *3515:X *421:10 48.0464 
2 *421:10 *3516:A 39.0979 
*END

*D_NET *422 0.0126449
*CONN
*I *3524:S I *D sky130_fd_sc_hd__mux2_2
*I *3530:S I *D sky130_fd_sc_hd__mux2_2
*I *3520:S I *D sky130_fd_sc_hd__mux2_2
*I *4084:A I *D sky130_fd_sc_hd__buf_2
*I *3517:Y O *D sky130_fd_sc_hd__nand4b_1
*CAP
1 *3524:S 0
2 *3530:S 0.000611945
3 *3520:S 0.000105649
4 *4084:A 4.34013e-05
5 *3517:Y 0.000446027
6 *422:45 0.000972195
7 *422:39 0.00246812
8 *422:29 0.00153496
9 *422:10 0.00103476
10 *3520:S *588:22 3.73253e-05
11 *3520:S *588:42 5.28551e-05
12 *3520:S *695:24 3.15773e-05
13 *3520:S *699:52 0.000112396
14 *3530:S *452:117 0
15 *3530:S *587:10 0
16 *3530:S *587:12 0
17 *3530:S *651:10 0
18 *3530:S *754:10 0.000163352
19 *3530:S *754:27 0.00019654
20 *4084:A *535:26 5.5792e-05
21 *4084:A *539:10 4.75133e-05
22 *422:10 *3517:A_N 5.50049e-05
23 *422:10 *3571:A 6.17437e-06
24 *422:10 *3875:CLK 0.000212121
25 *422:10 *535:18 0
26 *422:10 *535:26 1.7403e-05
27 *422:10 *687:64 0.000108129
28 *422:10 *687:78 5.61255e-06
29 *422:10 *707:97 3.3123e-05
30 *422:29 *3442:A3 0.000141656
31 *422:29 *3524:A1 0.000149381
32 *422:29 *3875:CLK 0.000210519
33 *422:29 *535:26 0.00126753
34 *422:29 *620:22 0.000138718
35 *422:29 *666:6 2.02872e-05
36 *422:39 *3524:A1 5.50049e-05
37 *422:39 *452:111 0.000121101
38 *422:39 *461:168 0.000571488
39 *422:39 *666:6 0.000152046
40 *422:39 *777:10 4.31263e-05
41 *422:39 *783:14 4.95928e-05
42 *422:45 *535:36 0.000308186
43 *422:45 *624:73 0.000910409
44 *422:45 *699:52 1.10658e-05
45 *3875:D *422:10 2.25927e-05
46 *26:20 *3530:S 0
47 *26:22 *422:39 0
48 *82:10 *422:39 5.0518e-05
49 *90:14 *422:39 0
50 *202:88 *422:10 4.67488e-05
51 *413:48 *422:10 2.29088e-05
*RES
1 *3517:Y *422:10 45.0221 
2 *422:10 *4084:A 39.0979 
3 *422:10 *422:29 33.4357 
4 *422:29 *422:39 36.025 
5 *422:39 *422:45 49.2021 
6 *422:45 *3520:S 40.61 
7 *422:39 *3530:S 49.4136 
8 *422:29 *3524:S 23 
*END

*D_NET *423 0.000373652
*CONN
*I *3519:A I *D sky130_fd_sc_hd__buf_1
*I *3518:X O *D sky130_fd_sc_hd__mux2_2
*CAP
1 *3519:A 0.000170723
2 *3518:X 0.000170723
3 *55:10 *3519:A 3.22051e-05
*RES
1 *3518:X *3519:A 48.9 
*END

*D_NET *424 0.000942399
*CONN
*I *3521:A I *D sky130_fd_sc_hd__buf_1
*I *3520:X O *D sky130_fd_sc_hd__mux2_2
*CAP
1 *3521:A 9.54436e-05
2 *3520:X 0.000145367
3 *424:10 0.00024081
4 *3521:A *3786:CLK 0.000145163
5 *424:10 *432:66 0.000135335
6 *3504:A *424:10 4.49462e-05
7 *48:10 *424:10 0.000135335
*RES
1 *3520:X *424:10 40.9104 
2 *424:10 *3521:A 40.0507 
*END

*D_NET *425 0.000196335
*CONN
*I *3523:A I *D sky130_fd_sc_hd__buf_1
*I *3522:X O *D sky130_fd_sc_hd__mux2_2
*CAP
1 *3523:A 9.81677e-05
2 *3522:X 9.81677e-05
*RES
1 *3522:X *3523:A 47.9471 
*END

*D_NET *426 0.00113397
*CONN
*I *3525:A I *D sky130_fd_sc_hd__buf_1
*I *3524:X O *D sky130_fd_sc_hd__mux2_2
*CAP
1 *3525:A 0
2 *3524:X 0.00038486
3 *426:10 0.00038486
4 *426:10 *666:6 0.000354127
5 *426:10 *666:10 0
6 *426:10 *666:16 0
7 *26:22 *426:10 1.01201e-05
*RES
1 *3524:X *426:10 44.2143 
2 *426:10 *3525:A 38 
*END

*D_NET *427 0.00242941
*CONN
*I *3527:A I *D sky130_fd_sc_hd__buf_1
*I *3526:X O *D sky130_fd_sc_hd__mux2_2
*CAP
1 *3527:A 0
2 *3526:X 0.000243023
3 *427:18 0.000668886
4 *427:8 0.000911909
5 *427:18 *609:25 9.65021e-05
6 *427:18 *609:68 0
7 *427:18 *658:10 0.000409449
8 *427:18 *659:12 0
9 *51:10 *427:8 5.79559e-05
10 *59:8 *427:18 4.16868e-05
*RES
1 *3526:X *427:8 41.9564 
2 *427:8 *427:18 28.5264 
3 *427:18 *3527:A 23 
*END

*D_NET *428 0.000313774
*CONN
*I *3529:A I *D sky130_fd_sc_hd__buf_1
*I *3528:X O *D sky130_fd_sc_hd__mux2_2
*CAP
1 *3529:A 0.000134757
2 *3528:X 0.000134757
3 *3529:A *668:12 4.42603e-05
*RES
1 *3528:X *3529:A 48.4236 
*END

*D_NET *429 0.00023338
*CONN
*I *3531:A I *D sky130_fd_sc_hd__buf_1
*I *3530:X O *D sky130_fd_sc_hd__mux2_2
*CAP
1 *3531:A 9.53041e-05
2 *3530:X 9.53041e-05
3 *3531:A *688:51 3.52383e-05
4 *61:10 *3531:A 7.53384e-06
*RES
1 *3530:X *3531:A 47.9471 
*END

*D_NET *430 0.00130301
*CONN
*I *3533:A I *D sky130_fd_sc_hd__buf_1
*I *3532:X O *D sky130_fd_sc_hd__mux2_2
*CAP
1 *3533:A 7.37936e-05
2 *3532:X 0.000440085
3 *430:10 0.000513878
4 *430:10 *655:10 0.000166522
5 *430:10 *720:16 0
6 *3783:D *3533:A 1.24376e-05
7 *34:11 *430:10 9.6289e-05
8 *421:10 *430:10 0
*RES
1 *3532:X *430:10 45.25 
2 *430:10 *3533:A 39.0979 
*END

*D_NET *431 0.00117407
*CONN
*I *3535:A I *D sky130_fd_sc_hd__clkbuf_1
*I *3534:X O *D sky130_fd_sc_hd__and3_2
*CAP
1 *3535:A 0
2 *3534:X 0.000384291
3 *431:10 0.000384291
4 *431:10 *432:12 5.79413e-06
5 *431:10 *461:18 8.50457e-05
6 *431:10 *534:10 0
7 *431:10 *562:347 0
8 *431:10 *703:82 9.67842e-05
9 *431:10 *705:86 1.62431e-05
10 *3725:C *431:10 5.38356e-05
11 *352:34 *431:10 0.000111129
12 *403:36 *431:10 3.66555e-05
*RES
1 *3534:X *431:10 44.3386 
2 *431:10 *3535:A 38 
*END

*D_NET *432 0.0194114
*CONN
*I *4083:A I *D sky130_fd_sc_hd__clkbuf_2
*I *3546:S I *D sky130_fd_sc_hd__mux2_2
*I *3540:S I *D sky130_fd_sc_hd__mux2_2
*I *3550:S I *D sky130_fd_sc_hd__mux2_2
*I *3544:S I *D sky130_fd_sc_hd__mux2_2
*I *3535:X O *D sky130_fd_sc_hd__clkbuf_1
*CAP
1 *4083:A 0.000159173
2 *3546:S 0
3 *3540:S 0
4 *3550:S 6.65855e-05
5 *3544:S 0.000359373
6 *3535:X 0.000321127
7 *432:66 0.00133523
8 *432:47 0.00147421
9 *432:34 0.00146584
10 *432:30 0.002748
11 *432:20 0.00400989
12 *432:12 0.00245792
13 *3544:S *437:10 9.20193e-05
14 *3544:S *544:116 0.000664048
15 *3544:S *611:47 5.20603e-05
16 *3544:S *611:49 0.000193291
17 *3544:S *618:83 5.82853e-05
18 *3544:S *674:54 0.000100477
19 *3544:S *720:100 6.25829e-05
20 *3550:S *3476:S0 2.7237e-05
21 *4083:A *3985:A 0
22 *4083:A *442:10 0
23 *432:12 *461:18 3.26565e-05
24 *432:12 *562:329 1.83564e-05
25 *432:12 *562:347 1.09886e-05
26 *432:12 *683:59 0
27 *432:30 *3546:A0 2.18409e-05
28 *432:30 *3565:A 5.50106e-05
29 *432:30 *544:152 0
30 *432:30 *687:101 1.00941e-05
31 *432:34 *3547:A 8.9695e-05
32 *432:34 *3565:A 0.000305337
33 *432:34 *461:57 0.000600227
34 *432:34 *720:100 2.64616e-05
35 *432:47 *544:116 0.000182873
36 *432:47 *645:8 0
37 *432:47 *720:100 0.000166522
38 *432:66 *3746:A1 7.12495e-05
39 *432:66 *3813:CLK 0
40 *432:66 *544:116 0.000660877
41 *432:66 *562:154 8.21456e-06
42 *432:66 *624:48 4.16051e-06
43 *432:66 *624:50 4.03002e-05
44 *432:66 *645:8 0
45 *48:10 *432:66 9.35855e-05
46 *56:8 *432:66 9.60166e-05
47 *352:34 *432:12 3.76959e-05
48 *370:10 *432:20 0.000161905
49 *383:14 *432:30 2.11066e-05
50 *388:18 *3544:S 1.61361e-05
51 *413:91 *432:66 0.000700216
52 *415:8 *432:66 0.000191427
53 *424:10 *432:66 0.000135335
54 *431:10 *432:12 5.79413e-06
*RES
1 *3535:X *432:12 47.2015 
2 *432:12 *432:20 19.7091 
3 *432:20 *432:30 28.3389 
4 *432:30 *432:34 33.7257 
5 *432:34 *3544:S 48.9993 
6 *432:34 *432:47 2.61 
7 *432:47 *3550:S 39.0979 
8 *432:47 *432:66 46.2164 
9 *432:66 *3540:S 23 
10 *432:30 *3546:S 23 
11 *432:20 *4083:A 48.7861 
*END

*D_NET *433 0.00108375
*CONN
*I *3537:A I *D sky130_fd_sc_hd__buf_1
*I *3536:X O *D sky130_fd_sc_hd__mux2_2
*CAP
1 *3537:A 4.25275e-05
2 *3536:X 0.000156016
3 *433:10 0.000198544
4 *3537:A *686:120 0.000207024
5 *3537:A *772:31 0.000188927
6 *433:10 *3417:A0 4.44949e-05
7 *433:10 *3554:A0 3.47781e-05
8 *433:10 *443:14 0
9 *433:10 *772:10 0.000101708
10 *63:10 *3537:A 2.46906e-05
11 *63:10 *433:10 8.50457e-05
*RES
1 *3536:X *433:10 40.9104 
2 *433:10 *3537:A 40.5271 
*END

*D_NET *434 0.00234409
*CONN
*I *3539:A I *D sky130_fd_sc_hd__buf_1
*I *3538:X O *D sky130_fd_sc_hd__mux2_2
*CAP
1 *3539:A 0.000165656
2 *3538:X 0.000480484
3 *434:8 0.000646139
4 *3539:A *442:53 0.000237222
5 *434:8 *3426:S0 0.000141879
6 *434:8 *3538:A0 1.22803e-05
7 *434:8 *3556:A0 0
8 *434:8 *4077:A 0
9 *434:8 *580:25 0.000396805
10 *434:8 *686:152 0
11 *434:8 *694:8 0
12 *434:8 *765:10 0.000130404
13 *3785:D *3539:A 0.000133222
*RES
1 *3538:X *434:8 48.005 
2 *434:8 *3539:A 43.5929 
*END

*D_NET *435 0.00164764
*CONN
*I *3541:A I *D sky130_fd_sc_hd__buf_1
*I *3540:X O *D sky130_fd_sc_hd__mux2_2
*CAP
1 *3541:A 0
2 *3540:X 0.000418091
3 *435:10 0.000418091
4 *435:10 *666:72 0
5 *435:10 *766:31 0.000502066
6 *435:10 *774:29 0.000165608
7 *413:91 *435:10 0.000143782
*RES
1 *3540:X *435:10 47.9636 
2 *435:10 *3541:A 38 
*END

*D_NET *436 0.00139416
*CONN
*I *3543:A I *D sky130_fd_sc_hd__buf_1
*I *3542:X O *D sky130_fd_sc_hd__mux2_2
*CAP
1 *3543:A 0.000100325
2 *3542:X 0.000345817
3 *436:10 0.000446142
4 *3543:A *699:44 0.000230048
5 *436:10 *3443:S0 0.000107128
6 *436:10 *602:21 0
7 *436:10 *688:142 0.000164694
*RES
1 *3542:X *436:10 44.7736 
2 *436:10 *3543:A 40.5271 
*END

*D_NET *437 0.00138185
*CONN
*I *3545:A I *D sky130_fd_sc_hd__buf_1
*I *3544:X O *D sky130_fd_sc_hd__mux2_2
*CAP
1 *3545:A 0
2 *3544:X 0.000187773
3 *437:10 0.000187773
4 *437:10 *3788:CLK 0.000247503
5 *437:10 *544:106 0.000362337
6 *437:10 *544:116 1.42186e-05
7 *437:10 *611:49 0.000236923
8 *3544:S *437:10 9.20193e-05
9 *388:18 *437:10 5.3304e-05
*RES
1 *3544:X *437:10 45.105 
2 *437:10 *3545:A 38 
*END

*D_NET *438 0.000227674
*CONN
*I *3547:A I *D sky130_fd_sc_hd__buf_1
*I *3546:X O *D sky130_fd_sc_hd__mux2_2
*CAP
1 *3547:A 2.41419e-05
2 *3546:X 2.41419e-05
3 *3547:A *3565:A 8.9695e-05
4 *432:34 *3547:A 8.9695e-05
*RES
1 *3546:X *3547:A 47.0046 
*END

*D_NET *439 0.00166257
*CONN
*I *3549:A I *D sky130_fd_sc_hd__buf_1
*I *3548:X O *D sky130_fd_sc_hd__mux2_2
*CAP
1 *3549:A 0.000501351
2 *3548:X 0.000326848
3 *439:8 0.000828199
4 *3549:A *635:8 6.17437e-06
*RES
1 *3548:X *439:8 44.4836 
2 *439:8 *3549:A 46.7207 
*END

*D_NET *440 0.00190315
*CONN
*I *3551:A I *D sky130_fd_sc_hd__buf_1
*I *3550:X O *D sky130_fd_sc_hd__mux2_2
*CAP
1 *3551:A 0.000235811
2 *3550:X 0.000317908
3 *440:8 0.000553719
4 *3551:A *3568:A0 5.50106e-05
5 *3551:A *450:10 0.000100061
6 *3551:A *662:34 0.000152945
7 *3551:A *666:16 0.0002263
8 *440:8 *544:116 0.000147316
9 *440:8 *771:8 0.000114083
10 *440:8 *779:10 0
11 *398:8 *440:8 0
*RES
1 *3550:X *440:8 44.4836 
2 *440:8 *3551:A 44.3386 
*END

*D_NET *441 0.00152549
*CONN
*I *3553:A I *D sky130_fd_sc_hd__clkbuf_1
*I *3552:X O *D sky130_fd_sc_hd__and4b_2
*CAP
1 *3553:A 0
2 *3552:X 0.000293847
3 *441:10 0.000293847
4 *441:10 *683:59 0.000105232
5 *441:10 *703:61 5.56279e-05
6 *441:10 *726:31 0.000315092
7 *173:10 *441:10 5.8994e-05
8 *373:10 *441:10 0.000402855
*RES
1 *3552:X *441:10 46.9071 
2 *441:10 *3553:A 38 
*END

*D_NET *442 0.0179151
*CONN
*I *4082:A I *D sky130_fd_sc_hd__buf_2
*I *3566:S I *D sky130_fd_sc_hd__mux2_2
*I *3556:S I *D sky130_fd_sc_hd__mux2_2
*I *3560:S I *D sky130_fd_sc_hd__mux2_2
*I *3553:X O *D sky130_fd_sc_hd__clkbuf_1
*CAP
1 *4082:A 0
2 *3566:S 0
3 *3556:S 0
4 *3560:S 8.92857e-05
5 *3553:X 0
6 *442:70 0.000612699
7 *442:53 0.00195211
8 *442:37 0.00360788
9 *442:24 0.00161801
10 *442:14 0.000960754
11 *442:10 0.0016214
12 *442:6 0.0011463
13 *3560:S *620:70 9.77405e-05
14 *442:10 *4003:A 0
15 *442:10 *683:59 0
16 *442:10 *727:8 0.000474193
17 *442:14 *3985:A 9.58714e-05
18 *442:14 *602:8 0.000148393
19 *442:24 *3524:A1 1.19692e-05
20 *442:24 *3560:A0 0.000214705
21 *442:24 *535:26 0
22 *442:24 *620:80 1.16455e-05
23 *442:24 *666:6 7.51453e-06
24 *442:24 *775:10 0.000139882
25 *442:37 *3466:A0 0.000110922
26 *442:37 *3739:S 0
27 *442:37 *446:10 2.0576e-05
28 *442:37 *602:62 0.000402529
29 *442:37 *620:80 1.51481e-05
30 *442:37 *688:131 0
31 *442:37 *688:142 0
32 *442:37 *722:16 0.000157082
33 *442:37 *858:10 0.000188916
34 *442:37 *866:23 0.000166522
35 *442:53 *3556:A0 0.00028403
36 *442:53 *3585:A 0.000144501
37 *442:53 *444:10 0.000316278
38 *442:53 *461:181 0.000349981
39 *442:53 *468:10 2.95526e-05
40 *442:53 *765:10 3.10706e-05
41 *442:53 *794:12 1.61385e-05
42 *442:70 *3467:A0 2.1819e-05
43 *442:70 *3467:A1 5.56356e-05
44 *442:70 *778:10 7.69256e-06
45 *442:70 *778:14 4.44329e-05
46 *3539:A *442:53 0.000237222
47 *3790:D *442:70 1.79713e-05
48 *4083:A *442:10 0
49 *66:8 *442:24 0.000657352
50 *66:8 *442:37 0.000128501
51 *77:10 *442:37 0.000402748
52 *77:10 *442:53 2.69681e-05
53 *77:10 *442:70 5.3304e-05
54 *167:12 *442:10 0.000168754
55 *168:8 *442:10 9.63815e-05
56 *352:10 *442:10 0.00057812
57 *369:12 *442:24 0
58 *370:10 *442:10 0
59 *373:10 *442:10 0.000110913
60 *389:8 *442:37 0.000135557
61 *390:10 *442:37 0.00012812
*RES
1 *3553:X *442:6 38 
2 *442:6 *442:10 42.26 
3 *442:10 *442:14 8.74143 
4 *442:14 *442:24 28.7543 
5 *442:24 *3560:S 39.5743 
6 *442:24 *442:37 39.795 
7 *442:37 *442:53 37.9279 
8 *442:53 *3556:S 23 
9 *442:37 *442:70 39.9429 
10 *442:70 *3566:S 23 
11 *442:14 *4082:A 23 
*END

*D_NET *443 0.00153846
*CONN
*I *3555:A I *D sky130_fd_sc_hd__buf_1
*I *3554:X O *D sky130_fd_sc_hd__mux2_2
*CAP
1 *3555:A 0.000109903
2 *3554:X 0.000405757
3 *443:14 0.00051566
4 *3555:A *3784:CLK 0.000100486
5 *443:14 *3554:A0 0
6 *443:14 *3792:CLK 7.04606e-06
7 *443:14 *585:16 5.76246e-05
8 *443:14 *585:38 0.000144268
9 *443:14 *686:120 0.000144501
10 *443:14 *772:31 5.32175e-05
11 *63:10 *443:14 0
12 *433:10 *443:14 0
*RES
1 *3554:X *443:14 46.8243 
2 *443:14 *3555:A 40.0507 
*END

*D_NET *444 0.00134873
*CONN
*I *3557:A I *D sky130_fd_sc_hd__buf_1
*I *3556:X O *D sky130_fd_sc_hd__mux2_2
*CAP
1 *3557:A 0
2 *3556:X 0.0004898
3 *444:10 0.0004898
4 *72:8 *444:10 5.28551e-05
5 *442:53 *444:10 0.000316278
*RES
1 *3556:X *444:10 45.6436 
2 *444:10 *3557:A 38 
*END

*D_NET *445 0.00107149
*CONN
*I *3559:A I *D sky130_fd_sc_hd__buf_1
*I *3558:X O *D sky130_fd_sc_hd__mux2_2
*CAP
1 *3559:A 0
2 *3558:X 0.000421811
3 *445:10 0.000421811
4 *445:10 *3558:A1 9.09342e-06
5 *445:10 *3810:CLK 3.68097e-05
6 *445:10 *622:82 2.75733e-06
7 *445:10 *699:93 2.34364e-05
8 *445:10 *766:8 0
9 *3810:D *445:10 7.00259e-05
10 *89:10 *445:10 8.57485e-05
*RES
1 *3558:X *445:10 44.6907 
2 *445:10 *3559:A 38 
*END

*D_NET *446 0.000629289
*CONN
*I *3561:A I *D sky130_fd_sc_hd__buf_1
*I *3560:X O *D sky130_fd_sc_hd__mux2_2
*CAP
1 *3561:A 0
2 *3560:X 0.000146482
3 *446:10 0.000146482
4 *446:10 *3739:S 1.0654e-05
5 *446:10 *620:70 1.84831e-05
6 *66:8 *446:10 0.00019288
7 *74:8 *446:10 9.37325e-05
8 *442:37 *446:10 2.0576e-05
*RES
1 *3560:X *446:10 41.9357 
2 *446:10 *3561:A 38 
*END

*D_NET *447 0.00020499
*CONN
*I *3563:A I *D sky130_fd_sc_hd__buf_1
*I *3562:X O *D sky130_fd_sc_hd__mux2_2
*CAP
1 *3563:A 0.000102495
2 *3562:X 0.000102495
*RES
1 *3562:X *3563:A 47.4811 
*END

*D_NET *448 0.00202136
*CONN
*I *3565:A I *D sky130_fd_sc_hd__buf_1
*I *3564:X O *D sky130_fd_sc_hd__mux2_2
*CAP
1 *3565:A 0.000190599
2 *3564:X 0.000214411
3 *448:10 0.00040501
4 *3565:A *3546:A0 0.00018536
5 *3565:A *724:115 0.000113678
6 *448:10 *3459:S0 9.84851e-05
7 *448:10 *3546:A0 6.7177e-06
8 *448:10 *687:101 0.000131538
9 *448:10 *769:8 2.01531e-05
10 *3547:A *3565:A 8.9695e-05
11 *68:10 *3565:A 0.000144494
12 *383:14 *448:10 6.08751e-05
13 *432:30 *3565:A 5.50106e-05
14 *432:34 *3565:A 0.000305337
*RES
1 *3564:X *448:10 42.4121 
2 *448:10 *3565:A 45.0014 
*END

*D_NET *449 0.00132528
*CONN
*I *3567:A I *D sky130_fd_sc_hd__buf_1
*I *3566:X O *D sky130_fd_sc_hd__mux2_2
*CAP
1 *3567:A 0
2 *3566:X 0.000474493
3 *449:10 0.000474493
4 *449:10 *3467:A0 7.1556e-05
5 *449:10 *3467:A1 8.89542e-05
6 *449:10 *602:62 3.84905e-05
7 *449:10 *722:76 0.000177295
*RES
1 *3566:X *449:10 45.1982 
2 *449:10 *3567:A 38 
*END

*D_NET *450 0.000662477
*CONN
*I *3569:A I *D sky130_fd_sc_hd__buf_1
*I *3568:X O *D sky130_fd_sc_hd__mux2_2
*CAP
1 *3569:A 0
2 *3568:X 0.000149307
3 *450:10 0.000149307
4 *450:10 *662:34 0.000263802
5 *3551:A *450:10 0.000100061
*RES
1 *3568:X *450:10 27.4743 
2 *450:10 *3569:A 23 
*END

*D_NET *451 0.00223888
*CONN
*I *3571:A I *D sky130_fd_sc_hd__buf_2
*I *3570:X O *D sky130_fd_sc_hd__and4b_2
*CAP
1 *3571:A 0.000520452
2 *3570:X 0.000213013
3 *451:8 0.000733465
4 *3571:A *562:200 5.10669e-05
5 *3571:A *570:10 0.00036529
6 *3571:A *687:78 2.93747e-05
7 *3571:A *700:48 1.47563e-05
8 *3571:A *707:97 0
9 *451:8 *3471:A1 4.5051e-05
10 *26:22 *3571:A 0
11 *202:78 *3571:A 0
12 *202:88 *3571:A 0.000166513
13 *352:34 *451:8 2.13733e-05
14 *352:44 *451:8 1.73399e-05
15 *393:14 *451:8 5.50049e-05
16 *395:8 *3571:A 0
17 *413:8 *3571:A 0
18 *422:10 *3571:A 6.17437e-06
*RES
1 *3570:X *451:8 41.0036 
2 *451:8 *3571:A 48.9786 
*END

*D_NET *452 0.0306424
*CONN
*I *3578:S I *D sky130_fd_sc_hd__mux2_2
*I *3574:S I *D sky130_fd_sc_hd__mux2_2
*I *3584:S I *D sky130_fd_sc_hd__mux2_2
*I *3576:S I *D sky130_fd_sc_hd__mux2_2
*I *3572:S I *D sky130_fd_sc_hd__mux2_2
*I *3580:S I *D sky130_fd_sc_hd__mux2_2
*I *3586:S I *D sky130_fd_sc_hd__mux2_2
*I *3582:S I *D sky130_fd_sc_hd__mux2_2
*I *3571:X O *D sky130_fd_sc_hd__buf_2
*CAP
1 *3578:S 0
2 *3574:S 0
3 *3584:S 5.15678e-05
4 *3576:S 0
5 *3572:S 4.57712e-05
6 *3580:S 0
7 *3586:S 0
8 *3582:S 0.000324997
9 *3571:X 0.000355926
10 *452:138 0.00120484
11 *452:117 0.00256824
12 *452:111 0.00204903
13 *452:81 0.00101279
14 *452:75 0.00147811
15 *452:66 0.00131568
16 *452:48 0.00251654
17 *452:37 0.00146236
18 *452:35 0.00134493
19 *452:27 0.00195273
20 *452:14 0.00184741
21 *452:8 0.00123515
22 *3572:S *3572:A0 3.26241e-05
23 *3572:S *3589:A0 5.82853e-05
24 *3572:S *626:92 0.000100486
25 *3582:S *729:80 0.000220014
26 *3584:S *3584:A0 0.000134465
27 *3584:S *3814:CLK 5.14826e-05
28 *452:8 *3737:A1 5.67058e-05
29 *452:8 *687:78 0.000313053
30 *452:14 *662:20 0
31 *452:14 *724:10 0
32 *452:14 *729:80 0.00026044
33 *452:14 *865:8 0
34 *452:27 *724:115 0.000260811
35 *452:35 *586:10 1.39431e-05
36 *452:35 *586:32 7.11295e-05
37 *452:35 *630:16 0
38 *452:35 *686:16 5.56203e-05
39 *452:35 *793:22 2.76611e-06
40 *452:37 *3586:A0 5.01469e-05
41 *452:37 *461:143 3.3577e-05
42 *452:37 *686:16 0.00147171
43 *452:37 *729:114 4.36915e-05
44 *452:37 *779:10 6.71188e-05
45 *452:48 *3586:A0 7.53303e-06
46 *452:48 *460:10 1.41203e-05
47 *452:48 *720:48 5.56356e-05
48 *452:66 *3580:A0 7.07248e-05
49 *452:66 *3581:A 4.82016e-05
50 *452:66 *3807:CLK 0.000131746
51 *452:66 *460:10 0
52 *452:66 *461:88 0
53 *452:66 *577:12 0.0003055
54 *452:66 *610:23 8.11415e-05
55 *452:66 *618:6 4.44329e-05
56 *452:66 *618:8 0.000164639
57 *452:66 *662:40 0.000137788
58 *452:66 *662:52 0.000329155
59 *452:66 *662:59 0.00033741
60 *452:66 *695:66 2.90468e-05
61 *452:66 *720:36 8.62783e-05
62 *452:66 *859:8 0.000137788
63 *452:75 *461:88 0
64 *452:75 *577:12 0.000114083
65 *452:75 *622:49 0.000533254
66 *452:75 *662:59 0.000174165
67 *452:75 *662:82 3.31149e-05
68 *452:81 *3576:A0 6.66613e-05
69 *452:81 *455:8 0.000196613
70 *452:81 *584:8 0.000823524
71 *452:81 *584:60 0
72 *452:81 *622:43 9.66585e-05
73 *452:81 *622:63 5.3304e-05
74 *452:81 *662:82 0.000138488
75 *452:81 *782:10 7.45905e-05
76 *452:81 *782:27 2.15233e-05
77 *452:111 *3578:A1 1.57732e-05
78 *452:111 *777:10 0.000195238
79 *452:117 *3513:A1 0
80 *452:117 *3806:CLK 0
81 *452:117 *579:27 0.000287475
82 *452:117 *722:33 0
83 *452:117 *754:10 0
84 *452:138 *468:10 0.000140875
85 *452:138 *630:10 5.45541e-05
86 *452:138 *722:33 0
87 *3530:S *452:117 0
88 *3799:D *452:37 0.000263619
89 *61:10 *452:117 0.000383494
90 *68:10 *452:27 0.000196811
91 *82:10 *452:111 5.28455e-05
92 *85:8 *452:117 0.000167167
93 *85:8 *452:138 7.86612e-05
94 *86:10 *452:66 0
95 *87:8 *452:81 7.38205e-05
96 *93:10 *452:138 6.26082e-05
97 *156:10 *452:14 1.01436e-05
98 *347:10 *452:81 0
99 *356:14 *452:37 9.58714e-05
100 *360:14 *452:37 7.10716e-05
101 *383:14 *452:14 0
102 *422:39 *452:111 0.000121101
*RES
1 *3571:X *452:8 43.3857 
2 *452:8 *452:14 32.4207 
3 *452:14 *3582:S 29.815 
4 *452:14 *452:27 43.5264 
5 *452:27 *452:35 39.6736 
6 *452:35 *452:37 21.1079 
7 *452:37 *3586:S 23 
8 *452:37 *452:48 23.7414 
9 *452:48 *452:66 44.9321 
10 *452:66 *3580:S 23 
11 *452:48 *452:75 27.8221 
12 *452:75 *452:81 39.2564 
13 *452:81 *3572:S 39.5743 
14 *452:75 *3576:S 23 
15 *452:27 *452:111 44.1271 
16 *452:111 *452:117 41.1207 
17 *452:117 *3584:S 39.595 
18 *452:117 *452:138 38.2414 
19 *452:138 *3574:S 23 
20 *452:111 *3578:S 23 
*END

*D_NET *453 0.000536882
*CONN
*I *3573:A I *D sky130_fd_sc_hd__buf_2
*I *3572:X O *D sky130_fd_sc_hd__mux2_2
*CAP
1 *3573:A 0
2 *3572:X 0.000200227
3 *453:10 0.000200227
4 *453:10 *626:92 0.000136428
*RES
1 *3572:X *453:10 41.3868 
2 *453:10 *3573:A 38 
*END

*D_NET *454 0.0012961
*CONN
*I *3575:A I *D sky130_fd_sc_hd__buf_2
*I *3574:X O *D sky130_fd_sc_hd__mux2_2
*CAP
1 *3575:A 0
2 *3574:X 0.00064805
3 *454:10 0.00064805
4 *454:10 *3574:A0 0
*RES
1 *3574:X *454:10 49.7243 
2 *454:10 *3575:A 38 
*END

*D_NET *455 0.00169347
*CONN
*I *3577:A I *D sky130_fd_sc_hd__buf_2
*I *3576:X O *D sky130_fd_sc_hd__mux2_2
*CAP
1 *3577:A 0.000237636
2 *3576:X 0.000212101
3 *455:8 0.000449737
4 *347:10 *455:8 0.00059738
5 *452:81 *455:8 0.000196613
*RES
1 *3576:X *455:8 45.8921 
2 *455:8 *3577:A 41.48 
*END

*D_NET *456 0.000322856
*CONN
*I *3579:A I *D sky130_fd_sc_hd__buf_2
*I *3578:X O *D sky130_fd_sc_hd__mux2_2
*CAP
1 *3579:A 8.55145e-05
2 *3578:X 8.55145e-05
3 *3579:A *3578:A1 7.07029e-05
4 *3579:A *783:14 5.77458e-05
5 *82:10 *3579:A 2.33782e-05
*RES
1 *3578:X *3579:A 48.7136 
*END

*D_NET *457 0.00035688
*CONN
*I *3581:A I *D sky130_fd_sc_hd__buf_2
*I *3580:X O *D sky130_fd_sc_hd__mux2_2
*CAP
1 *3581:A 8.30003e-05
2 *3580:X 8.30003e-05
3 *3581:A *618:8 0.000142678
4 *452:66 *3581:A 4.82016e-05
*RES
1 *3580:X *3581:A 48.4236 
*END

*D_NET *458 0.00274205
*CONN
*I *3583:A I *D sky130_fd_sc_hd__buf_2
*I *3582:X O *D sky130_fd_sc_hd__mux2_2
*CAP
1 *3583:A 0
2 *3582:X 7.87834e-05
3 *458:14 0.000357163
4 *458:10 0.000435947
5 *458:10 *729:86 1.94693e-05
6 *458:14 *461:53 0.000429621
7 *458:14 *461:139 0.000270722
8 *458:14 *467:10 0.000777398
9 *458:14 *695:24 2.04774e-05
10 *458:14 *729:114 6.07929e-05
11 *84:8 *458:14 0.000100533
12 *356:14 *458:14 0.000191148
*RES
1 *3582:X *458:10 39.4707 
2 *458:10 *458:14 28.8786 
3 *458:14 *3583:A 23 
*END

*D_NET *459 0.000668458
*CONN
*I *3585:A I *D sky130_fd_sc_hd__buf_2
*I *3584:X O *D sky130_fd_sc_hd__mux2_2
*CAP
1 *3585:A 8.06981e-05
2 *3584:X 0.000163714
3 *459:10 0.000244412
4 *459:10 *3814:CLK 3.51327e-05
5 *442:53 *3585:A 0.000144501
*RES
1 *3584:X *459:10 40.5789 
2 *459:10 *3585:A 39.5743 
*END

*D_NET *460 0.000909589
*CONN
*I *3587:A I *D sky130_fd_sc_hd__buf_2
*I *3586:X O *D sky130_fd_sc_hd__mux2_2
*CAP
1 *3587:A 0
2 *3586:X 0.000340577
3 *460:10 0.000340577
4 *460:10 *461:88 9.04758e-05
5 *460:10 *695:66 0
6 *94:8 *460:10 5.00353e-05
7 *363:18 *460:10 7.38036e-05
8 *452:48 *460:10 1.41203e-05
9 *452:66 *460:10 0
*RES
1 *3586:X *460:10 44.2971 
2 *460:10 *3587:A 38 
*END

*D_NET *461 0.0460967
*CONN
*I *3601:S I *D sky130_fd_sc_hd__mux2_2
*I *3595:S I *D sky130_fd_sc_hd__mux2_2
*I *3599:S I *D sky130_fd_sc_hd__mux2_2
*I *3593:S I *D sky130_fd_sc_hd__mux2_2
*I *3591:S I *D sky130_fd_sc_hd__mux2_2
*I *3589:S I *D sky130_fd_sc_hd__mux2_2
*I *3603:S I *D sky130_fd_sc_hd__mux2_2
*I *3597:S I *D sky130_fd_sc_hd__mux2_2
*I *3588:X O *D sky130_fd_sc_hd__buf_2
*CAP
1 *3601:S 0
2 *3595:S 0
3 *3599:S 2.34823e-05
4 *3593:S 0
5 *3591:S 0.000890282
6 *3589:S 0
7 *3603:S 0.000184476
8 *3597:S 0.000277343
9 *3588:X 0.00175817
10 *461:181 0.00129281
11 *461:168 0.00251892
12 *461:143 0.00136952
13 *461:139 0.000346035
14 *461:108 0.000545785
15 *461:98 0.00179704
16 *461:88 0.00117282
17 *461:82 0.00195348
18 *461:57 0.00193108
19 *461:53 0.00164444
20 *461:34 0.00132718
21 *461:26 0.00245748
22 *461:18 0.00198297
23 *461:6 0.00314687
24 *3591:S *3968:A 0.000103405
25 *3591:S *463:10 2.93845e-05
26 *3591:S *585:16 0.000454347
27 *3591:S *585:64 4.34745e-05
28 *3591:S *624:14 5.3304e-05
29 *3591:S *624:21 0.000139352
30 *3591:S *626:51 0.000352735
31 *3597:S *3562:A0 1.78821e-05
32 *3597:S *3562:A1 0.000282912
33 *3597:S *686:41 6.82228e-06
34 *3597:S *792:16 5.56279e-05
35 *3603:S *3791:CLK 5.73309e-05
36 *3603:S *686:83 0.000138214
37 *3603:S *720:81 0.000172122
38 *461:6 *727:22 2.47815e-05
39 *461:18 *544:22 0.00189265
40 *461:18 *544:32 0
41 *461:18 *562:23 1.05658e-05
42 *461:18 *634:39 0
43 *461:18 *683:59 0.000159576
44 *461:18 *683:69 0.000382716
45 *461:18 *703:82 3.64407e-05
46 *461:26 *633:35 0.000213541
47 *461:26 *674:12 0.000968503
48 *461:26 *681:52 0
49 *461:26 *681:58 0.000185434
50 *461:34 *3453:A1 0.000123924
51 *461:34 *674:39 0.000247714
52 *461:34 *729:94 5.50106e-05
53 *461:53 *576:12 0.000382574
54 *461:53 *576:25 0.000539015
55 *461:53 *633:35 6.26051e-05
56 *461:53 *724:73 0
57 *461:53 *724:87 0
58 *461:53 *729:114 0.000509855
59 *461:53 *753:12 1.37246e-05
60 *461:57 *611:10 0.000353214
61 *461:57 *720:81 6.16164e-05
62 *461:57 *720:100 0.000149289
63 *461:82 *645:18 0
64 *461:82 *666:49 8.44835e-05
65 *461:82 *686:33 0.000120258
66 *461:82 *686:35 6.15719e-05
67 *461:88 *464:10 0.000138859
68 *461:88 *577:12 0
69 *461:88 *577:25 0.000165632
70 *461:88 *622:82 7.48608e-05
71 *461:88 *681:141 3.53698e-05
72 *461:88 *790:8 0.000287931
73 *461:98 *464:10 3.46013e-05
74 *461:98 *585:22 0.000402139
75 *461:98 *681:141 0.000790374
76 *461:98 *688:85 0
77 *461:108 *3416:S0 7.98155e-05
78 *461:108 *3417:A3 0.000303801
79 *461:108 *3589:A1 7.56656e-05
80 *461:108 *462:10 0
81 *461:108 *584:8 0
82 *461:108 *585:38 0
83 *461:108 *626:51 0.000137651
84 *461:108 *686:120 7.75329e-06
85 *461:139 *3599:A0 5.31444e-05
86 *461:139 *729:114 0.000392717
87 *461:143 *3599:A1 2.30292e-05
88 *461:168 *3599:A1 1.94693e-05
89 *461:168 *3789:CLK 8.32426e-05
90 *461:168 *666:6 0.000317519
91 *461:181 *3466:S0 0
92 *461:181 *3467:S0 0.000319628
93 *461:181 *651:10 0
94 *461:181 *688:47 0.000108682
95 *461:181 *688:131 0
96 *461:181 *794:12 0.000364774
97 *3418:A1 *461:108 5.41288e-05
98 *3432:A2 *461:34 0.000223692
99 *3448:A1 *461:6 0.000400402
100 *3453:A2 *461:34 2.93845e-05
101 *3789:D *461:168 5.99746e-05
102 *3791:D *3603:S 1.64354e-05
103 *26:16 *461:181 0
104 *26:20 *461:181 0
105 *345:10 *461:108 0
106 *346:16 *461:98 6.25829e-05
107 *346:16 *461:108 0.000163158
108 *352:14 *461:6 1.71983e-05
109 *352:34 *461:6 5.56356e-05
110 *352:34 *461:18 4.4426e-05
111 *352:58 *461:34 0.000109717
112 *360:8 *461:34 9.8971e-06
113 *360:14 *461:53 0
114 *361:10 *461:88 0.000352612
115 *363:18 *461:88 0
116 *374:6 *461:6 0.000174942
117 *391:10 *461:181 7.03663e-05
118 *395:8 *461:168 0.000432528
119 *395:8 *461:181 0.000373573
120 *413:69 *461:168 0.000537907
121 *413:69 *461:181 0.00077319
122 *419:10 *461:53 0.00028831
123 *422:39 *461:168 0.000571488
124 *431:10 *461:18 8.50457e-05
125 *432:12 *461:18 3.26565e-05
126 *432:34 *461:57 0.000600227
127 *442:53 *461:181 0.000349981
128 *452:37 *461:143 3.3577e-05
129 *452:66 *461:88 0
130 *452:75 *461:88 0
131 *458:14 *461:53 0.000429621
132 *458:14 *461:139 0.000270722
133 *460:10 *461:88 9.04758e-05
*RES
1 *3588:X *461:6 46.9664 
2 *461:6 *461:18 39.6074 
3 *461:18 *461:26 43.9407 
4 *461:26 *461:34 45.6393 
5 *461:34 *3597:S 43.075 
6 *461:26 *461:53 22.7443 
7 *461:53 *461:57 28.485 
8 *461:57 *3603:S 28.4064 
9 *461:57 *461:82 35.4649 
10 *461:82 *461:88 34.1504 
11 *461:88 *461:98 42.5321 
12 *461:98 *461:108 43.0293 
13 *461:108 *3589:S 23 
14 *461:98 *3591:S 43.7971 
15 *461:88 *3593:S 23 
16 *461:53 *461:139 36.3179 
17 *461:139 *461:143 17.0507 
18 *461:143 *3599:S 23.4971 
19 *461:143 *461:168 45.3257 
20 *461:168 *3595:S 38 
21 *461:168 *461:181 49.4271 
22 *461:181 *3601:S 23 
*END

*D_NET *462 0.00137818
*CONN
*I *3590:A I *D sky130_fd_sc_hd__buf_1
*I *3589:X O *D sky130_fd_sc_hd__mux2_2
*CAP
1 *3590:A 0
2 *3589:X 0.000380928
3 *462:10 0.000380928
4 *462:10 *3416:S0 0.000110106
5 *462:10 *3589:A0 1.24362e-05
6 *462:10 *584:8 0
7 *462:10 *780:20 0.000404504
8 *87:8 *462:10 8.92738e-05
9 *461:108 *462:10 0
*RES
1 *3589:X *462:10 47.57 
2 *462:10 *3590:A 38 
*END

*D_NET *463 0.0023941
*CONN
*I *3592:A I *D sky130_fd_sc_hd__buf_1
*I *3591:X O *D sky130_fd_sc_hd__mux2_2
*CAP
1 *3592:A 0.000152726
2 *3591:X 0.000266499
3 *463:10 0.000419225
4 *3592:A *789:10 0.000102289
5 *463:10 *3574:A0 0.000273236
6 *463:10 *624:14 0.000588765
7 *463:10 *686:110 8.4047e-05
8 *463:10 *781:8 0.000113153
9 *3591:S *463:10 2.93845e-05
10 *88:8 *3592:A 0.000364771
*RES
1 *3591:X *463:10 46.5136 
2 *463:10 *3592:A 42.9093 
*END

*D_NET *464 0.00129426
*CONN
*I *3594:A I *D sky130_fd_sc_hd__buf_1
*I *3593:X O *D sky130_fd_sc_hd__mux2_2
*CAP
1 *3594:A 0
2 *3593:X 0.000282588
3 *464:10 0.000282588
4 *464:10 *3436:S 4.15283e-06
5 *464:10 *577:25 9.28078e-06
6 *464:10 *622:63 3.19411e-05
7 *464:10 *622:82 1.60336e-05
8 *464:10 *681:141 8.07501e-05
9 *464:10 *699:93 9.06886e-05
10 *464:10 *782:27 0.000322778
11 *461:88 *464:10 0.000138859
12 *461:98 *464:10 3.46013e-05
*RES
1 *3593:X *464:10 44.7943 
2 *464:10 *3594:A 38 
*END

*D_NET *465 0.0013558
*CONN
*I *3596:A I *D sky130_fd_sc_hd__buf_1
*I *3595:X O *D sky130_fd_sc_hd__mux2_2
*CAP
1 *3596:A 3.8084e-05
2 *3595:X 0.000217429
3 *465:14 0.000255513
4 *465:14 *3578:A1 5.58003e-05
5 *26:20 *465:14 0.000390209
6 *26:22 *465:14 1.30101e-05
7 *90:14 *465:14 0.000385756
*RES
1 *3595:X *465:14 45.8714 
2 *465:14 *3596:A 38.6214 
*END

*D_NET *466 0.00226083
*CONN
*I *3598:A I *D sky130_fd_sc_hd__buf_1
*I *3597:X O *D sky130_fd_sc_hd__mux2_2
*CAP
1 *3598:A 6.4658e-05
2 *3597:X 0.000674811
3 *466:10 0.000739469
4 *466:10 *610:12 8.67978e-05
5 *466:10 *686:41 0.000519294
6 *466:10 *856:25 0
7 *3812:D *3598:A 1.24376e-05
8 *347:10 *466:10 0
9 *402:14 *466:10 0.000163361
*RES
1 *3597:X *466:10 48.585 
2 *466:10 *3598:A 39.0979 
*END

*D_NET *467 0.00216905
*CONN
*I *3600:A I *D sky130_fd_sc_hd__buf_1
*I *3599:X O *D sky130_fd_sc_hd__mux2_2
*CAP
1 *3600:A 0
2 *3599:X 0.000333478
3 *467:10 0.000333478
4 *467:10 *729:114 4.96717e-05
5 *84:8 *467:10 0.000592312
6 *92:8 *467:10 6.22372e-05
7 *360:14 *467:10 2.04774e-05
8 *458:14 *467:10 0.000777398
*RES
1 *3599:X *467:10 49.455 
2 *467:10 *3600:A 38 
*END

*D_NET *468 0.000450209
*CONN
*I *3602:A I *D sky130_fd_sc_hd__buf_1
*I *3601:X O *D sky130_fd_sc_hd__mux2_2
*CAP
1 *3602:A 0
2 *3601:X 0.000129166
3 *468:10 0.000129166
4 *93:10 *468:10 2.14486e-05
5 *442:53 *468:10 2.95526e-05
6 *452:138 *468:10 0.000140875
*RES
1 *3601:X *468:10 40.8793 
2 *468:10 *3602:A 38 
*END

*D_NET *469 0.000315857
*CONN
*I *3604:A I *D sky130_fd_sc_hd__buf_1
*I *3603:X O *D sky130_fd_sc_hd__mux2_2
*CAP
1 *3604:A 5.80893e-05
2 *3603:X 5.80893e-05
3 *3604:A *686:83 0.0001021
4 *3604:A *720:40 9.75779e-05
*RES
1 *3603:X *3604:A 47.9471 
*END

*D_NET *470 0.00785883
*CONN
*I *3618:S I *D sky130_fd_sc_hd__mux2_2
*I *4111:A I *D sky130_fd_sc_hd__clkbuf_2
*I *4085:A I *D sky130_fd_sc_hd__clkbuf_2
*I *3605:Y O *D sky130_fd_sc_hd__nor4b_4
*CAP
1 *3618:S 0
2 *4111:A 0
3 *4085:A 9.57838e-05
4 *3605:Y 0.000364765
5 *470:31 0.00111354
6 *470:25 0.00149389
7 *470:10 0.000840897
8 *4085:A *3639:A_N 5.3304e-05
9 *4085:A *488:6 4.5051e-05
10 *470:10 *3639:A_N 0.000212558
11 *470:10 *3639:B_N 9.12699e-05
12 *470:10 *3639:D 1.21972e-05
13 *470:10 *701:20 9.5877e-05
14 *470:25 *562:200 0.000358225
15 *470:25 *672:14 1.82343e-05
16 *470:25 *721:12 0.000326924
17 *470:25 *721:18 0.000222193
18 *470:31 *3646:S 0
19 *470:31 *3681:A0 0.000137361
20 *470:31 *3681:S 5.3304e-05
21 *470:31 *3698:A0 0.000353209
22 *470:31 *3698:A1 0.000144057
23 *470:31 *3698:S 9.41704e-05
24 *470:31 *488:65 0
25 *470:31 *516:24 0.000181932
26 *470:31 *562:200 7.84105e-05
27 *470:31 *619:45 0.000177677
28 *470:31 *663:26 0.000325588
29 *470:31 *670:44 0.000235305
30 *470:31 *672:14 0.00045002
31 *3639:C *470:10 9.41704e-05
32 *393:14 *470:25 0.000188916
*RES
1 *3605:Y *470:10 29.0279 
2 *470:10 *4085:A 24.5743 
3 *470:10 *470:25 27.8843 
4 *470:25 *470:31 45.4914 
5 *470:31 *4111:A 23 
6 *470:25 *3618:S 38 
*END

*D_NET *471 0.000917873
*CONN
*I *3607:A I *D sky130_fd_sc_hd__buf_2
*I *3606:X O *D sky130_fd_sc_hd__mux2_2
*CAP
1 *3607:A 0
2 *3606:X 0.00022871
3 *471:8 0.00022871
4 *471:8 *3640:A0 0.000274641
5 *471:8 *3640:S 6.74262e-05
6 *471:8 *489:10 2.93335e-05
7 *95:10 *471:8 8.90527e-05
*RES
1 *3606:X *471:8 29.235 
2 *471:8 *3607:A 23 
*END

*D_NET *472 0.00243326
*CONN
*I *3609:A I *D sky130_fd_sc_hd__buf_2
*I *3608:X O *D sky130_fd_sc_hd__mux2_2
*CAP
1 *3609:A 0
2 *3608:X 5.84618e-05
3 *472:12 0.000413663
4 *472:8 0.000472124
5 *472:8 *669:24 3.71251e-05
6 *472:12 *3642:S 0
7 *472:12 *488:44 0
8 *472:12 *507:46 0.00090374
9 *472:12 *685:57 0.000376242
10 *472:12 *691:56 0
11 *472:12 *813:8 0.000171906
*RES
1 *3608:X *472:8 39.0979 
2 *472:8 *472:12 27.1179 
3 *472:12 *3609:A 23 
*END

*D_NET *473 0.000953132
*CONN
*I *3611:A I *D sky130_fd_sc_hd__buf_2
*I *3610:X O *D sky130_fd_sc_hd__mux2_2
*CAP
1 *3611:A 0
2 *3610:X 0.000328259
3 *473:10 0.000328259
4 *473:10 *3438:S1 0.000222123
5 *473:10 *3644:S 0
6 *473:10 *488:121 5.50106e-05
7 *473:10 *621:37 1.94812e-05
8 *473:10 *621:41 0
9 *365:12 *473:10 0
*RES
1 *3610:X *473:10 45.105 
2 *473:10 *3611:A 38 
*END

*D_NET *474 0.000303312
*CONN
*I *3613:A I *D sky130_fd_sc_hd__buf_2
*I *3612:X O *D sky130_fd_sc_hd__mux2_2
*CAP
1 *3613:A 9.90425e-05
2 *3612:X 9.90425e-05
3 *3613:A *3629:A1 0.000105227
*RES
1 *3612:X *3613:A 48.4236 
*END

*D_NET *475 0.00115496
*CONN
*I *3615:A I *D sky130_fd_sc_hd__buf_2
*I *3614:X O *D sky130_fd_sc_hd__mux2_2
*CAP
1 *3615:A 0.000257313
2 *3614:X 0.000179197
3 *475:8 0.000436511
4 *3615:A *3455:A3 5.50106e-05
5 *3615:A *3631:A0 7.59794e-05
6 *475:8 *3455:A0 0
7 *475:8 *3455:S0 0.000118889
8 *99:10 *3615:A 3.20631e-05
9 *380:10 *475:8 0
*RES
1 *3614:X *475:8 41.3143 
2 *475:8 *3615:A 42.9093 
*END

*D_NET *476 0.002367
*CONN
*I *3617:A I *D sky130_fd_sc_hd__buf_2
*I *3616:X O *D sky130_fd_sc_hd__mux2_2
*CAP
1 *3617:A 0.000417529
2 *3616:X 0.000647426
3 *476:14 0.00106495
4 *3617:A *3634:A 2.95423e-05
5 *476:14 *3616:A0 0
6 *476:14 *488:88 0.000100069
7 *476:14 *516:49 0
8 *476:14 *591:8 0
9 *476:14 *591:62 0.000107482
10 *476:14 *723:38 0
*RES
1 *3616:X *476:14 49.5171 
2 *476:14 *3617:A 44.235 
*END

*D_NET *477 0.00107305
*CONN
*I *3619:A I *D sky130_fd_sc_hd__buf_2
*I *3618:X O *D sky130_fd_sc_hd__mux2_2
*CAP
1 *3619:A 6.56968e-05
2 *3618:X 0.000231678
3 *477:8 0.000297374
4 *3619:A *746:6 6.17437e-06
5 *477:8 *3470:A1 0.000297207
6 *477:8 *3618:A0 0.000116314
7 *477:8 *3980:A 1.89404e-05
8 *477:8 *488:65 3.96671e-05
9 *477:8 *674:8 0
10 *101:8 *477:8 0
*RES
1 *3618:X *477:8 44.4836 
2 *477:8 *3619:A 39.0979 
*END

*D_NET *478 0.00146055
*CONN
*I *3621:A I *D sky130_fd_sc_hd__buf_2
*I *3620:X O *D sky130_fd_sc_hd__mux2_2
*CAP
1 *3621:A 3.76951e-05
2 *3620:X 0.000555807
3 *478:10 0.000593503
4 *3621:A *605:22 0.000102389
5 *102:10 *3621:A 3.7122e-06
6 *102:10 *478:10 0.000167443
*RES
1 *3620:X *478:10 47.9636 
2 *478:10 *3621:A 39.0979 
*END

*D_NET *479 0.0111126
*CONN
*I *4081:A I *D sky130_fd_sc_hd__clkbuf_2
*I *3629:S I *D sky130_fd_sc_hd__mux2_2
*I *4110:A I *D sky130_fd_sc_hd__clkbuf_2
*I *3622:Y O *D sky130_fd_sc_hd__nor4b_4
*CAP
1 *4081:A 8.43406e-05
2 *3629:S 0.000318915
3 *4110:A 0.000740829
4 *3622:Y 0.000216633
5 *479:43 0.000300974
6 *479:8 0.00219942
7 *479:6 0.00113968
8 *3629:S *3629:A1 0.000100477
9 *3629:S *632:10 0.00020819
10 *4110:A *3835:CLK 0.00031417
11 *4110:A *685:93 0.000157459
12 *4110:A *815:30 1.01436e-05
13 *479:8 *3646:S 0
14 *479:8 *3698:S 2.05503e-05
15 *479:8 *3763:CLK 0.000216051
16 *479:8 *511:12 0
17 *479:8 *516:24 0.000369049
18 *479:8 *516:41 0.000269676
19 *479:8 *525:14 0.00119277
20 *479:8 *595:21 0.000163352
21 *479:8 *598:45 0.000233964
22 *479:8 *619:21 0
23 *479:8 *632:10 6.34648e-06
24 *479:8 *672:14 0.00183673
25 *479:8 *721:12 5.21127e-05
26 *479:8 *721:18 0.000152838
27 *479:8 *815:30 7.8128e-05
28 *479:43 *525:14 3.70094e-05
29 *479:43 *525:29 0.00031842
30 *479:43 *663:16 0.000342125
31 *114:10 *3629:S 0
32 *130:8 *479:8 4.16051e-06
33 *404:36 *4081:A 2.81066e-05
*RES
1 *3622:Y *479:6 38 
2 *479:6 *479:8 35.5354 
3 *479:8 *4110:A 49.4654 
4 *479:8 *3629:S 45.0532 
5 *3622:Y *479:43 42.7229 
6 *479:43 *4081:A 39.0979 
*END

*D_NET *480 0.00148363
*CONN
*I *3624:A I *D sky130_fd_sc_hd__buf_4
*I *3623:X O *D sky130_fd_sc_hd__mux2_2
*CAP
1 *3624:A 7.56419e-05
2 *3623:X 0.000477419
3 *480:14 0.000553061
4 *3624:A *608:10 5.56279e-05
5 *3624:A *608:21 3.59255e-05
6 *480:14 *489:10 6.6692e-05
7 *95:10 *480:14 0.000219264
*RES
1 *3623:X *480:14 47.9843 
2 *480:14 *3624:A 39.595 
*END

*D_NET *481 0.0016963
*CONN
*I *3626:A I *D sky130_fd_sc_hd__buf_4
*I *3625:X O *D sky130_fd_sc_hd__mux2_2
*CAP
1 *3626:A 0
2 *3625:X 0.000374022
3 *481:10 0.000374022
4 *481:10 *507:65 0.000141352
5 *481:10 *525:58 0
6 *481:10 *690:14 0.000669164
7 *104:8 *481:10 0.000137737
*RES
1 *3625:X *481:10 48.5229 
2 *481:10 *3626:A 38 
*END

*D_NET *482 0.000852104
*CONN
*I *3628:A I *D sky130_fd_sc_hd__buf_4
*I *3627:X O *D sky130_fd_sc_hd__mux2_2
*CAP
1 *3628:A 9.81506e-05
2 *3627:X 0.000201709
3 *482:10 0.000299859
4 *3628:A *605:36 2.93431e-05
5 *482:10 *605:36 0.000223043
*RES
1 *3627:X *482:10 42.06 
2 *482:10 *3628:A 39.595 
*END

*D_NET *483 0.000244672
*CONN
*I *3630:A I *D sky130_fd_sc_hd__buf_4
*I *3629:X O *D sky130_fd_sc_hd__mux2_2
*CAP
1 *3630:A 9.44402e-05
2 *3629:X 9.44402e-05
3 *3630:A *672:24 5.5792e-05
*RES
1 *3629:X *3630:A 47.9471 
*END

*D_NET *484 0.00104988
*CONN
*I *3632:A I *D sky130_fd_sc_hd__buf_4
*I *3631:X O *D sky130_fd_sc_hd__mux2_2
*CAP
1 *3632:A 2.16801e-05
2 *3631:X 0.000346886
3 *484:12 0.000368567
4 *3632:A *594:34 5.79559e-05
5 *484:12 *664:42 9.94694e-05
6 *484:12 *725:22 0.000155322
*RES
1 *3631:X *484:12 42.93 
2 *484:12 *3632:A 38.6214 
*END

*D_NET *485 0.000953202
*CONN
*I *3634:A I *D sky130_fd_sc_hd__buf_4
*I *3633:X O *D sky130_fd_sc_hd__mux2_2
*CAP
1 *3634:A 3.27177e-05
2 *3633:X 0.000281656
3 *485:8 0.000314373
4 *485:8 *633:23 0
5 *485:8 *723:38 7.43923e-05
6 *3617:A *3634:A 2.95423e-05
7 *108:8 *485:8 0.00022052
*RES
1 *3633:X *485:8 44.4836 
2 *485:8 *3634:A 38.6214 
*END

*D_NET *486 0.00147399
*CONN
*I *3636:A I *D sky130_fd_sc_hd__buf_4
*I *3635:X O *D sky130_fd_sc_hd__mux2_2
*CAP
1 *3636:A 0.000166778
2 *3635:X 0.000440149
3 *486:10 0.000606927
4 *3636:A *3838:CLK 1.12349e-05
5 *3636:A *593:16 1.98624e-05
6 *3636:A *593:24 1.41244e-05
7 *486:10 *562:214 7.93566e-05
8 *486:10 *634:35 0.000135558
9 *486:10 *685:32 0
*RES
1 *3635:X *486:10 46.41 
2 *486:10 *3636:A 40.7757 
*END

*D_NET *487 0.000200407
*CONN
*I *3638:A I *D sky130_fd_sc_hd__buf_4
*I *3637:X O *D sky130_fd_sc_hd__mux2_2
*CAP
1 *3638:A 0.000100203
2 *3637:X 0.000100203
*RES
1 *3637:X *3638:A 47.9471 
*END

*D_NET *488 0.0321862
*CONN
*I *3654:S I *D sky130_fd_sc_hd__mux2_2
*I *3644:S I *D sky130_fd_sc_hd__mux2_2
*I *3650:S I *D sky130_fd_sc_hd__mux2_2
*I *3648:S I *D sky130_fd_sc_hd__mux2_2
*I *3646:S I *D sky130_fd_sc_hd__mux2_2
*I *3640:S I *D sky130_fd_sc_hd__mux2_2
*I *3642:S I *D sky130_fd_sc_hd__mux2_2
*I *3652:S I *D sky130_fd_sc_hd__mux2_2
*I *3639:X O *D sky130_fd_sc_hd__and4bb_2
*CAP
1 *3654:S 0
2 *3644:S 0.000291286
3 *3650:S 0
4 *3648:S 0.0019098
5 *3646:S 0.000493186
6 *3640:S 0.00104191
7 *3642:S 0.000102109
8 *3652:S 0
9 *3639:X 0.000172199
10 *488:138 0.00070915
11 *488:123 0.00100044
12 *488:121 0.00152616
13 *488:100 0.00110636
14 *488:88 0.00153292
15 *488:65 0.00256943
16 *488:44 0.00251713
17 *488:27 0.0025352
18 *488:8 0.00130043
19 *488:6 0.0017808
20 *3640:S *3640:A0 2.79304e-05
21 *3640:S *3640:A1 6.62982e-06
22 *3640:S *625:35 2.92911e-06
23 *3640:S *669:24 0.000216229
24 *3642:S *623:28 0.000227497
25 *3642:S *691:56 6.07611e-06
26 *3642:S *813:8 0
27 *3644:S *3438:S1 0
28 *3644:S *583:18 0.000104408
29 *3644:S *621:22 0.000118174
30 *3644:S *814:16 6.35028e-05
31 *3646:S *3646:A1 2.93845e-05
32 *3646:S *492:10 2.93845e-05
33 *3646:S *672:14 0
34 *3646:S *672:22 0.000249909
35 *3646:S *685:79 0.000119828
36 *3646:S *815:30 0
37 *3648:S *3610:S 0.000440163
38 *3648:S *3614:A1 0.000396689
39 *3648:S *591:18 9.84851e-05
40 *3648:S *670:68 0.000212407
41 *488:6 *3639:A_N 9.41704e-05
42 *488:6 *669:6 1.94812e-05
43 *488:8 *3652:A0 0.000182826
44 *488:8 *669:6 0.000251675
45 *488:27 *3486:A0 6.99492e-05
46 *488:27 *3652:A0 3.3266e-05
47 *488:27 *495:10 1.59094e-05
48 *488:27 *623:28 0.000481937
49 *488:27 *669:6 0.000798444
50 *488:27 *741:6 0.000117759
51 *488:44 *490:10 0
52 *488:44 *623:28 2.55642e-05
53 *488:44 *669:24 0.000773003
54 *488:44 *690:14 0
55 *488:65 *3470:A1 0.000337586
56 *488:65 *3618:A0 0.000111852
57 *488:65 *562:200 0.000695
58 *488:65 *663:26 0.000270239
59 *488:65 *674:8 0
60 *488:65 *685:73 0
61 *488:65 *685:79 0.000185278
62 *488:65 *726:37 7.04982e-05
63 *488:65 *727:34 0
64 *488:65 *746:14 0.000111852
65 *488:88 *3669:A 9.4713e-05
66 *488:88 *3699:A 2.93747e-05
67 *488:88 *670:44 0.00028883
68 *488:88 *723:47 0.000138711
69 *488:88 *723:62 3.48643e-05
70 *488:100 *3650:A0 0.000100069
71 *488:100 *494:10 0.000145042
72 *488:100 *516:49 3.47781e-05
73 *488:100 *516:51 5.3304e-05
74 *488:100 *591:18 3.04651e-05
75 *488:100 *633:23 0
76 *488:100 *723:38 0.000281349
77 *488:100 *723:47 3.22051e-05
78 *488:100 *817:32 4.98718e-06
79 *488:121 *3610:A0 0.000148688
80 *488:121 *3610:A1 2.81406e-06
81 *488:121 *3610:S 0.000453182
82 *488:121 *3627:A1 1.05235e-05
83 *488:121 *493:10 5.3304e-05
84 *488:121 *621:37 9.5911e-05
85 *488:138 *3654:A0 5.25436e-05
86 *488:138 *3696:A1 5.3304e-05
87 *488:138 *3696:S 6.17437e-06
88 *488:138 *3697:A 0.000178623
89 *488:138 *583:12 0.000137061
90 *488:138 *583:18 0.000180644
91 *488:138 *621:16 2.46345e-05
92 *488:138 *621:18 0.000130424
93 *488:138 *621:22 0.000598625
94 *488:138 *719:37 5.53196e-05
95 *488:138 *838:10 0.000108681
96 *3760:D *3640:S 4.9054e-06
97 *3761:D *488:27 0.000148848
98 *3821:D *488:100 0.000140259
99 *3837:D *488:100 0.00018878
100 *4085:A *488:6 4.5051e-05
101 *100:10 *488:100 9.48381e-06
102 *112:8 *488:44 2.93666e-05
103 *116:8 *488:100 0
104 *124:10 *488:88 5.67058e-05
105 *146:10 *488:65 0.000111276
106 *406:10 *488:27 4.57742e-05
107 *470:31 *3646:S 0
108 *470:31 *488:65 0
109 *471:8 *3640:S 6.74262e-05
110 *472:12 *3642:S 0
111 *472:12 *488:44 0
112 *473:10 *3644:S 0
113 *473:10 *488:121 5.50106e-05
114 *476:14 *488:88 0.000100069
115 *477:8 *488:65 3.96671e-05
116 *479:8 *3646:S 0
*RES
1 *3639:X *488:6 26.0036 
2 *488:6 *488:8 7.76786 
3 *488:8 *3652:S 23 
4 *488:8 *488:27 37.8893 
5 *488:27 *3642:S 40.9621 
6 *488:27 *488:44 43.2543 
7 *488:44 *3640:S 37.3343 
8 *488:6 *488:65 46.9621 
9 *488:65 *3646:S 47.9636 
10 *488:65 *488:88 32.1514 
11 *488:88 *488:100 45.37 
12 *488:100 *3648:S 33.6264 
13 *488:88 *3650:S 23 
14 *3648:S *488:121 45.91 
15 *488:121 *488:123 15 
16 *488:123 *3644:S 44.4836 
17 *488:123 *488:138 33.2493 
18 *488:138 *3654:S 23 
*END

*D_NET *489 0.000527757
*CONN
*I *3641:A I *D sky130_fd_sc_hd__buf_2
*I *3640:X O *D sky130_fd_sc_hd__mux2_2
*CAP
1 *3641:A 0
2 *3640:X 0.000142581
3 *489:10 0.000142581
4 *95:10 *489:10 5.56279e-05
5 *111:12 *489:10 9.09407e-05
6 *471:8 *489:10 2.93335e-05
7 *480:14 *489:10 6.6692e-05
*RES
1 *3640:X *489:10 41.9357 
2 *489:10 *3641:A 38 
*END

*D_NET *490 0.000711774
*CONN
*I *3643:A I *D sky130_fd_sc_hd__buf_2
*I *3642:X O *D sky130_fd_sc_hd__mux2_2
*CAP
1 *3643:A 0
2 *3642:X 0.000305642
3 *490:10 0.000305642
4 *490:10 *592:59 4.83778e-05
5 *490:10 *623:28 0
6 *490:10 *690:14 0
7 *112:8 *490:10 5.21127e-05
8 *488:44 *490:10 0
*RES
1 *3642:X *490:10 43.3443 
2 *490:10 *3643:A 38 
*END

*D_NET *491 0.00108609
*CONN
*I *3645:A I *D sky130_fd_sc_hd__buf_2
*I *3644:X O *D sky130_fd_sc_hd__mux2_2
*CAP
1 *3645:A 0
2 *3644:X 0.000287715
3 *491:10 0.000287715
4 *491:10 *3627:A0 0.000138727
5 *491:10 *583:18 0
6 *491:10 *664:48 0.000147656
7 *491:10 *806:8 0.000224276
*RES
1 *3644:X *491:10 44.2971 
2 *491:10 *3645:A 38 
*END

*D_NET *492 0.000795924
*CONN
*I *3647:A I *D sky130_fd_sc_hd__buf_2
*I *3646:X O *D sky130_fd_sc_hd__mux2_2
*CAP
1 *3647:A 0
2 *3646:X 0.000320323
3 *492:10 0.000320323
4 *492:10 *598:24 0
5 *492:10 *685:79 0.000125894
6 *3646:S *492:10 2.93845e-05
*RES
1 *3646:X *492:10 43.8414 
2 *492:10 *3647:A 38 
*END

*D_NET *493 0.00166953
*CONN
*I *3649:A I *D sky130_fd_sc_hd__buf_2
*I *3648:X O *D sky130_fd_sc_hd__mux2_2
*CAP
1 *3649:A 0
2 *3648:X 0.000470104
3 *493:10 0.000470104
4 *493:10 *3610:S 2.64616e-05
5 *493:10 *3820:CLK 0.000191419
6 *493:10 *594:10 0.00045814
7 *493:10 *664:32 0
8 *493:10 *725:22 0
9 *493:10 *725:35 0
10 *488:121 *493:10 5.3304e-05
*RES
1 *3648:X *493:10 47.57 
2 *493:10 *3649:A 38 
*END

*D_NET *494 0.00073257
*CONN
*I *3651:A I *D sky130_fd_sc_hd__buf_2
*I *3650:X O *D sky130_fd_sc_hd__mux2_2
*CAP
1 *3651:A 0
2 *3650:X 0.000269835
3 *494:10 0.000269835
4 *494:10 *516:49 1.7992e-05
5 *494:10 *516:51 2.98648e-05
6 *494:10 *633:23 0
7 *488:100 *494:10 0.000145042
*RES
1 *3650:X *494:10 43.365 
2 *494:10 *3651:A 38 
*END

*D_NET *495 0.000758774
*CONN
*I *3653:A I *D sky130_fd_sc_hd__buf_2
*I *3652:X O *D sky130_fd_sc_hd__mux2_2
*CAP
1 *3653:A 0
2 *3652:X 0.000124684
3 *495:10 0.000124684
4 *495:10 *634:35 0.000246748
5 *387:8 *495:10 0.000246748
6 *488:27 *495:10 1.59094e-05
*RES
1 *3652:X *495:10 41.9357 
2 *495:10 *3653:A 38 
*END

*D_NET *496 0.000107581
*CONN
*I *3655:A I *D sky130_fd_sc_hd__buf_2
*I *3654:X O *D sky130_fd_sc_hd__mux2_2
*CAP
1 *3655:A 5.37903e-05
2 *3654:X 5.37903e-05
*RES
1 *3654:X *3655:A 47.0046 
*END

*D_NET *497 0.00205671
*CONN
*I *3657:A I *D sky130_fd_sc_hd__clkbuf_1
*I *3656:X O *D sky130_fd_sc_hd__and3b_2
*CAP
1 *3657:A 0
2 *3656:X 0.000580608
3 *497:10 0.000580608
4 *497:10 *703:30 0
5 *3656:B *497:10 0.000477003
6 *403:36 *497:10 0.000418492
*RES
1 *3656:X *497:10 49.3721 
2 *497:10 *3657:A 38 
*END

*D_NET *498 0.0122903
*CONN
*I *4080:A I *D sky130_fd_sc_hd__clkbuf_2
*I *3670:S I *D sky130_fd_sc_hd__mux2_2
*I *3660:S I *D sky130_fd_sc_hd__mux2_2
*I *3658:S I *D sky130_fd_sc_hd__mux2_2
*I *3672:S I *D sky130_fd_sc_hd__mux2_2
*I *3657:X O *D sky130_fd_sc_hd__clkbuf_1
*CAP
1 *4080:A 0.000137983
2 *3670:S 2.18824e-05
3 *3660:S 2.05149e-05
4 *3658:S 5.59858e-05
5 *3672:S 0
6 *3657:X 0.000338187
7 *498:42 0.000672667
8 *498:38 0.0015916
9 *498:32 0.00241817
10 *498:22 0.00180206
11 *498:16 0.000721635
12 *3658:S *3658:A1 0.000144494
13 *3660:S *507:42 3.28357e-06
14 *4080:A *3691:B_N 8.92006e-06
15 *4080:A *3846:CLK 9.41704e-05
16 *4080:A *663:12 0.000193047
17 *4080:A *707:74 0.000134865
18 *498:16 *3674:B_N 4.34559e-05
19 *498:16 *3691:D 0.000220972
20 *498:16 *507:24 2.06822e-05
21 *498:16 *516:8 1.24376e-05
22 *498:16 *703:22 9.64943e-05
23 *498:16 *708:68 0.000355221
24 *498:22 *570:16 6.72382e-05
25 *498:22 *663:12 0.000214412
26 *498:22 *707:74 0.000211281
27 *498:32 *3670:A0 0.000353328
28 *498:32 *500:10 5.82853e-05
29 *498:32 *505:10 5.58003e-05
30 *498:32 *507:42 0.000198626
31 *498:32 *570:16 4.53082e-05
32 *498:32 *600:46 0.000481428
33 *498:38 *3658:A0 0
34 *498:38 *3658:A1 0.00013449
35 *498:38 *3709:S 1.90678e-05
36 *498:38 *507:42 7.48516e-05
37 *498:38 *525:45 0.000137995
38 *498:38 *525:58 5.44889e-06
39 *498:38 *527:8 0.000188526
40 *498:38 *623:62 6.63159e-06
41 *498:38 *623:71 0.000274955
42 *498:38 *625:82 2.64616e-05
43 *498:38 *625:99 5.15635e-05
44 *498:42 *525:58 0.00029511
45 *498:42 *827:8 6.70389e-05
46 *193:14 *498:16 3.18142e-05
47 *202:54 *498:22 0.000181961
48 *400:14 *498:42 0
*RES
1 *3657:X *498:16 47.4043 
2 *498:16 *498:22 20.9657 
3 *498:22 *498:32 26.68 
4 *498:32 *498:38 32.8764 
5 *498:38 *498:42 29.5829 
6 *498:42 *3672:S 23 
7 *498:38 *3658:S 39.5743 
8 *498:32 *3660:S 23.4971 
9 *498:22 *3670:S 23.4971 
10 *498:16 *4080:A 41.48 
*END

*D_NET *499 0.00152718
*CONN
*I *3659:A I *D sky130_fd_sc_hd__buf_1
*I *3658:X O *D sky130_fd_sc_hd__mux2_2
*CAP
1 *3659:A 0.000138496
2 *3658:X 0.000413642
3 *499:10 0.000552138
4 *3659:A *3840:CLK 6.17437e-06
5 *499:10 *3676:A 5.68958e-05
6 *499:10 *3848:CLK 0.000111106
7 *499:10 *562:75 0.000101488
8 *499:10 *562:81 2.22079e-05
9 *3840:D *3659:A 1.47709e-05
10 *127:8 *499:10 0.000110258
*RES
1 *3658:X *499:10 46.3064 
2 *499:10 *3659:A 40.4236 
*END

*D_NET *500 0.000403676
*CONN
*I *3661:A I *D sky130_fd_sc_hd__buf_1
*I *3660:X O *D sky130_fd_sc_hd__mux2_2
*CAP
1 *3661:A 0
2 *3660:X 0.000131158
3 *500:10 0.000131158
4 *358:14 *500:10 8.30753e-05
5 *498:32 *500:10 5.82853e-05
*RES
1 *3660:X *500:10 40.8793 
2 *500:10 *3661:A 38 
*END

*D_NET *501 0.00195295
*CONN
*I *3663:A I *D sky130_fd_sc_hd__buf_1
*I *3662:X O *D sky130_fd_sc_hd__mux2_2
*CAP
1 *3663:A 0
2 *3662:X 0.000629916
3 *501:10 0.000629916
4 *501:10 *528:10 1.14452e-05
5 *501:10 *621:16 0
6 *501:10 *621:18 0
7 *501:10 *621:78 0.000223518
8 *501:10 *684:50 0.000141879
9 *3439:S *501:10 0.000178623
10 *365:12 *501:10 0.000137651
*RES
1 *3662:X *501:10 48.0568 
2 *501:10 *3663:A 38 
*END

*D_NET *502 0.0015443
*CONN
*I *3665:A I *D sky130_fd_sc_hd__buf_1
*I *3664:X O *D sky130_fd_sc_hd__mux2_2
*CAP
1 *3665:A 4.09019e-05
2 *3664:X 0.000446403
3 *502:8 0.000487305
4 *3665:A *507:143 3.7122e-06
5 *502:8 *3445:A2 0.000197946
6 *502:8 *3698:A0 3.31127e-05
7 *502:8 *507:114 0.000105888
8 *502:8 *511:12 6.15309e-05
9 *502:8 *562:262 0.000114645
10 *502:8 *619:55 0
11 *502:8 *619:71 5.28551e-05
12 *122:10 *502:8 0
*RES
1 *3664:X *502:8 48.7093 
2 *502:8 *3665:A 38.6214 
*END

*D_NET *503 0.000757564
*CONN
*I *3667:A I *D sky130_fd_sc_hd__buf_1
*I *3666:X O *D sky130_fd_sc_hd__mux2_2
*CAP
1 *3667:A 0
2 *3666:X 0.000292718
3 *503:10 0.000292718
4 *503:10 *3455:S0 8.41012e-05
5 *503:10 *516:51 8.38096e-05
6 *503:10 *581:16 0
7 *503:10 *590:25 4.21594e-06
*RES
1 *3666:X *503:10 43.2614 
2 *503:10 *3667:A 38 
*END

*D_NET *504 0.00155123
*CONN
*I *3669:A I *D sky130_fd_sc_hd__buf_1
*I *3668:X O *D sky130_fd_sc_hd__mux2_2
*CAP
1 *3669:A 6.28041e-05
2 *3668:X 0.000322333
3 *504:10 0.000385138
4 *3669:A *670:44 0.000181925
5 *504:10 *3668:A0 0.000133454
6 *504:10 *598:24 0
7 *386:16 *504:10 0.000370869
8 *488:88 *3669:A 9.4713e-05
*RES
1 *3668:X *504:10 44.5561 
2 *504:10 *3669:A 40.0507 
*END

*D_NET *505 0.000650659
*CONN
*I *3671:A I *D sky130_fd_sc_hd__buf_1
*I *3670:X O *D sky130_fd_sc_hd__mux2_2
*CAP
1 *3671:A 4.47995e-05
2 *3670:X 0.000125432
3 *505:10 0.000170231
4 *3671:A *507:24 1.59094e-05
5 *505:10 *562:200 7.52305e-05
6 *505:10 *570:16 0.000163256
7 *498:32 *505:10 5.58003e-05
*RES
1 *3670:X *505:10 40.8793 
2 *505:10 *3671:A 38.6214 
*END

*D_NET *506 0.00178579
*CONN
*I *3673:A I *D sky130_fd_sc_hd__buf_1
*I *3672:X O *D sky130_fd_sc_hd__mux2_2
*CAP
1 *3673:A 0.000644931
2 *3672:X 3.90016e-05
3 *506:8 0.000683933
4 *3673:A *3847:CLK 0
5 *3673:A *592:6 7.60392e-05
6 *506:8 *835:10 8.62783e-05
7 *126:12 *3673:A 0.00016933
8 *400:14 *506:8 8.62783e-05
*RES
1 *3672:X *506:8 39.2014 
2 *506:8 *3673:A 47.1143 
*END

*D_NET *507 0.0318948
*CONN
*I *3685:S I *D sky130_fd_sc_hd__mux2_2
*I *3681:S I *D sky130_fd_sc_hd__mux2_2
*I *3687:S I *D sky130_fd_sc_hd__mux2_2
*I *3677:S I *D sky130_fd_sc_hd__mux2_2
*I *3675:S I *D sky130_fd_sc_hd__mux2_2
*I *3689:S I *D sky130_fd_sc_hd__mux2_2
*I *3679:S I *D sky130_fd_sc_hd__mux2_2
*I *3683:S I *D sky130_fd_sc_hd__mux2_2
*I *3674:X O *D sky130_fd_sc_hd__and4bb_2
*CAP
1 *3685:S 0
2 *3681:S 0.000610983
3 *3687:S 0
4 *3677:S 0
5 *3675:S 0
6 *3689:S 0
7 *3679:S 0
8 *3683:S 0.000393831
9 *3674:X 0.000263219
10 *507:143 0.00121601
11 *507:114 0.00462321
12 *507:93 0.000983958
13 *507:73 0.000505201
14 *507:65 0.00123008
15 *507:46 0.00181436
16 *507:44 0.00167961
17 *507:42 0.00116497
18 *507:30 0.00143685
19 *507:24 0.00111545
20 *507:12 0.003903
21 *3681:S *3681:A0 2.05503e-05
22 *3681:S *619:55 6.92122e-05
23 *3681:S *670:12 6.57318e-05
24 *3683:S *3683:A0 0.000154601
25 *3683:S *582:8 9.53224e-05
26 *3683:S *633:23 0.000104653
27 *507:12 *544:12 1.66114e-05
28 *507:12 *701:12 6.10551e-06
29 *507:12 *869:31 1.05658e-05
30 *507:12 *869:40 4.77164e-06
31 *507:24 *3691:B_N 3.03777e-05
32 *507:24 *3691:D 2.72475e-06
33 *507:24 *516:8 4.96207e-05
34 *507:24 *544:12 2.84979e-06
35 *507:24 *600:58 4.98333e-05
36 *507:24 *700:119 2.08501e-05
37 *507:24 *708:68 2.64616e-05
38 *507:30 *3670:A0 0.000137754
39 *507:30 *3687:A1 4.21921e-05
40 *507:30 *514:10 9.42279e-05
41 *507:30 *600:46 0.00035332
42 *507:30 *726:37 8.27077e-05
43 *507:30 *727:34 1.223e-05
44 *507:42 *3687:A1 0.000275411
45 *507:42 *600:46 0.000513778
46 *507:42 *623:62 0.000135455
47 *507:42 *623:71 1.12796e-05
48 *507:46 *3677:A0 1.13812e-05
49 *507:46 *525:39 0
50 *507:46 *582:8 2.9856e-05
51 *507:46 *633:23 0.000232644
52 *507:46 *633:35 0.000373158
53 *507:46 *685:57 6.43005e-05
54 *507:65 *3689:A0 5.56356e-05
55 *507:65 *665:14 0.00048523
56 *507:65 *665:26 0.000323991
57 *507:65 *685:40 0.000144603
58 *507:65 *719:97 0.000172834
59 *507:73 *3689:A0 0.000144494
60 *507:73 *510:10 1.7403e-05
61 *507:73 *719:82 0.000111784
62 *507:93 *3429:A1 0.000108227
63 *507:93 *3429:S1 8.33262e-05
64 *507:93 *3677:A0 0.000261279
65 *507:93 *3711:A1 0
66 *507:93 *625:99 0.000174615
67 *507:93 *633:35 0.000639286
68 *507:93 *684:21 0.000477495
69 *507:93 *845:10 4.93341e-05
70 *507:114 *516:24 0.00106656
71 *507:143 *3698:A0 0.000120999
72 *507:143 *516:41 0.000398181
73 *507:143 *598:16 8.6949e-05
74 *507:143 *598:24 9.84851e-05
75 *507:143 *619:55 0
76 *507:143 *839:8 1.33439e-05
77 *3486:S *507:46 8.62783e-05
78 *3660:S *507:42 3.28357e-06
79 *3665:A *507:143 3.7122e-06
80 *3671:A *507:24 1.59094e-05
81 *3859:D *507:143 2.78402e-05
82 *3862:D *507:42 0.000147517
83 *3865:D *507:93 1.74843e-05
84 *96:8 *507:46 0.000194309
85 *125:10 *507:24 1.37872e-05
86 *350:57 *507:73 0.000622282
87 *392:8 *507:24 4.49581e-06
88 *404:40 *507:46 0.000184174
89 *470:31 *3681:S 5.3304e-05
90 *472:12 *507:46 0.00090374
91 *481:10 *507:65 0.000141352
92 *498:16 *507:24 2.06822e-05
93 *498:32 *507:42 0.000198626
94 *498:38 *507:42 7.48516e-05
95 *502:8 *507:114 0.000105888
*RES
1 *3674:X *507:12 46.7635 
2 *507:12 *507:24 47.4929 
3 *507:24 *507:30 21.5664 
4 *507:30 *507:42 20.8593 
5 *507:42 *507:44 15 
6 *507:44 *507:46 20.5693 
7 *507:46 *3683:S 47.5079 
8 *507:46 *507:65 32.9386 
9 *507:65 *507:73 42.2007 
10 *507:73 *3679:S 23 
11 *507:65 *3689:S 23 
12 *507:44 *507:93 40.5821 
13 *507:93 *3675:S 23 
14 *507:42 *3677:S 23 
15 *507:30 *3687:S 23 
16 *507:12 *507:114 23.5451 
17 *507:114 *3681:S 48.4327 
18 *507:114 *507:143 42.5439 
19 *507:143 *3685:S 23 
*END

*D_NET *508 0.00231935
*CONN
*I *3676:A I *D sky130_fd_sc_hd__buf_1
*I *3675:X O *D sky130_fd_sc_hd__mux2_2
*CAP
1 *3676:A 0.000578406
2 *3675:X 0.000131781
3 *508:8 0.000710187
4 *3676:A *3419:A0 7.37503e-05
5 *3676:A *3658:A0 0.000451051
6 *3676:A *3675:A0 3.04115e-05
7 *3676:A *828:10 2.07944e-05
8 *3422:A0 *508:8 0.000187084
9 *348:10 *3676:A 7.89883e-05
10 *499:10 *3676:A 5.68958e-05
*RES
1 *3675:X *508:8 40.0507 
2 *508:8 *3676:A 49.9314 
*END

*D_NET *509 0.00153273
*CONN
*I *3678:A I *D sky130_fd_sc_hd__buf_1
*I *3677:X O *D sky130_fd_sc_hd__mux2_2
*CAP
1 *3678:A 0
2 *3677:X 0.000446416
3 *509:8 0.000446416
4 *509:8 *3711:A1 7.73177e-05
5 *509:8 *3712:A 0
6 *509:8 *633:35 0
7 *128:10 *509:8 0.000562577
*RES
1 *3677:X *509:8 48.3571 
2 *509:8 *3678:A 38 
*END

*D_NET *510 0.000653731
*CONN
*I *3680:A I *D sky130_fd_sc_hd__buf_1
*I *3679:X O *D sky130_fd_sc_hd__mux2_2
*CAP
1 *3680:A 0
2 *3679:X 0.0002574
3 *510:10 0.0002574
4 *510:10 *3679:A0 5.33272e-05
5 *510:10 *3679:A1 9.08709e-06
6 *3439:S *510:10 3.79019e-05
7 *350:57 *510:10 2.12107e-05
8 *366:16 *510:10 0
9 *507:73 *510:10 1.7403e-05
*RES
1 *3679:X *510:10 43.365 
2 *510:10 *3680:A 38 
*END

*D_NET *511 0.00248154
*CONN
*I *3682:A I *D sky130_fd_sc_hd__buf_1
*I *3681:X O *D sky130_fd_sc_hd__mux2_2
*CAP
1 *3682:A 0
2 *3681:X 0.000114902
3 *511:12 0.000485988
4 *511:8 0.00060089
5 *511:8 *670:44 0.000138444
6 *511:12 *3445:A2 0.000390752
7 *511:12 *3698:A0 0.000219873
8 *511:12 *516:41 0
9 *511:12 *598:45 0.000125239
10 *511:12 *619:71 0.000165394
11 *511:12 *663:16 1.74126e-05
12 *511:12 *847:12 8.36198e-05
13 *130:8 *511:12 7.7495e-05
14 *479:8 *511:12 0
15 *502:8 *511:12 6.15309e-05
*RES
1 *3681:X *511:8 39.5743 
2 *511:8 *511:12 28.5264 
3 *511:12 *3682:A 23 
*END

*D_NET *512 0.00201844
*CONN
*I *3684:A I *D sky130_fd_sc_hd__buf_1
*I *3683:X O *D sky130_fd_sc_hd__mux2_2
*CAP
1 *3684:A 0
2 *3683:X 0.000378935
3 *512:10 0.000378935
4 *512:10 *3455:S0 1.02387e-05
5 *512:10 *3683:A1 0.000404493
6 *512:10 *525:86 0.000256326
7 *512:10 *525:92 0.000137096
8 *512:10 *684:86 6.07611e-06
9 *512:10 *690:14 1.52362e-05
10 *512:10 *690:16 6.21538e-05
11 *512:10 *725:59 7.56282e-05
12 *512:10 *848:24 0.000293321
*RES
1 *3683:X *512:10 49.7243 
2 *512:10 *3684:A 38 
*END

*D_NET *513 0.000250176
*CONN
*I *3686:A I *D sky130_fd_sc_hd__buf_1
*I *3685:X O *D sky130_fd_sc_hd__mux2_2
*CAP
1 *3686:A 7.38936e-05
2 *3685:X 7.38936e-05
3 *3686:A *516:41 0.000102389
*RES
1 *3685:X *3686:A 47.9471 
*END

*D_NET *514 0.00109479
*CONN
*I *3688:A I *D sky130_fd_sc_hd__buf_1
*I *3687:X O *D sky130_fd_sc_hd__mux2_2
*CAP
1 *3688:A 3.79513e-05
2 *3687:X 0.000244861
3 *514:10 0.000282812
4 *3688:A *3854:CLK 5.50106e-05
5 *3688:A *600:25 4.34745e-05
6 *514:10 *562:200 4.24694e-06
7 *514:10 *600:46 0.000200825
8 *514:10 *726:37 0.000131383
9 *507:30 *514:10 9.42279e-05
*RES
1 *3687:X *514:10 42.3396 
2 *514:10 *3688:A 39.0979 
*END

*D_NET *515 0.00191657
*CONN
*I *3690:A I *D sky130_fd_sc_hd__buf_1
*I *3689:X O *D sky130_fd_sc_hd__mux2_2
*CAP
1 *3690:A 0
2 *3689:X 0
3 *515:10 0.000523813
4 *515:6 0.000523813
5 *515:10 *567:8 0
6 *350:57 *515:10 0.000868945
*RES
1 *3689:X *515:6 38 
2 *515:6 *515:10 27.1179 
3 *515:10 *3690:A 23 
*END

*D_NET *516 0.0348101
*CONN
*I *3704:S I *D sky130_fd_sc_hd__mux2_2
*I *3694:S I *D sky130_fd_sc_hd__mux2_2
*I *3692:S I *D sky130_fd_sc_hd__mux2_2
*I *3702:S I *D sky130_fd_sc_hd__mux2_2
*I *3700:S I *D sky130_fd_sc_hd__mux2_2
*I *3706:S I *D sky130_fd_sc_hd__mux2_2
*I *3696:S I *D sky130_fd_sc_hd__mux2_2
*I *3698:S I *D sky130_fd_sc_hd__mux2_2
*I *3691:X O *D sky130_fd_sc_hd__and4bb_2
*CAP
1 *3704:S 1.99618e-05
2 *3694:S 0
3 *3692:S 0.000457273
4 *3702:S 0
5 *3700:S 0
6 *3706:S 0
7 *3696:S 0.000256409
8 *3698:S 5.94592e-05
9 *3691:X 5.42867e-05
10 *516:127 0.00166015
11 *516:109 0.00281857
12 *516:105 0.00272301
13 *516:86 0.000106666
14 *516:70 0.000530505
15 *516:57 0.00205322
16 *516:51 0.00193357
17 *516:49 0.0011233
18 *516:41 0.00166508
19 *516:24 0.00416043
20 *516:8 0.00414024
21 *3692:S *836:14 0.000117897
22 *3696:S *3696:A1 1.21972e-05
23 *3698:S *3698:A1 9.5877e-05
24 *516:8 *3691:D 2.43944e-05
25 *516:24 *525:14 0.000156123
26 *516:24 *663:12 2.11066e-05
27 *516:24 *672:14 0.000323446
28 *516:41 *3698:A0 0
29 *516:41 *598:16 9.84794e-05
30 *516:41 *598:24 9.84851e-05
31 *516:41 *723:66 9.41704e-05
32 *516:41 *723:79 0.00059732
33 *516:49 *633:23 0
34 *516:49 *817:32 4.6318e-06
35 *516:51 *3666:A0 2.4754e-05
36 *516:51 *3666:A1 0.000685171
37 *516:51 *3666:S 0.00031495
38 *516:51 *3700:A0 3.22879e-05
39 *516:57 *3666:A1 5.50106e-05
40 *516:57 *3700:A0 2.93845e-05
41 *516:57 *3701:A 0.000102389
42 *516:57 *684:50 5.65491e-05
43 *516:57 *822:10 1.57322e-05
44 *516:57 *830:10 0
45 *516:70 *3679:A0 0
46 *516:70 *684:48 0.000389522
47 *516:70 *684:50 0.000107548
48 *516:70 *830:10 0
49 *516:70 *843:12 1.13812e-05
50 *516:86 *723:107 3.64337e-05
51 *516:105 *3691:B_N 0.000108129
52 *516:105 *663:12 0.000161953
53 *516:105 *691:12 8.34394e-05
54 *516:105 *691:16 0.000223434
55 *516:105 *692:10 5.58003e-05
56 *516:109 *3429:A1 9.41704e-05
57 *516:109 *3429:A2 0.000174837
58 *516:109 *3704:A1 5.58003e-05
59 *516:109 *691:16 0.0003777
60 *516:109 *821:10 1.21972e-05
61 *516:127 *3419:A0 5.3304e-05
62 *516:127 *3419:A1 0.000215003
63 *516:127 *3419:A3 0.000136855
64 *516:127 *3419:S0 0.000463746
65 *516:127 *3429:A2 0.000131835
66 *516:127 *3709:A1 3.13952e-05
67 *516:127 *562:75 6.45006e-05
68 *516:127 *684:119 3.26241e-05
69 *516:127 *689:25 9.49842e-05
70 *516:127 *690:10 0.000100477
71 *3686:A *516:41 0.000102389
72 *3841:D *516:109 0.000456439
73 *3842:D *516:57 0.000261798
74 *3846:D *516:105 9.81682e-05
75 *3859:D *516:41 8.6426e-05
76 *3864:D *3692:S 0.000364004
77 *121:8 *516:57 0.000376261
78 *132:8 *516:86 1.82417e-05
79 *139:10 *516:57 1.41244e-05
80 *145:10 *3696:S 2.93845e-05
81 *202:56 *516:24 1.27489e-05
82 *202:56 *516:105 1.39826e-05
83 *202:65 *516:105 1.29848e-05
84 *365:12 *516:57 0
85 *366:16 *516:57 0
86 *366:18 *516:70 0.00011169
87 *404:77 *516:70 0.000223805
88 *470:31 *3698:S 9.41704e-05
89 *470:31 *516:24 0.000181932
90 *476:14 *516:49 0
91 *479:8 *3698:S 2.05503e-05
92 *479:8 *516:24 0.000369049
93 *479:8 *516:41 0.000269676
94 *488:100 *516:49 3.47781e-05
95 *488:100 *516:51 5.3304e-05
96 *488:138 *3696:S 6.17437e-06
97 *494:10 *516:49 1.7992e-05
98 *494:10 *516:51 2.98648e-05
99 *498:16 *516:8 1.24376e-05
100 *503:10 *516:51 8.38096e-05
101 *507:24 *516:8 4.96207e-05
102 *507:114 *516:24 0.00106656
103 *507:143 *516:41 0.000398181
104 *511:12 *516:41 0
*RES
1 *3691:X *516:8 39.0979 
2 *516:8 *516:24 40.1909 
3 *516:24 *3698:S 39.4189 
4 *516:24 *516:41 38.9975 
5 *516:41 *516:49 37.4986 
6 *516:49 *516:51 15.8671 
7 *516:51 *516:57 39.2564 
8 *516:57 *3696:S 41.9564 
9 *516:57 *516:70 28.8786 
10 *516:70 *3706:S 23 
11 *516:51 *3700:S 23 
12 *516:41 *516:86 31.9057 
13 *516:86 *3702:S 23 
14 *516:8 *516:105 31.0743 
15 *516:105 *516:109 22.0814 
16 *516:109 *516:127 36.1286 
17 *516:127 *3692:S 47.1971 
18 *516:109 *3694:S 23 
19 *516:105 *3704:S 23.4971 
*END

*D_NET *517 0.000119134
*CONN
*I *3693:A I *D sky130_fd_sc_hd__buf_2
*I *3692:X O *D sky130_fd_sc_hd__mux2_2
*CAP
1 *3693:A 5.95671e-05
2 *3692:X 5.95671e-05
*RES
1 *3692:X *3693:A 47.0046 
*END

*D_NET *518 0.000290658
*CONN
*I *3695:A I *D sky130_fd_sc_hd__buf_2
*I *3694:X O *D sky130_fd_sc_hd__mux2_2
*CAP
1 *3695:A 0
2 *3694:X 0.000117936
3 *518:8 0.000117936
4 *518:8 *3712:A 0
5 *518:8 *612:24 1.14452e-05
6 *518:8 *625:99 0
7 *136:8 *518:8 4.334e-05
*RES
1 *3694:X *518:8 40.2579 
2 *518:8 *3695:A 38 
*END

*D_NET *519 0.000299277
*CONN
*I *3697:A I *D sky130_fd_sc_hd__buf_2
*I *3696:X O *D sky130_fd_sc_hd__mux2_2
*CAP
1 *3697:A 6.03266e-05
2 *3696:X 6.03266e-05
3 *488:138 *3697:A 0.000178623
*RES
1 *3696:X *3697:A 47.9575 
*END

*D_NET *520 0.000319681
*CONN
*I *3699:A I *D sky130_fd_sc_hd__buf_2
*I *3698:X O *D sky130_fd_sc_hd__mux2_2
*CAP
1 *3699:A 6.29331e-05
2 *3698:X 6.29331e-05
3 *3699:A *670:44 0.00016444
4 *488:88 *3699:A 2.93747e-05
*RES
1 *3698:X *3699:A 47.9471 
*END

*D_NET *521 0.000250176
*CONN
*I *3701:A I *D sky130_fd_sc_hd__buf_2
*I *3700:X O *D sky130_fd_sc_hd__mux2_2
*CAP
1 *3701:A 7.38936e-05
2 *3700:X 7.38936e-05
3 *516:57 *3701:A 0.000102389
*RES
1 *3700:X *3701:A 47.9471 
*END

*D_NET *522 0.000565389
*CONN
*I *3703:A I *D sky130_fd_sc_hd__buf_2
*I *3702:X O *D sky130_fd_sc_hd__mux2_2
*CAP
1 *3703:A 0
2 *3702:X 0.000254084
3 *522:10 0.000254084
4 *522:10 *531:8 0
5 *522:10 *633:23 0
6 *522:10 *663:43 5.72217e-05
7 *522:10 *841:18 0
*RES
1 *3702:X *522:10 42.3086 
2 *522:10 *3703:A 38 
*END

*D_NET *523 0.00119475
*CONN
*I *3705:A I *D sky130_fd_sc_hd__buf_2
*I *3704:X O *D sky130_fd_sc_hd__mux2_2
*CAP
1 *3705:A 0
2 *3704:X 0.000370121
3 *523:8 0.000370121
4 *523:8 *599:8 1.15307e-05
5 *523:8 *599:18 7.51636e-05
6 *523:8 *634:35 0.000319741
7 *141:8 *523:8 4.80733e-05
*RES
1 *3704:X *523:8 46.9486 
2 *523:8 *3705:A 38 
*END

*D_NET *524 0.00105411
*CONN
*I *3707:A I *D sky130_fd_sc_hd__buf_2
*I *3706:X O *D sky130_fd_sc_hd__mux2_2
*CAP
1 *3707:A 0
2 *3706:X 0.000423339
3 *524:8 0.000423339
4 *524:8 *684:31 0
5 *524:8 *684:48 0
6 *524:8 *843:12 0
7 *142:8 *524:8 0.000207437
8 *401:12 *524:8 0
9 *404:77 *524:8 0
*RES
1 *3706:X *524:8 46.9486 
2 *524:8 *3707:A 38 
*END

*D_NET *525 0.0265353
*CONN
*I *3721:S I *D sky130_fd_sc_hd__mux2_2
*I *3711:S I *D sky130_fd_sc_hd__mux2_2
*I *3717:S I *D sky130_fd_sc_hd__mux2_2
*I *3719:S I *D sky130_fd_sc_hd__mux2_2
*I *3723:S I *D sky130_fd_sc_hd__mux2_2
*I *3713:S I *D sky130_fd_sc_hd__mux2_2
*I *3709:S I *D sky130_fd_sc_hd__mux2_2
*I *3715:S I *D sky130_fd_sc_hd__mux2_2
*I *3708:Y O *D sky130_fd_sc_hd__nand3b_2
*CAP
1 *3721:S 0
2 *3711:S 0
3 *3717:S 0
4 *3719:S 0
5 *3723:S 0
6 *3713:S 0.000117981
7 *3709:S 0.000764016
8 *3715:S 0
9 *3708:Y 0.000674123
10 *525:115 0.000661335
11 *525:92 0.00113786
12 *525:86 0.00135844
13 *525:75 0.000293247
14 *525:62 0.00104228
15 *525:60 0.00085163
16 *525:58 0.00116637
17 *525:45 0.00243549
18 *525:39 0.000639309
19 *525:33 0.00152478
20 *525:29 0.0031151
21 *525:14 0.000490855
22 *525:8 0.00222816
23 *3709:S *625:82 0.000512608
24 *525:8 *3238:A3 0.00035857
25 *525:8 *707:41 0.00018158
26 *525:14 *619:71 3.27248e-05
27 *525:14 *663:16 0.000468896
28 *525:14 *721:12 1.52259e-05
29 *525:14 *847:12 1.83408e-05
30 *525:29 *663:12 0.00017837
31 *525:29 *663:16 5.06004e-05
32 *525:29 *685:18 4.35681e-06
33 *525:29 *721:64 0
34 *525:33 *834:10 0.00030894
35 *525:45 *3711:A1 5.5792e-05
36 *525:45 *623:71 0.000125489
37 *525:58 *3658:A1 3.6608e-05
38 *525:58 *3689:A0 0
39 *525:58 *690:10 0
40 *525:58 *690:14 0
41 *525:58 *719:97 2.40392e-05
42 *525:62 *3977:A 0.000106277
43 *525:62 *594:8 5.3304e-05
44 *525:86 *3683:A1 4.53082e-05
45 *525:86 *690:14 0.000109675
46 *525:92 *3437:S0 5.41288e-05
47 *525:92 *3719:A1 0.000185368
48 *525:92 *590:6 0.000139357
49 *525:92 *590:25 0.000169595
50 *525:92 *690:14 6.39615e-05
51 *525:92 *723:107 2.07484e-05
52 *525:115 *3469:A1 8.22174e-05
53 *525:115 *3704:A0 4.85823e-05
54 *525:115 *599:59 0
55 *525:115 *674:8 0
56 *525:115 *685:10 0.000136007
57 *525:115 *685:18 4.69488e-06
58 *525:115 *685:138 0.000141954
59 *525:115 *692:10 0.000192223
60 *525:115 *721:64 0
61 *525:115 *834:10 7.10623e-05
62 *525:115 *842:8 5.54823e-05
63 *525:115 *850:16 0
64 *3622:D_N *525:14 9.26098e-05
65 *3622:D_N *525:29 0.000207498
66 *3848:D *3709:S 1.64354e-05
67 *45:8 *525:14 0.000171906
68 *104:8 *525:58 0.00021341
69 *130:8 *525:14 6.35124e-05
70 *202:104 *525:29 0.000389974
71 *350:26 *525:58 0.000166387
72 *352:44 *525:115 4.6318e-06
73 *366:16 *3713:S 0.000100477
74 *479:8 *525:14 0.00119277
75 *479:43 *525:14 3.70094e-05
76 *479:43 *525:29 0.00031842
77 *481:10 *525:58 0
78 *498:38 *3709:S 1.90678e-05
79 *498:38 *525:45 0.000137995
80 *498:38 *525:58 5.44889e-06
81 *498:42 *525:58 0.00029511
82 *507:46 *525:39 0
83 *512:10 *525:86 0.000256326
84 *512:10 *525:92 0.000137096
85 *516:24 *525:14 0.000156123
*RES
1 *3708:Y *525:8 47.1971 
2 *525:8 *525:14 33.3736 
3 *525:14 *3715:S 23 
4 *525:8 *525:29 26.3344 
5 *525:29 *525:33 37.5371 
6 *525:33 *525:39 31.9057 
7 *525:39 *525:45 8.41 
8 *525:45 *3709:S 33.6471 
9 *525:45 *525:58 39.795 
10 *525:58 *525:60 15 
11 *525:60 *525:62 11.5793 
12 *525:62 *3713:S 25.5271 
13 *525:62 *525:75 35.7793 
14 *525:75 *3723:S 23 
15 *525:60 *525:86 20.365 
16 *525:86 *525:92 35.6314 
17 *525:92 *3719:S 23 
18 *525:86 *3717:S 38 
19 *525:39 *3711:S 23 
20 *525:29 *525:115 29.7486 
21 *525:115 *3721:S 23 
*END

*D_NET *526 0.000916089
*CONN
*I *3710:A I *D sky130_fd_sc_hd__buf_1
*I *3709:X O *D sky130_fd_sc_hd__mux2_2
*CAP
1 *3710:A 0
2 *3709:X 0.000199466
3 *526:10 0.000199466
4 *526:10 *3419:A3 4.66892e-05
5 *526:10 *3709:A1 0.00010546
6 *526:10 *562:75 0
7 *526:10 *625:65 1.84831e-05
8 *350:73 *526:10 0.000346523
*RES
1 *3709:X *526:10 43.3443 
2 *526:10 *3710:A 38 
*END

*D_NET *527 0.00192828
*CONN
*I *3712:A I *D sky130_fd_sc_hd__buf_1
*I *3711:X O *D sky130_fd_sc_hd__mux2_2
*CAP
1 *3712:A 0.000554987
2 *3711:X 0.000132745
3 *527:8 0.000687732
4 *3712:A *544:106 6.07611e-06
5 *3712:A *612:24 0
6 *3712:A *623:77 0.000297179
7 *3712:A *837:10 8.92006e-06
8 *136:8 *3712:A 0
9 *144:8 *3712:A 5.21127e-05
10 *498:38 *527:8 0.000188526
11 *509:8 *3712:A 0
12 *518:8 *3712:A 0
*RES
1 *3711:X *527:8 40.0507 
2 *527:8 *3712:A 48.3571 
*END

*D_NET *528 0.00157835
*CONN
*I *3714:A I *D sky130_fd_sc_hd__buf_1
*I *3713:X O *D sky130_fd_sc_hd__mux2_2
*CAP
1 *3714:A 0
2 *3713:X 0.000323961
3 *528:10 0.000323961
4 *528:10 *3713:A0 0.000326305
5 *528:10 *621:16 6.10745e-05
6 *528:10 *621:96 0.000234785
7 *528:10 *684:48 0.000174515
8 *528:10 *684:50 0.000122304
9 *501:10 *528:10 1.14452e-05
*RES
1 *3713:X *528:10 47.8186 
2 *528:10 *3714:A 38 
*END

*D_NET *529 0.000687885
*CONN
*I *3716:A I *D sky130_fd_sc_hd__buf_1
*I *3715:X O *D sky130_fd_sc_hd__mux2_2
*CAP
1 *3716:A 0
2 *3715:X 0.000234716
3 *529:8 0.000234716
4 *529:8 *685:73 9.66585e-05
5 *146:10 *529:8 0.000121793
*RES
1 *3715:X *529:8 27.8057 
2 *529:8 *3716:A 23 
*END

*D_NET *530 0.000907622
*CONN
*I *3718:A I *D sky130_fd_sc_hd__buf_1
*I *3717:X O *D sky130_fd_sc_hd__mux2_2
*CAP
1 *3718:A 4.2635e-05
2 *3717:X 0.000214445
3 *530:10 0.00025708
4 *3718:A *3437:S0 0.000102389
5 *530:10 *594:10 0.000237769
6 *3456:A0 *530:10 5.3304e-05
*RES
1 *3717:X *530:10 41.9357 
2 *530:10 *3718:A 39.0979 
*END

*D_NET *531 0.0013428
*CONN
*I *3720:A I *D sky130_fd_sc_hd__buf_1
*I *3719:X O *D sky130_fd_sc_hd__mux2_2
*CAP
1 *3720:A 3.0992e-05
2 *3719:X 0.000389477
3 *531:8 0.000420469
4 *3720:A *562:214 5.40337e-05
5 *531:8 *3719:A1 0.000115526
6 *531:8 *633:23 0
7 *531:8 *841:18 9.33388e-05
8 *531:8 *849:10 0.000184927
9 *350:26 *3720:A 5.40337e-05
10 *522:10 *531:8 0
*RES
1 *3719:X *531:8 46.9486 
2 *531:8 *3720:A 39.0979 
*END

*D_NET *532 0.0008295
*CONN
*I *3722:A I *D sky130_fd_sc_hd__buf_1
*I *3721:X O *D sky130_fd_sc_hd__mux2_2
*CAP
1 *3722:A 0.000147302
2 *3721:X 0.00014407
3 *532:8 0.000291371
4 *532:8 *634:35 0.000246757
*RES
1 *3721:X *532:8 41.3143 
2 *532:8 *3722:A 40.5271 
*END

*D_NET *533 0.00301511
*CONN
*I *3724:A I *D sky130_fd_sc_hd__buf_1
*I *3723:X O *D sky130_fd_sc_hd__mux2_2
*CAP
1 *3724:A 0.000659814
2 *3723:X 0.000393547
3 *533:10 0.00105336
4 *3724:A *3871:CLK 0.00014981
5 *3724:A *592:16 1.59094e-05
6 *533:10 *3723:A1 0
7 *533:10 *3988:A 0.000125904
8 *533:10 *592:31 0.000439095
9 *533:10 *719:75 1.84831e-05
10 *533:10 *851:8 0
11 *150:8 *3724:A 5.78583e-05
12 *366:18 *533:10 0.00010133
*RES
1 *3723:X *533:10 48.6264 
2 *533:10 *3724:A 47.4457 
*END

*D_NET *534 0.00189355
*CONN
*I *3726:A I *D sky130_fd_sc_hd__clkbuf_1
*I *3725:X O *D sky130_fd_sc_hd__and3b_2
*CAP
1 *3726:A 0.00021832
2 *3725:X 0.000443014
3 *534:10 0.000661334
4 *3726:A *535:8 1.91457e-05
5 *3726:A *535:18 0.000144501
6 *534:10 *562:347 0
7 *534:10 *703:82 2.8744e-05
8 *370:10 *534:10 0.000378492
9 *431:10 *534:10 0
*RES
1 *3725:X *534:10 46.5136 
2 *534:10 *3726:A 41.5007 
*END

*D_NET *535 0.0122899
*CONN
*I *4079:A I *D sky130_fd_sc_hd__buf_2
*I *3733:S I *D sky130_fd_sc_hd__mux2_2
*I *3739:S I *D sky130_fd_sc_hd__mux2_2
*I *3729:S I *D sky130_fd_sc_hd__mux2_2
*I *3726:X O *D sky130_fd_sc_hd__clkbuf_1
*CAP
1 *4079:A 0
2 *3733:S 0
3 *3739:S 0.000508883
4 *3729:S 0
5 *3726:X 6.63343e-05
6 *535:36 0.0013802
7 *535:26 0.0029382
8 *535:18 0.00153033
9 *535:8 0.000547549
10 *3739:S *3466:S0 0.000380973
11 *3739:S *3468:S 5.41385e-05
12 *3739:S *858:10 0
13 *535:18 *3733:A0 5.5792e-05
14 *535:18 *571:8 0
15 *535:18 *662:12 0.000259467
16 *535:26 *3442:S0 0.000911414
17 *535:26 *3466:S0 6.43233e-05
18 *535:26 *3733:A0 0.000144664
19 *535:26 *3787:CLK 0.000167319
20 *535:26 *620:42 0.000100218
21 *535:26 *687:64 9.2057e-05
22 *535:26 *783:27 3.88725e-05
23 *535:26 *791:8 0.000168524
24 *535:36 *620:70 0.000138859
25 *535:36 *624:73 3.85196e-05
26 *535:36 *699:52 1.3523e-05
27 *3468:A0 *3739:S 9.84851e-05
28 *3726:A *535:8 1.91457e-05
29 *3726:A *535:18 0.000144501
30 *3811:D *535:36 1.00591e-05
31 *4084:A *535:26 5.5792e-05
32 *66:8 *535:26 0
33 *74:8 *3739:S 8.36198e-05
34 *74:8 *535:26 0.000457444
35 *413:48 *535:26 0.000205279
36 *413:54 *535:26 1.16767e-05
37 *422:10 *535:18 0
38 *422:10 *535:26 1.7403e-05
39 *422:29 *535:26 0.00126753
40 *422:45 *535:36 0.000308186
41 *442:24 *535:26 0
42 *442:37 *3739:S 0
43 *446:10 *3739:S 1.0654e-05
*RES
1 *3726:X *535:8 24.4707 
2 *535:8 *535:18 40.3986 
3 *535:18 *535:26 48.4743 
4 *535:26 *535:36 34.3886 
5 *535:36 *3729:S 23 
6 *535:26 *3739:S 49.455 
7 *535:18 *3733:S 23 
8 *535:8 *4079:A 23 
*END

*D_NET *536 0.000336722
*CONN
*I *3728:A I *D sky130_fd_sc_hd__buf_1
*I *3727:X O *D sky130_fd_sc_hd__mux2_2
*CAP
1 *3728:A 9.73812e-05
2 *3727:X 9.73812e-05
3 *3728:A *626:18 0.00014196
*RES
1 *3727:X *3728:A 48.4236 
*END

*D_NET *537 0.00163312
*CONN
*I *3730:A I *D sky130_fd_sc_hd__buf_1
*I *3729:X O *D sky130_fd_sc_hd__mux2_2
*CAP
1 *3730:A 0.00016179
2 *3729:X 0.000186343
3 *537:8 0.000348133
4 *537:8 *3428:S 0.000251566
5 *537:8 *630:14 0.000478026
6 *537:8 *681:124 0.000161483
7 *152:10 *3730:A 4.57742e-05
*RES
1 *3729:X *537:8 44.4836 
2 *537:8 *3730:A 40.5271 
*END

*D_NET *538 0.00083663
*CONN
*I *3732:A I *D sky130_fd_sc_hd__buf_1
*I *3731:X O *D sky130_fd_sc_hd__mux2_2
*CAP
1 *3732:A 0.000245179
2 *3731:X 8.82946e-05
3 *538:8 0.000333473
4 *538:8 *662:59 0
5 *347:10 *538:8 0.000169683
*RES
1 *3731:X *538:8 40.2579 
2 *538:8 *3732:A 41.9564 
*END

*D_NET *539 0.00080494
*CONN
*I *3734:A I *D sky130_fd_sc_hd__buf_1
*I *3733:X O *D sky130_fd_sc_hd__mux2_2
*CAP
1 *3734:A 0
2 *3733:X 0.000320508
3 *539:10 0.000320508
4 *539:10 *3442:A2 3.90213e-05
5 *539:10 *548:10 1.0092e-05
6 *539:10 *668:12 2.34132e-05
7 *4084:A *539:10 4.75133e-05
8 *154:8 *539:10 3.88725e-05
9 *413:48 *539:10 5.01232e-06
*RES
1 *3733:X *539:10 42.8161 
2 *539:10 *3734:A 38 
*END

*D_NET *540 0.00108499
*CONN
*I *3736:A I *D sky130_fd_sc_hd__buf_1
*I *3735:X O *D sky130_fd_sc_hd__mux2_2
*CAP
1 *3736:A 0
2 *3735:X 0.000323564
3 *540:10 0.000323564
4 *540:10 *3509:A1 0.000104429
5 *540:10 *628:22 0.000165648
6 *540:10 *668:26 0.000167785
*RES
1 *3735:X *540:10 43.7379 
2 *540:10 *3736:A 38 
*END

*D_NET *541 0.000577415
*CONN
*I *3738:A I *D sky130_fd_sc_hd__buf_1
*I *3737:X O *D sky130_fd_sc_hd__mux2_2
*CAP
1 *3738:A 0.000150864
2 *3737:X 0.000150864
3 *3738:A *687:78 0.000275687
*RES
1 *3737:X *3738:A 49.8529 
*END

*D_NET *542 0.00028603
*CONN
*I *3740:A I *D sky130_fd_sc_hd__buf_1
*I *3739:X O *D sky130_fd_sc_hd__mux2_2
*CAP
1 *3740:A 0.000117136
2 *3739:X 0.000117136
3 *3740:A *3468:S 5.17574e-05
*RES
1 *3739:X *3740:A 48.4236 
*END

*D_NET *543 0.00119969
*CONN
*I *3742:A I *D sky130_fd_sc_hd__buf_1
*I *3741:X O *D sky130_fd_sc_hd__mux2_2
*CAP
1 *3742:A 0.000158806
2 *3741:X 0.000243244
3 *543:8 0.00040205
4 *543:8 *662:52 4.21594e-06
5 *543:8 *662:59 0.000153685
6 *347:10 *543:8 0.000237686
*RES
1 *3741:X *543:8 44.4836 
2 *543:8 *3742:A 40.5271 
*END

*D_NET *544 0.0429205
*CONN
*I *3756:S I *D sky130_fd_sc_hd__mux2_2
*I *3750:S I *D sky130_fd_sc_hd__mux2_2
*I *3754:S I *D sky130_fd_sc_hd__mux2_2
*I *3746:S I *D sky130_fd_sc_hd__mux2_2
*I *3744:S I *D sky130_fd_sc_hd__mux2_2
*I *3748:S I *D sky130_fd_sc_hd__mux2_2
*I *3758:S I *D sky130_fd_sc_hd__mux2_2
*I *3752:S I *D sky130_fd_sc_hd__mux2_2
*I *3743:X O *D sky130_fd_sc_hd__and4bb_2
*CAP
1 *3756:S 0
2 *3750:S 0
3 *3754:S 0.000135696
4 *3746:S 0
5 *3744:S 6.81495e-05
6 *3748:S 5.77937e-05
7 *3758:S 0
8 *3752:S 0
9 *3743:X 0.000249868
10 *544:169 0.00176181
11 *544:152 0.000402612
12 *544:138 0.0032713
13 *544:116 0.00101478
14 *544:106 0.00173221
15 *544:89 0.000878301
16 *544:78 0.00169119
17 *544:61 0.00207551
18 *544:38 0.00281772
19 *544:32 0.0032973
20 *544:22 0.00251053
21 *544:16 0.00308507
22 *544:12 0.000867639
23 *3744:S *3744:A1 5.58003e-05
24 *3748:S *622:14 1.47795e-05
25 *3748:S *622:23 5.5792e-05
26 *3754:S *562:37 5.40241e-05
27 *3754:S *630:16 0
28 *3754:S *681:44 0.00014752
29 *3754:S *724:87 0.000109352
30 *544:12 *3552:A_N 4.82774e-05
31 *544:12 *562:302 3.88929e-05
32 *544:12 *701:10 0
33 *544:12 *703:12 9.5876e-06
34 *544:12 *869:40 6.15346e-05
35 *544:16 *635:28 0.000206515
36 *544:22 *681:44 0.00014693
37 *544:32 *630:16 0
38 *544:32 *674:12 0.000119313
39 *544:32 *681:44 2.11157e-05
40 *544:32 *681:58 0.000149098
41 *544:32 *685:138 0.000661583
42 *544:38 *3526:A0 0.000352547
43 *544:38 *3526:A1 2.84809e-05
44 *544:38 *618:25 3.70187e-05
45 *544:38 *681:58 0.000404029
46 *544:61 *3450:S0 0
47 *544:61 *3758:A0 0.000316071
48 *544:61 *613:63 9.03639e-05
49 *544:61 *618:25 0.000351875
50 *544:61 *648:12 0
51 *544:61 *686:49 0.000195248
52 *544:61 *720:36 2.03764e-06
53 *544:61 *856:14 0.000143166
54 *544:61 *864:24 0.000111148
55 *544:61 *867:8 4.41619e-05
56 *544:78 *3748:A0 2.64616e-05
57 *544:78 *3758:A0 8.48502e-06
58 *544:78 *552:10 5.50049e-05
59 *544:78 *614:21 0.000187612
60 *544:78 *622:14 9.8592e-06
61 *544:78 *628:20 6.48014e-05
62 *544:78 *628:22 0.000474551
63 *544:78 *636:17 8.57765e-05
64 *544:78 *668:41 0.000169674
65 *544:89 *3416:A2 0.000225275
66 *544:89 *3501:A0 0.000219891
67 *544:89 *614:21 0.000621373
68 *544:89 *628:10 0.000166233
69 *544:89 *628:20 0
70 *544:89 *668:72 0
71 *544:89 *756:10 5.21024e-05
72 *544:89 *860:28 0.000113235
73 *544:106 *3788:CLK 7.55491e-05
74 *544:106 *612:24 7.70391e-05
75 *544:106 *674:54 0.00039629
76 *544:116 *3746:A1 6.74169e-05
77 *544:116 *3810:CLK 7.96821e-05
78 *544:116 *586:10 8.13516e-05
79 *544:116 *674:54 7.43426e-05
80 *544:116 *779:10 0
81 *544:138 *635:28 0.000717376
82 *544:152 *3750:A0 0.000142636
83 *544:152 *3750:A1 6.06161e-05
84 *544:152 *571:8 2.05503e-05
85 *544:152 *687:54 0
86 *544:169 *635:28 0.00265672
87 *544:169 *688:142 2.26497e-05
88 *3440:A0 *544:38 0.000216776
89 *3440:A1 *544:38 9.84794e-05
90 *3440:S *544:38 0.000141954
91 *3544:S *544:116 0.000664048
92 *3712:A *544:106 6.07611e-06
93 *48:10 *544:116 0.000160125
94 *67:8 *544:106 0.000135557
95 *128:10 *544:32 5.50106e-05
96 *151:10 *544:89 0
97 *158:10 *544:61 0.000250665
98 *347:10 *544:38 0
99 *347:10 *544:61 9.38467e-05
100 *360:14 *544:106 0
101 *367:8 *544:38 3.2457e-05
102 *384:10 *544:32 5.10946e-06
103 *390:10 *544:169 0.000230707
104 *396:8 *544:61 0.000105943
105 *398:8 *544:116 0
106 *413:108 *544:78 0.0001081
107 *413:108 *544:89 0.000489638
108 *413:112 *544:78 0
109 *432:30 *544:152 0
110 *432:47 *544:116 0.000182873
111 *432:66 *544:116 0.000660877
112 *437:10 *544:106 0.000362337
113 *437:10 *544:116 1.42186e-05
114 *440:8 *544:116 0.000147316
115 *461:18 *544:22 0.00189265
116 *461:18 *544:32 0
117 *507:12 *544:12 1.66114e-05
118 *507:24 *544:12 2.84979e-06
*RES
1 *3743:X *544:12 47.734 
2 *544:12 *544:16 9.5792 
3 *544:16 *544:22 20.1347 
4 *544:22 *544:32 34.9996 
5 *544:32 *544:38 46.6514 
6 *544:38 *3752:S 38 
7 *544:38 *544:61 46.3821 
8 *544:61 *3758:S 23 
9 *544:61 *544:78 49.3886 
10 *544:78 *3748:S 24.0979 
11 *544:78 *544:89 36.9779 
12 *544:89 *3744:S 39.0979 
13 *544:32 *544:106 32.2861 
14 *544:106 *544:116 41.2554 
15 *544:116 *3746:S 23 
16 *544:22 *3754:S 41.1796 
17 *544:16 *544:138 3.51307 
18 *544:138 *544:152 35.1783 
19 *544:152 *3750:S 23 
20 *544:138 *544:169 40.6398 
21 *544:169 *3756:S 23 
*END

*D_NET *545 0.000250176
*CONN
*I *3745:A I *D sky130_fd_sc_hd__buf_1
*I *3744:X O *D sky130_fd_sc_hd__mux2_2
*CAP
1 *3745:A 7.38936e-05
2 *3744:X 7.38936e-05
3 *3745:A *628:10 0.000102389
*RES
1 *3744:X *3745:A 47.9471 
*END

*D_NET *546 0.00338839
*CONN
*I *3747:A I *D sky130_fd_sc_hd__buf_1
*I *3746:X O *D sky130_fd_sc_hd__mux2_2
*CAP
1 *3747:A 0
2 *3746:X 0.000388767
3 *546:12 0.00038016
4 *546:8 0.000768927
5 *546:8 *3746:A0 1.56163e-05
6 *546:8 *3746:A1 1.84831e-05
7 *546:8 *3881:CLK 1.84831e-05
8 *546:12 *3426:S0 0
9 *546:12 *3503:A0 0.000514013
10 *546:12 *624:42 3.93526e-05
11 *546:12 *686:10 3.04021e-05
12 *546:12 *749:10 0.000287017
13 *160:12 *546:8 4.83976e-05
14 *160:12 *546:12 6.22475e-05
15 *356:14 *546:12 0.000816524
*RES
1 *3746:X *546:8 42.9093 
2 *546:8 *546:12 28.5264 
3 *546:12 *3747:A 23 
*END

*D_NET *547 0.000340009
*CONN
*I *3749:A I *D sky130_fd_sc_hd__buf_1
*I *3748:X O *D sky130_fd_sc_hd__mux2_2
*CAP
1 *3749:A 9.80844e-05
2 *3748:X 9.80844e-05
3 *3749:A *3748:A0 0.00014384
*RES
1 *3748:X *3749:A 48.4236 
*END

*D_NET *548 0.00210519
*CONN
*I *3751:A I *D sky130_fd_sc_hd__buf_1
*I *3750:X O *D sky130_fd_sc_hd__mux2_2
*CAP
1 *3751:A 4.06193e-05
2 *3750:X 0.000770401
3 *548:10 0.000811021
4 *3751:A *729:76 0.000100477
5 *548:10 *3442:A2 3.09516e-05
6 *548:10 *3750:A1 7.74518e-05
7 *548:10 *3883:CLK 5.50606e-05
8 *548:10 *620:22 7.19838e-05
9 *3883:D *548:10 4.9054e-06
10 *162:10 *548:10 8.3843e-05
11 *395:8 *548:10 4.83785e-05
12 *539:10 *548:10 1.0092e-05
*RES
1 *3750:X *548:10 48.5021 
2 *548:10 *3751:A 39.0979 
*END

*D_NET *549 0.00234978
*CONN
*I *3753:A I *D sky130_fd_sc_hd__buf_1
*I *3752:X O *D sky130_fd_sc_hd__mux2_2
*CAP
1 *3753:A 9.53939e-05
2 *3752:X 0.000332907
3 *549:10 0.000428301
4 *549:10 *3752:A0 0.000132263
5 *549:10 *609:40 0.000179089
6 *549:10 *628:22 0.000561356
7 *353:12 *3753:A 0.000221301
8 *367:14 *3753:A 0.000399172
*RES
1 *3752:X *549:10 47.0211 
2 *549:10 *3753:A 42.4329 
*END

*D_NET *550 0.00204111
*CONN
*I *3755:A I *D sky130_fd_sc_hd__buf_1
*I *3754:X O *D sky130_fd_sc_hd__mux2_2
*CAP
1 *3755:A 7.08367e-05
2 *3754:X 0.000531875
3 *550:14 0.000602712
4 *3755:A *724:26 0.000144501
5 *550:14 *3781:CLK 0.000193873
6 *550:14 *562:23 2.07484e-05
7 *550:14 *612:51 0.000166353
8 *550:14 *630:16 0
9 *550:14 *865:28 0.000194684
10 *164:8 *550:14 0.000115526
*RES
1 *3754:X *550:14 49.745 
2 *550:14 *3755:A 39.5743 
*END

*D_NET *551 0.000335249
*CONN
*I *3757:A I *D sky130_fd_sc_hd__buf_1
*I *3756:X O *D sky130_fd_sc_hd__mux2_2
*CAP
1 *3757:A 0.000147282
2 *3756:X 0.000147282
3 *165:12 *3757:A 4.06849e-05
*RES
1 *3756:X *3757:A 48.9 
*END

*D_NET *552 0.00183436
*CONN
*I *3759:A I *D sky130_fd_sc_hd__buf_1
*I *3758:X O *D sky130_fd_sc_hd__mux2_2
*CAP
1 *3759:A 0
2 *3758:X 0.000340276
3 *552:10 0.000340276
4 *552:10 *3515:A0 0.000337024
5 *552:10 *3758:A0 2.02872e-05
6 *552:10 *628:22 0.000476768
7 *552:10 *668:41 4.48521e-05
8 *552:10 *755:10 0.000219873
9 *544:78 *552:10 5.50049e-05
*RES
1 *3758:X *552:10 47.0107 
2 *552:10 *3759:A 38 
*END

*D_NET *553 0.0022462
*CONN
*I *3368:B2 I *D sky130_fd_sc_hd__a32oi_2
*I *3383:A1 I *D sky130_fd_sc_hd__o2111a_2
*I *3889:Q O *D sky130_fd_sc_hd__dfrtp_2
*CAP
1 *3368:B2 0
2 *3383:A1 7.93185e-05
3 *3889:Q 0.000491303
4 *553:23 0.000177943
5 *553:6 0.000748565
6 *553:6 *3380:A_N 2.64616e-05
7 *553:6 *565:61 3.37738e-05
8 *3380:C *3383:A1 0.000278555
9 *3380:C *553:6 5.53039e-05
10 *299:22 *553:23 6.03323e-05
11 *312:6 *3383:A1 0.000236355
12 *312:6 *553:23 5.82853e-05
*RES
1 *3889:Q *553:6 28.8621 
2 *553:6 *3383:A1 26.8529 
3 *553:6 *553:23 33.0036 
4 *553:23 *3368:B2 23 
*END

*D_NET *554 0.00104082
*CONN
*I *3368:A3 I *D sky130_fd_sc_hd__a32oi_2
*I *3380:A_N I *D sky130_fd_sc_hd__nand3b_2
*I *3890:Q O *D sky130_fd_sc_hd__dfrtp_2
*CAP
1 *3368:A3 0.000100117
2 *3380:A_N 3.21736e-05
3 *3890:Q 0.00012747
4 *554:10 0.000259761
5 *3368:A3 *638:8 4.55501e-05
6 *3380:A_N *565:61 2.64616e-05
7 *554:10 *565:61 5.52542e-05
8 *554:10 *638:8 1.70419e-05
9 *296:35 *3368:A3 0.000186772
10 *296:35 *554:10 0.000163759
11 *553:6 *3380:A_N 2.64616e-05
*RES
1 *3890:Q *554:10 40.8793 
2 *554:10 *3380:A_N 38.6214 
3 *554:10 *3368:A3 40.61 
*END

*D_NET *555 0.00105523
*CONN
*I *3393:B1_N I *D sky130_fd_sc_hd__a21bo_2
*I *3377:A_N I *D sky130_fd_sc_hd__nand3b_2
*I *3891:Q O *D sky130_fd_sc_hd__dfrtp_2
*CAP
1 *3393:B1_N 1.77915e-05
2 *3377:A_N 0.00020191
3 *3891:Q 9.28097e-05
4 *555:10 0.000219702
5 *555:8 9.28097e-05
6 *3377:B *3377:A_N 0.0001082
7 *3393:A1 *3377:A_N 9.84851e-05
8 *3393:A2 *3377:A_N 5.38612e-05
9 *3401:A1 *555:8 0
10 *3401:A2 *555:8 0.000169665
*RES
1 *3891:Q *555:8 40.2579 
2 *555:8 *555:10 15 
3 *555:10 *3377:A_N 27.4743 
4 *555:10 *3393:B1_N 23.3211 
*END

*D_NET *556 0.000923612
*CONN
*I *3400:A I *D sky130_fd_sc_hd__or3_4
*I *3392:B1 I *D sky130_fd_sc_hd__o21ai_2
*I *3892:Q O *D sky130_fd_sc_hd__dfrtp_2
*CAP
1 *3400:A 0
2 *3392:B1 0.000135721
3 *3892:Q 0.00023757
4 *556:8 0.00037329
5 *556:8 *3892:CLK 9.84851e-05
6 *3392:A1 *3392:B1 2.18409e-05
7 *3400:C *3392:B1 5.67058e-05
*RES
1 *3892:Q *556:8 27.3293 
2 *556:8 *3392:B1 25.5479 
3 *556:8 *3400:A 23 
*END

*D_NET *557 0.000769983
*CONN
*I *3323:B I *D sky130_fd_sc_hd__nand2_2
*I *3894:Q O *D sky130_fd_sc_hd__dfrtp_2
*CAP
1 *3323:B 5.90713e-05
2 *3894:Q 0.000127524
3 *557:10 0.000186596
4 *3308:A2_N *557:10 0.000163256
5 *3327:B1 *3323:B 5.58003e-05
6 *259:10 *557:10 0.000165538
7 *260:12 *3323:B 1.21972e-05
*RES
1 *3894:Q *557:10 40.8793 
2 *557:10 *3323:B 39.0979 
*END

*D_NET *558 0.00181478
*CONN
*I *3326:B1 I *D sky130_fd_sc_hd__o22ai_2
*I *3327:A1_N I *D sky130_fd_sc_hd__o2bb2ai_2
*I *3895:Q O *D sky130_fd_sc_hd__dfrtp_2
*CAP
1 *3326:B1 0.000286913
2 *3327:A1_N 0.0001058
3 *3895:Q 0.000134809
4 *558:10 0.000527521
5 *3326:B1 *718:91 0.000119599
6 *3326:B1 *718:114 2.36804e-05
7 *558:10 *718:81 5.82853e-05
8 *558:10 *718:91 8.07381e-05
9 *251:16 *3326:B1 0.000249918
10 *255:10 *3326:B1 0
11 *258:10 *3326:B1 9.64022e-05
12 *259:10 *3326:B1 0.000121096
13 *259:10 *558:10 1.00203e-05
*RES
1 *3895:Q *558:10 40.8793 
2 *558:10 *3327:A1_N 39.5743 
3 *558:10 *3326:B1 46.5964 
*END

*D_NET *559 0.00106588
*CONN
*I *3315:A I *D sky130_fd_sc_hd__nor2_2
*I *3328:A2 I *D sky130_fd_sc_hd__a21oi_2
*I *3896:Q O *D sky130_fd_sc_hd__dfrtp_2
*CAP
1 *3315:A 4.22228e-05
2 *3328:A2 0
3 *3896:Q 0.000457407
4 *559:12 4.22228e-05
5 *559:10 0.000457407
6 *3315:B *3315:A 6.66152e-05
*RES
1 *3896:Q *559:10 45.25 
2 *559:10 *559:12 15 
3 *559:12 *3328:A2 23 
4 *559:12 *3315:A 24.1186 
*END

*D_NET *560 0.00189009
*CONN
*I *3336:B1 I *D sky130_fd_sc_hd__a31oi_2
*I *3329:A2_N I *D sky130_fd_sc_hd__o2bb2ai_2
*I *3897:Q O *D sky130_fd_sc_hd__dfrtp_2
*CAP
1 *3336:B1 0.000341492
2 *3329:A2_N 0
3 *3897:Q 0.00017045
4 *560:8 0.000511942
5 *3336:B1 *3893:CLK 1.52259e-05
6 *3336:B1 *3900:CLK 6.07611e-06
7 *560:8 *3900:CLK 7.37814e-06
8 *560:8 *596:66 0.000172535
9 *3311:A *3336:B1 1.83564e-05
10 *244:8 *3336:B1 0.000384805
11 *247:10 *560:8 0
12 *248:8 *3336:B1 4.98718e-06
13 *248:8 *560:8 4.83778e-05
14 *262:16 *3336:B1 0.000208469
*RES
1 *3897:Q *560:8 42.7229 
2 *560:8 *3329:A2_N 38 
3 *560:8 *3336:B1 47.135 
*END

*D_NET *561 0.00762347
*CONN
*I *3947:A I *D sky130_fd_sc_hd__clkbuf_16
*I *3946:A I *D sky130_fd_sc_hd__clkbuf_16
*I *3949:A I *D sky130_fd_sc_hd__clkbuf_16
*I *3948:A I *D sky130_fd_sc_hd__clkbuf_16
*I *3944:X O *D sky130_fd_sc_hd__clkbuf_16
*CAP
1 *3947:A 7.71322e-05
2 *3946:A 0.00014993
3 *3949:A 2.5893e-05
4 *3948:A 0.000150013
5 *3944:X 0
6 *561:73 0.000109237
7 *561:61 0.000189359
8 *561:59 0.000814676
9 *561:48 0.000853351
10 *561:35 0.000591964
11 *561:15 0.00031993
12 *561:13 0.00157392
13 *561:6 0.000837935
14 *561:4 0.000110207
15 *3946:A *709:8 4.67488e-05
16 *3947:A *4038:A 5.40521e-05
17 *561:13 *895:48 0
18 *561:59 *709:38 0.000376504
19 *3261:B *561:59 0
20 *3364:C1 *561:13 2.58781e-05
21 *3373:C *561:13 8.27077e-05
22 *3374:B *3948:A 2.69066e-07
23 *3374:B *561:15 2.93747e-05
24 *3386:A2 *561:13 1.59312e-05
25 *3387:B2 *561:35 2.98648e-05
26 *176:14 *561:13 0
27 *178:40 *561:59 9.63815e-05
28 *181:19 *561:13 0.00045769
29 *282:10 *561:13 9.52742e-05
30 *282:22 *3948:A 1.42996e-05
31 *282:22 *561:15 5.18157e-06
32 *290:33 *561:13 1.26897e-05
33 *304:31 *561:13 0
34 *304:44 *561:13 0
35 *304:44 *561:35 0
36 *305:14 *561:13 0.000281032
37 *306:10 *3948:A 3.22467e-05
38 *318:18 *561:35 0.000120853
39 *322:10 *561:35 6.07611e-06
40 *323:10 *3949:A 3.6862e-05
41 *323:10 *561:35 0
42 *327:18 *561:59 0
*RES
1 *3944:X *561:4 23 
2 *561:4 *561:6 15 
3 *561:6 *561:13 35.5693 
4 *561:13 *561:15 2.66696 
5 *561:15 *3948:A 25.7602 
6 *561:13 *561:35 25.3986 
7 *561:35 *3949:A 38.7095 
8 *561:4 *561:48 1.57946 
9 *561:48 *561:59 44.7848 
10 *561:59 *561:61 0.683571 
11 *561:61 *3946:A 24.9886 
12 *561:59 *561:73 0.554107 
13 *561:73 *3947:A 24.6416 
*END

*D_NET *562 0.0428481
*CONN
*I *3954:A I *D sky130_fd_sc_hd__clkbuf_8
*I *3953:A I *D sky130_fd_sc_hd__clkbuf_8
*I *3956:A I *D sky130_fd_sc_hd__clkbuf_8
*I *3955:A I *D sky130_fd_sc_hd__clkbuf_8
*I *3952:A I *D sky130_fd_sc_hd__clkbuf_8
*I *3951:A I *D sky130_fd_sc_hd__clkbuf_8
*I *3964:A I *D sky130_fd_sc_hd__clkbuf_8
*I *3965:A I *D sky130_fd_sc_hd__clkbuf_8
*I *3959:A I *D sky130_fd_sc_hd__clkbuf_8
*I *3958:A I *D sky130_fd_sc_hd__clkbuf_8
*I *3963:A I *D sky130_fd_sc_hd__clkbuf_8
*I *3962:A I *D sky130_fd_sc_hd__clkbuf_8
*I *3961:A I *D sky130_fd_sc_hd__clkbuf_8
*I *3960:A I *D sky130_fd_sc_hd__clkbuf_8
*I *3957:A I *D sky130_fd_sc_hd__clkbuf_8
*I *3950:A I *D sky130_fd_sc_hd__clkbuf_8
*I *3945:X O *D sky130_fd_sc_hd__clkbuf_16
*CAP
1 *3954:A 0.000121229
2 *3953:A 4.2691e-05
3 *3956:A 3.86716e-05
4 *3955:A 0.000120007
5 *3952:A 2.20942e-05
6 *3951:A 8.28366e-05
7 *3964:A 0
8 *3965:A 0
9 *3959:A 0
10 *3958:A 0
11 *3963:A 0
12 *3962:A 0.000105768
13 *3961:A 0
14 *3960:A 0
15 *3957:A 9.37445e-05
16 *3950:A 0
17 *3945:X 0.000179669
18 *562:347 0.00041643
19 *562:329 0.000409867
20 *562:308 0.000265168
21 *562:302 0.00254708
22 *562:289 0.0025114
23 *562:262 0.000447981
24 *562:256 0.00134813
25 *562:248 0.00139338
26 *562:229 0.000105842
27 *562:224 0.000149138
28 *562:220 0.000160255
29 *562:214 0.000805707
30 *562:204 0.00149556
31 *562:200 0.00173016
32 *562:198 0.00131165
33 *562:176 0.000369105
34 *562:162 0.00115028
35 *562:154 0.00133668
36 *562:137 0.000781361
37 *562:130 0.000120094
38 *562:126 0.000269116
39 *562:117 0.000364397
40 *562:110 0.000189118
41 *562:106 0.00103316
42 *562:81 0.000203393
43 *562:75 0.00154077
44 *562:69 0.00223473
45 *562:62 9.24304e-05
46 *562:60 0.000102252
47 *562:56 0.000483692
48 *562:47 0.000471242
49 *562:43 0.000203419
50 *562:37 0.00110168
51 *562:23 0.0021217
52 *562:11 0.00126451
53 *562:6 0.000193691
54 *3951:A *568:8 5.68191e-05
55 *3952:A *3445:S0 3.26035e-05
56 *3952:A *3867:CLK 3.26035e-05
57 *3953:A *727:22 2.12721e-05
58 *3954:A *681:32 0.000113456
59 *3956:A *3932:CLK 3.26035e-05
60 *562:23 *634:39 9.61794e-05
61 *562:23 *865:28 6.17437e-06
62 *562:37 *576:12 0.000200902
63 *562:37 *753:12 4.42793e-05
64 *562:37 *865:28 1.21972e-05
65 *562:56 *610:6 0.000262059
66 *562:56 *768:8 1.40958e-05
67 *562:60 *3993:A 2.93845e-05
68 *562:60 *610:6 8.50221e-05
69 *562:62 *3993:A 8.40823e-05
70 *562:62 *610:6 7.65677e-05
71 *562:69 *3993:A 9.81108e-05
72 *562:69 *610:6 4.86662e-05
73 *562:69 *610:12 5.41288e-05
74 *562:75 *3419:A3 0
75 *562:75 *610:45 0
76 *562:75 *684:119 0.000155417
77 *562:75 *792:16 0
78 *562:106 *3452:A2 0
79 *562:106 *3452:S0 0.000512148
80 *562:106 *720:48 0.000215867
81 *562:106 *792:16 0
82 *562:126 *578:10 2.24366e-06
83 *562:154 *3810:CLK 8.21456e-06
84 *562:154 *3813:CLK 4.35681e-06
85 *562:162 *630:14 7.84105e-05
86 *562:162 *749:10 1.84917e-05
87 *562:162 *861:23 1.85495e-05
88 *562:176 *3971:A 0.000273291
89 *562:176 *630:14 0.000396649
90 *562:176 *861:23 6.76833e-05
91 *562:200 *570:10 7.77388e-05
92 *562:200 *570:16 0.00015305
93 *562:200 *600:46 6.27672e-05
94 *562:200 *726:37 0
95 *562:204 *665:56 2.46387e-05
96 *562:214 *3635:A0 9.67908e-05
97 *562:214 *665:56 2.97099e-05
98 *562:214 *721:42 3.49466e-05
99 *562:229 *633:23 7.98226e-05
100 *562:248 *3980:A 0
101 *562:248 *3981:A 0
102 *562:248 *665:56 1.50326e-05
103 *562:248 *692:30 0
104 *562:248 *810:12 2.65481e-05
105 *562:256 *3843:CLK 6.17437e-06
106 *562:256 *3981:A 9.91895e-05
107 *562:256 *598:6 3.71228e-05
108 *562:256 *598:14 8.48285e-05
109 *562:256 *663:26 5.62429e-05
110 *562:256 *663:43 0.000180812
111 *562:262 *568:8 7.20663e-05
112 *562:302 *3552:A_N 1.05658e-05
113 *562:302 *600:73 0.000120682
114 *562:302 *606:14 0
115 *562:302 *683:59 8.39118e-05
116 *562:302 *700:66 0
117 *562:302 *701:84 0
118 *562:302 *707:91 6.38944e-05
119 *562:308 *885:8 2.95526e-05
120 *562:329 *707:91 4.31304e-05
121 *562:347 *681:32 0.000163729
122 *562:347 *703:107 0
123 *562:347 *707:91 6.18295e-05
124 *3511:S *562:37 0.000132088
125 *3571:A *562:200 5.10669e-05
126 *3720:A *562:214 5.40337e-05
127 *3754:S *562:37 5.40241e-05
128 *75:10 *562:43 1.24376e-05
129 *75:10 *562:47 4.79544e-05
130 *75:10 *562:56 0.000123428
131 *122:10 *562:262 9.90049e-05
132 *148:10 *562:214 0.000124013
133 *173:29 *562:204 0.00021921
134 *173:37 *562:248 7.42423e-05
135 *190:10 *562:302 7.04349e-05
136 *190:10 *562:308 3.71808e-05
137 *202:78 *562:200 0
138 *350:20 *562:248 7.57281e-06
139 *350:26 *562:214 0.000219815
140 *350:26 *562:220 3.6054e-05
141 *350:26 *562:224 5.45644e-05
142 *350:57 *562:81 0
143 *350:73 *562:75 0
144 *350:73 *562:81 0
145 *352:34 *562:302 9.80805e-05
146 *352:34 *562:329 2.97113e-05
147 *352:44 *562:23 0.000330436
148 *363:18 *562:75 0.000607379
149 *363:18 *562:106 0.000898317
150 *370:10 *562:347 0
151 *377:10 *562:56 0.000119921
152 *384:10 *562:23 9.48568e-05
153 *386:16 *562:248 0.000219013
154 *386:16 *562:256 9.88678e-05
155 *393:14 *562:200 0.000809922
156 *402:14 *562:75 0
157 *413:24 *562:23 2.47815e-05
158 *431:10 *562:347 0
159 *432:12 *562:329 1.83564e-05
160 *432:12 *562:347 1.09886e-05
161 *432:66 *562:154 8.21456e-06
162 *461:18 *562:23 1.05658e-05
163 *470:25 *562:200 0.000358225
164 *470:31 *562:200 7.84105e-05
165 *486:10 *562:214 7.93566e-05
166 *488:65 *562:200 0.000695
167 *499:10 *562:75 0.000101488
168 *499:10 *562:81 2.22079e-05
169 *502:8 *562:262 0.000114645
170 *505:10 *562:200 7.52305e-05
171 *514:10 *562:200 4.24694e-06
172 *516:127 *562:75 6.45006e-05
173 *526:10 *562:75 0
174 *534:10 *562:347 0
175 *544:12 *562:302 3.88929e-05
176 *550:14 *562:23 2.07484e-05
*RES
1 *3945:X *562:6 24.6313 
2 *562:6 *562:11 1.51732 
3 *562:11 *562:23 49.8236 
4 *562:23 *562:37 18.1561 
5 *562:37 *562:43 2.30964 
6 *562:43 *562:47 16.0979 
7 *562:47 *562:56 24.4146 
8 *562:56 *562:60 1.8125 
9 *562:60 *562:62 1.67786 
10 *562:62 *562:69 16.9471 
11 *562:69 *562:75 23.925 
12 *562:75 *562:81 4.08071 
13 *562:81 *3950:A 38 
14 *562:75 *3957:A 39.5743 
15 *562:69 *562:106 40.7893 
16 *562:106 *562:110 1.67786 
17 *562:110 *3960:A 23 
18 *562:110 *562:117 1.70893 
19 *562:117 *562:126 19.9818 
20 *562:126 *562:130 15 
21 *562:130 *3961:A 23 
22 *562:130 *562:137 1.89018 
23 *562:137 *562:154 38.3219 
24 *562:154 *562:162 40.9786 
25 *562:162 *3962:A 39.5743 
26 *562:162 *562:176 11.0614 
27 *562:176 *3963:A 38 
28 *562:60 *3958:A 23 
29 *562:43 *3959:A 23 
30 *562:11 *562:198 15 
31 *562:198 *562:200 35.7114 
32 *562:200 *562:204 22.2914 
33 *562:204 *562:214 14.6346 
34 *562:214 *562:220 2.55821 
35 *562:220 *562:224 16.0979 
36 *562:224 *562:229 2.25786 
37 *562:229 *3965:A 38 
38 *562:220 *3964:A 23 
39 *562:204 *562:248 23.9486 
40 *562:248 *562:256 47.5243 
41 *562:256 *562:262 22.1568 
42 *562:262 *3951:A 24.8125 
43 *562:248 *3952:A 38.6836 
44 *3945:X *562:289 39.0979 
45 *562:289 *562:302 30.3189 
46 *562:302 *562:308 17.7654 
47 *562:308 *3955:A 24.8125 
48 *562:302 *3956:A 38.6836 
49 *562:289 *562:329 1.90571 
50 *562:329 *3953:A 38.7095 
51 *562:329 *562:347 21.6079 
52 *562:347 *3954:A 25.61 
*END

*D_NET *563 0.00723558
*CONN
*I *4005:A I *D sky130_fd_sc_hd__clkbuf_4
*I *3909:CLK I *D sky130_fd_sc_hd__dfrtp_2
*I *3904:CLK I *D sky130_fd_sc_hd__dfrtp_2
*I *3912:CLK I *D sky130_fd_sc_hd__dfrtp_2
*I *3907:CLK I *D sky130_fd_sc_hd__dfrtp_2
*I *3935:CLK I *D sky130_fd_sc_hd__dfrtp_2
*I *3908:CLK I *D sky130_fd_sc_hd__dfrtp_2
*I *3934:CLK I *D sky130_fd_sc_hd__dfrtp_2
*I *3946:X O *D sky130_fd_sc_hd__clkbuf_16
*CAP
1 *4005:A 0
2 *3909:CLK 0
3 *3904:CLK 0
4 *3912:CLK 0.000315105
5 *3907:CLK 0
6 *3935:CLK 0.000767266
7 *3908:CLK 0
8 *3934:CLK 0.000341587
9 *3946:X 5.75441e-05
10 *563:69 0.000370658
11 *563:61 0.000812248
12 *563:36 0.000938726
13 *563:30 0.000666167
14 *563:23 0.000213562
15 *563:14 0.0006924
16 *563:10 0.00089957
17 *563:6 0.000198671
18 *3912:CLK *3908:RESET_B 0.000177045
19 *3912:CLK *893:10 5.76359e-05
20 *3912:CLK *903:36 6.51763e-05
21 *563:6 *875:8 9.41704e-05
22 *563:10 *3909:RESET_B 0
23 *563:10 *894:25 6.9819e-05
24 *563:14 *3406:A 6.47651e-05
25 *563:14 *894:25 3.84421e-05
26 *563:30 *903:36 6.20495e-05
27 *563:36 *903:36 0
28 *563:61 *3904:RESET_B 4.83954e-05
29 *563:61 *729:54 2.95526e-05
30 *563:69 *729:54 0.00015118
31 *3231:A2 *563:69 5.58003e-05
32 *180:20 *563:10 4.80427e-05
*RES
1 *3946:X *563:6 24.0979 
2 *563:6 *563:10 17.9621 
3 *563:10 *563:14 20.7793 
4 *563:14 *3934:CLK 29.3386 
5 *563:14 *563:23 0.621429 
6 *563:23 *3908:CLK 23 
7 *563:23 *563:30 3.48 
8 *563:30 *563:36 32.9621 
9 *563:36 *3935:CLK 36.485 
10 *563:36 *3907:CLK 23 
11 *563:30 *3912:CLK 30.7679 
12 *563:10 *563:61 23.265 
13 *563:61 *563:69 37.9957 
14 *563:69 *3904:CLK 23 
15 *563:61 *3909:CLK 23 
16 *563:6 *4005:A 23 
*END

*D_NET *564 0.00806185
*CONN
*I *3943:CLK I *D sky130_fd_sc_hd__dfrtp_2
*I *3910:CLK I *D sky130_fd_sc_hd__dfrtp_2
*I *3938:CLK I *D sky130_fd_sc_hd__dfstp_2
*I *3911:CLK I *D sky130_fd_sc_hd__dfrtp_2
*I *3937:CLK I *D sky130_fd_sc_hd__dfrtp_2
*I *3905:CLK I *D sky130_fd_sc_hd__dfrtp_2
*I *3906:CLK I *D sky130_fd_sc_hd__dfrtp_2
*I *3947:X O *D sky130_fd_sc_hd__clkbuf_16
*CAP
1 *3943:CLK 0.000339084
2 *3910:CLK 2.79004e-05
3 *3938:CLK 2.93259e-05
4 *3911:CLK 0.000605311
5 *3937:CLK 0.000570497
6 *3905:CLK 0.000217225
7 *3906:CLK 0.000347087
8 *3947:X 0
9 *564:71 0.000429951
10 *564:18 0.000659207
11 *564:16 0.000858943
12 *564:10 0.000973385
13 *564:8 0.000287408
14 *564:6 0.000146527
15 *3906:CLK *730:37 0.000168443
16 *3906:CLK *739:12 0
17 *3906:CLK *739:18 2.73376e-05
18 *3910:CLK *3913:RESET_B 5.50106e-05
19 *3911:CLK *3912:RESET_B 0.00011572
20 *3911:CLK *896:10 7.48608e-05
21 *3938:CLK *3938:D 5.58003e-05
22 *3943:CLK *730:31 4.39444e-06
23 *3943:CLK *735:8 0.000221184
24 *3943:CLK *898:10 4.48628e-05
25 *564:8 *3938:D 0.000267937
26 *564:10 *3938:D 3.67392e-05
27 *564:10 *730:31 6.25038e-05
28 *564:10 *730:37 7.43934e-05
29 *564:16 *3937:RESET_B 1.6374e-05
30 *564:16 *730:37 0.000123748
31 *564:18 *730:37 4.06408e-05
32 *564:18 *739:12 0
33 *564:71 *3938:D 7.48331e-05
34 *564:71 *730:31 2.96909e-05
35 *15:24 *3943:CLK 0.000228391
36 *15:24 *564:8 0.000150854
37 *15:24 *564:10 0.000230934
38 *15:24 *564:16 5.8241e-05
39 *15:24 *564:71 9.25047e-05
40 *374:16 *3937:CLK 0.000314596
*RES
1 *3947:X *564:6 38 
2 *564:6 *564:8 3.66643 
3 *564:8 *564:10 5.77929 
4 *564:10 *564:16 4.785 
5 *564:16 *564:18 1.90571 
6 *564:18 *3906:CLK 46.0786 
7 *564:18 *3905:CLK 41.48 
8 *564:16 *3937:CLK 46.6171 
9 *564:10 *3911:CLK 48.15 
10 *564:8 *3938:CLK 38.6214 
11 *564:6 *564:71 2.25786 
12 *564:71 *3910:CLK 38.6214 
13 *564:71 *3943:CLK 45.83 
*END

*D_NET *565 0.0176308
*CONN
*I *3941:CLK I *D sky130_fd_sc_hd__dfrtp_2
*I *4006:A I *D sky130_fd_sc_hd__clkbuf_4
*I *3940:CLK I *D sky130_fd_sc_hd__dfrtp_2
*I *3942:CLK I *D sky130_fd_sc_hd__dfrtp_2
*I *3891:CLK I *D sky130_fd_sc_hd__dfrtp_2
*I *3939:CLK I *D sky130_fd_sc_hd__dfrtp_2
*I *3889:CLK I *D sky130_fd_sc_hd__dfrtp_2
*I *3890:CLK I *D sky130_fd_sc_hd__dfrtp_2
*I *3948:X O *D sky130_fd_sc_hd__clkbuf_16
*CAP
1 *3941:CLK 0
2 *4006:A 0
3 *3940:CLK 0.000185195
4 *3942:CLK 0
5 *3891:CLK 0
6 *3939:CLK 2.34823e-05
7 *3889:CLK 0.000390518
8 *3890:CLK 0
9 *3948:X 0
10 *565:109 0.00126098
11 *565:80 0.00126941
12 *565:74 0.00151595
13 *565:72 0.000104254
14 *565:70 0.00141976
15 *565:61 0.000734755
16 *565:26 0.000901862
17 *565:18 0.000777632
18 *565:10 0.00141418
19 *565:4 0.000552484
20 *3889:CLK *616:10 1.85413e-05
21 *3889:CLK *713:98 0
22 *3940:CLK *688:8 3.32626e-05
23 *3940:CLK *727:55 1.84917e-05
24 *3940:CLK *732:27 0.000492529
25 *565:10 *687:12 0
26 *565:18 *3362:B 6.50913e-05
27 *565:26 *3362:B 3.12704e-05
28 *565:26 *3939:RESET_B 4.91889e-05
29 *565:26 *3940:RESET_B 0
30 *565:26 *713:98 0
31 *565:26 *713:100 0
32 *565:61 *638:8 0.000113973
33 *565:70 *688:14 0.000311285
34 *565:72 *688:14 0.000102007
35 *565:74 *688:14 0.000113398
36 *565:80 *3942:D 6.99175e-05
37 *565:80 *642:24 0.000452157
38 *565:80 *729:6 5.37348e-06
39 *565:80 *729:12 0
40 *565:80 *873:8 6.53342e-05
41 *565:109 *3228:C 0.00040564
42 *565:109 *3229:B 0.000141347
43 *565:109 *683:30 1.61385e-05
44 *565:109 *687:24 2.67084e-05
45 *565:109 *698:6 3.14976e-05
46 *565:109 *699:34 1.23293e-05
47 *565:109 *715:12 0.00026528
48 *565:109 *726:12 3.68285e-05
49 *565:109 *729:20 2.75275e-06
50 *3362:A *565:10 0.00019426
51 *3362:A *565:61 6.8858e-05
52 *3366:B1 *565:10 6.53382e-05
53 *3366:B2 *565:10 5.3304e-05
54 *3367:A2 *565:61 0.000151817
55 *3369:A1 *565:80 1.22352e-05
56 *3369:D1 *565:80 0
57 *3378:A2 *565:18 5.3304e-05
58 *3380:A_N *565:61 2.64616e-05
59 *3380:C *565:61 0.000534865
60 *169:35 *565:80 9.77972e-05
61 *169:48 *565:80 2.99716e-05
62 *172:12 *565:80 0.000114092
63 *175:22 *565:80 0
64 *178:6 *565:109 0.000223077
65 *279:52 *565:80 6.90927e-05
66 *280:10 *565:70 0.000321377
67 *280:10 *565:72 0.000113389
68 *280:10 *565:74 0.000196165
69 *280:10 *565:80 0.000193024
70 *284:10 *565:10 3.47781e-05
71 *284:21 *565:10 0.000181943
72 *284:34 *565:10 5.46706e-05
73 *284:43 *565:10 0.000182863
74 *296:35 *565:61 7.63441e-05
75 *297:12 *565:10 0.000195451
76 *297:12 *565:18 2.24608e-05
77 *297:12 *565:61 5.62433e-06
78 *299:22 *565:61 0.000359464
79 *300:14 *565:61 5.68958e-05
80 *301:12 *565:74 3.42043e-05
81 *301:12 *565:80 0.000222389
82 *312:6 *565:61 2.19845e-05
83 *312:19 *565:61 4.53056e-05
84 *315:8 *565:61 9.82009e-05
85 *553:6 *565:61 3.37738e-05
86 *554:10 *565:61 5.52542e-05
*RES
1 *3948:X *565:4 23 
2 *565:4 *565:10 25.8232 
3 *565:10 *565:18 19.4225 
4 *565:18 *565:26 23.12 
5 *565:26 *3890:CLK 38 
6 *565:26 *3889:CLK 45.1671 
7 *565:18 *3939:CLK 23.4971 
8 *565:10 *565:61 33.1561 
9 *565:61 *3891:CLK 23 
10 *565:4 *565:70 19.3707 
11 *565:70 *565:72 1.55357 
12 *565:72 *565:74 2.61 
13 *565:74 *565:80 43.71 
14 *565:80 *3942:CLK 23 
15 *565:74 *3940:CLK 43.3857 
16 *565:72 *4006:A 38 
17 *565:70 *565:109 48.2493 
18 *565:109 *3941:CLK 38 
*END

*D_NET *566 0.0126007
*CONN
*I *3888:CLK I *D sky130_fd_sc_hd__dfstp_2
*I *3903:CLK I *D sky130_fd_sc_hd__dfrtp_2
*I *3901:CLK I *D sky130_fd_sc_hd__dfrtp_2
*I *3892:CLK I *D sky130_fd_sc_hd__dfrtp_2
*I *4007:A I *D sky130_fd_sc_hd__clkbuf_4
*I *3913:CLK I *D sky130_fd_sc_hd__dfrtp_2
*I *3936:CLK I *D sky130_fd_sc_hd__dfrtp_2
*I *3949:X O *D sky130_fd_sc_hd__clkbuf_16
*CAP
1 *3888:CLK 0.000189004
2 *3903:CLK 5.91319e-05
3 *3901:CLK 0.000115063
4 *3892:CLK 0.000559484
5 *4007:A 0
6 *3913:CLK 0
7 *3936:CLK 0
8 *3949:X 0.000848233
9 *566:74 0.000434829
10 *566:61 0.000573986
11 *566:48 0.00113396
12 *566:39 0.000338254
13 *566:18 0.000739675
14 *566:10 0.00182826
15 *566:8 0.00190081
16 *3888:CLK *3891:RESET_B 3.46216e-05
17 *3901:CLK *3901:D 1.10317e-05
18 *3903:CLK *3903:D 0.000101039
19 *3903:CLK *4042:A 2.93863e-05
20 *566:10 *709:38 0.000823515
21 *566:10 *709:58 0
22 *566:18 *3936:D 0.000145163
23 *566:18 *709:12 0.000215949
24 *566:18 *709:38 0.000233453
25 *566:18 *893:10 0.000520254
26 *566:61 *3903:RESET_B 3.31127e-05
27 *566:74 *3903:RESET_B 0.000270262
28 *3349:A *566:10 6.04369e-05
29 *37:10 *3888:CLK 7.4315e-05
30 *37:10 *566:61 0
31 *37:10 *566:74 0.0001207
32 *181:19 *566:10 0
33 *285:8 *566:10 0.000169194
34 *286:8 *566:10 5.11157e-05
35 *304:22 *566:10 8.60837e-05
36 *317:8 *566:39 0.000116314
37 *317:8 *566:48 3.70094e-05
38 *318:8 *566:8 1.39431e-05
39 *319:34 *566:48 0
40 *320:18 *566:8 4.10495e-06
41 *320:18 *566:10 8.52094e-06
42 *320:29 *566:39 0.000116314
43 *320:29 *566:48 0.000263098
44 *322:10 *566:10 3.97596e-05
45 *323:10 *566:8 0.00010018
46 *324:10 *566:61 0
47 *326:10 *566:61 0
48 *332:8 *566:48 4.21594e-06
49 *332:8 *566:61 7.13673e-05
50 *335:10 *566:18 2.70366e-05
51 *556:8 *3892:CLK 9.84851e-05
*RES
1 *3949:X *566:8 48.15 
2 *566:8 *566:10 24.4429 
3 *566:10 *566:18 29.6036 
4 *566:18 *3936:CLK 23 
5 *566:10 *3913:CLK 38 
6 *3949:X *566:39 39.5536 
7 *566:39 *4007:A 38 
8 *566:39 *566:48 6.48357 
9 *566:48 *3892:CLK 48.15 
10 *566:48 *566:61 20.7793 
11 *566:61 *3901:CLK 25.0507 
12 *566:61 *566:74 19.8886 
13 *566:74 *3903:CLK 39.595 
14 *566:74 *3888:CLK 41.7079 
*END

*D_NET *567 0.00291995
*CONN
*I *3966:A I *D sky130_fd_sc_hd__clkbuf_16
*I *3977:A I *D sky130_fd_sc_hd__clkbuf_16
*I *3950:X O *D sky130_fd_sc_hd__clkbuf_8
*CAP
1 *3966:A 0
2 *3977:A 0.000216686
3 *3950:X 0
4 *567:8 0.00108733
5 *567:6 0.000870646
6 *567:8 *3689:A0 0.000183102
7 *567:8 *835:10 0.000350536
8 *400:14 *567:8 0.000105374
9 *515:10 *567:8 0
10 *525:62 *3977:A 0.000106277
*RES
1 *3950:X *567:6 38 
2 *567:6 *567:8 16.6957 
3 *567:8 *3977:A 42.3086 
4 *567:8 *3966:A 38 
*END

*D_NET *568 0.00397921
*CONN
*I *3979:A I *D sky130_fd_sc_hd__clkbuf_16
*I *3978:A I *D sky130_fd_sc_hd__clkbuf_16
*I *3951:X O *D sky130_fd_sc_hd__clkbuf_8
*CAP
1 *3979:A 0
2 *3978:A 0
3 *3951:X 0.000364228
4 *568:29 0.000582777
5 *568:14 0.000273152
6 *568:8 0.00122016
7 *568:14 *632:25 0.000319514
8 *568:29 *596:10 9.87985e-06
9 *568:29 *905:8 2.20111e-05
10 *3254:A *568:29 5.50049e-05
11 *3951:A *568:8 5.68191e-05
12 *253:14 *568:29 0
13 *257:8 *568:29 0.000219882
14 *372:12 *568:14 0.00078372
15 *562:262 *568:8 7.20663e-05
*RES
1 *3951:X *568:8 29.3593 
2 *568:8 *568:14 40.3571 
3 *568:14 *3978:A 23 
4 *568:8 *568:29 39.9221 
5 *568:29 *3979:A 23 
*END

*D_NET *569 0.0023319
*CONN
*I *3980:A I *D sky130_fd_sc_hd__clkbuf_16
*I *3981:A I *D sky130_fd_sc_hd__clkbuf_16
*I *3952:X O *D sky130_fd_sc_hd__clkbuf_8
*CAP
1 *3980:A 0.00053928
2 *3981:A 0.000211026
3 *3952:X 0
4 *569:6 0.000750306
5 *3980:A *674:8 8.1791e-05
6 *3980:A *685:73 0.000190085
7 *3981:A *663:26 0.000184527
8 *3981:A *685:73 5.55911e-05
9 *3981:A *685:79 0.000201161
10 *386:16 *3981:A 0
11 *477:8 *3980:A 1.89404e-05
12 *562:248 *3980:A 0
13 *562:248 *3981:A 0
14 *562:256 *3981:A 9.91895e-05
*RES
1 *3952:X *569:6 38 
2 *569:6 *3981:A 43.7171 
3 *569:6 *3980:A 49.0614 
*END

*D_NET *570 0.00477791
*CONN
*I *3982:A I *D sky130_fd_sc_hd__clkbuf_16
*I *3983:A I *D sky130_fd_sc_hd__clkbuf_16
*I *3953:X O *D sky130_fd_sc_hd__clkbuf_8
*CAP
1 *3982:A 0.000199604
2 *3983:A 0
3 *3953:X 0.000419473
4 *570:16 0.000448374
5 *570:10 0.00106745
6 *3982:A *726:37 5.3304e-05
7 *570:10 *726:37 2.46345e-05
8 *570:10 *727:22 0.000269775
9 *570:10 *727:28 0.00041652
10 *570:16 *3670:A0 0.000186041
11 *570:16 *3670:A1 5.14826e-05
12 *570:16 *600:46 5.5792e-05
13 *570:16 *726:37 0.000667949
14 *3571:A *570:10 0.00036529
15 *26:22 *570:10 0
16 *392:14 *570:10 4.5628e-05
17 *498:22 *570:16 6.72382e-05
18 *498:32 *570:16 4.53082e-05
19 *505:10 *570:16 0.000163256
20 *562:200 *570:10 7.77388e-05
21 *562:200 *570:16 0.00015305
*RES
1 *3953:X *570:10 49.6 
2 *570:10 *570:16 28.3814 
3 *570:16 *3983:A 23 
4 *570:10 *3982:A 41.0036 
*END

*D_NET *571 0.00367891
*CONN
*I *3985:A I *D sky130_fd_sc_hd__clkbuf_16
*I *3984:A I *D sky130_fd_sc_hd__clkbuf_16
*I *3954:X O *D sky130_fd_sc_hd__clkbuf_8
*CAP
1 *3985:A 0.000422261
2 *3984:A 7.02356e-05
3 *3954:X 0
4 *571:8 0.00132444
5 *571:6 0.000831943
6 *3985:A *4003:A 0
7 *3985:A *602:21 0
8 *571:8 *3517:A_N 0
9 *571:8 *687:54 0
10 *571:8 *863:14 0
11 *4083:A *3985:A 0
12 *368:10 *571:8 0
13 *369:12 *3984:A 0.000188934
14 *369:12 *3985:A 0.00068766
15 *369:12 *571:8 3.70187e-05
16 *370:10 *3985:A 0
17 *370:10 *571:8 0
18 *442:14 *3985:A 9.58714e-05
19 *535:18 *571:8 0
20 *544:152 *571:8 2.05503e-05
*RES
1 *3954:X *571:6 38 
2 *571:6 *571:8 13.1743 
3 *571:8 *3984:A 40.0507 
4 *571:8 *3985:A 48.3986 
*END

*D_NET *572 0.00372489
*CONN
*I *3987:A I *D sky130_fd_sc_hd__clkbuf_16
*I *3986:A I *D sky130_fd_sc_hd__clkbuf_16
*I *3955:X O *D sky130_fd_sc_hd__clkbuf_8
*CAP
1 *3987:A 0.000275089
2 *3986:A 0.00018261
3 *3955:X 0.000363756
4 *572:10 0.000821455
5 *3986:A *3241:A1 5.40337e-05
6 *3987:A *3243:B 4.65192e-05
7 *3987:A *637:6 0.000872787
8 *3987:A *912:8 5.67058e-05
9 *572:10 *702:33 5.86204e-05
10 *572:10 *702:43 3.11916e-05
11 *572:10 *702:66 0.000151891
12 *3241:A2 *3986:A 3.95107e-05
13 *3243:D *3987:A 5.56279e-05
14 *183:38 *3986:A 1.28008e-05
15 *183:58 *3987:A 0.00018304
16 *188:33 *572:10 1.65716e-05
17 *202:8 *3987:A 6.16164e-05
18 *341:20 *3986:A 0.000318702
19 *341:20 *572:10 0.000122362
*RES
1 *3955:X *572:10 44.1729 
2 *572:10 *3986:A 42.7643 
3 *572:10 *3987:A 47.6736 
*END

*D_NET *573 0.00367849
*CONN
*I *3990:A I *D sky130_fd_sc_hd__clkbuf_16
*I *3989:A I *D sky130_fd_sc_hd__clkbuf_16
*I *3956:X O *D sky130_fd_sc_hd__clkbuf_8
*CAP
1 *3990:A 0
2 *3989:A 0
3 *3956:X 0.000337157
4 *573:31 0.000767233
5 *573:14 0.00113498
6 *573:10 0.000704904
7 *573:10 *3268:A1 0
8 *573:10 *3932:CLK 0.000144501
9 *573:10 *3932:D 0
10 *188:43 *573:31 1.01436e-05
11 *188:58 *573:31 0.000107548
12 *190:10 *573:10 0.000246748
13 *201:12 *573:31 0.000225275
*RES
1 *3956:X *573:10 45.3536 
2 *573:10 *573:14 20.8621 
3 *573:14 *3989:A 23 
4 *573:14 *573:31 44.7071 
5 *573:31 *3990:A 23 
*END

*D_NET *574 0.00247606
*CONN
*I *3991:A I *D sky130_fd_sc_hd__clkbuf_16
*I *3988:A I *D sky130_fd_sc_hd__clkbuf_16
*I *3957:X O *D sky130_fd_sc_hd__clkbuf_8
*CAP
1 *3991:A 0.000160823
2 *3988:A 0.00042478
3 *3957:X 0.00012354
4 *574:8 0.000709143
5 *3988:A *592:14 0
6 *3988:A *851:8 3.81391e-05
7 *3991:A *625:65 0.000138859
8 *134:8 *3988:A 0
9 *349:8 *574:8 2.30292e-05
10 *350:57 *3988:A 0
11 *350:73 *3988:A 0.000227307
12 *350:73 *3991:A 0.000194354
13 *366:18 *3988:A 0
14 *402:14 *3988:A 0.000220464
15 *402:14 *3991:A 8.97167e-05
16 *533:10 *3988:A 0.000125904
*RES
1 *3957:X *574:8 40.0507 
2 *574:8 *3988:A 48.7093 
3 *574:8 *3991:A 42.1843 
*END

*D_NET *575 0.00363714
*CONN
*I *3993:A I *D sky130_fd_sc_hd__clkbuf_16
*I *3992:A I *D sky130_fd_sc_hd__clkbuf_16
*I *3958:X O *D sky130_fd_sc_hd__clkbuf_8
*CAP
1 *3993:A 0.000359134
2 *3992:A 0.00121839
3 *3958:X 2.34823e-05
4 *575:6 0.001601
5 *3992:A *3450:S0 1.67944e-05
6 *3992:A *610:12 5.42827e-05
7 *3992:A *686:49 2.64616e-05
8 *3993:A *610:12 2.07355e-05
9 *3481:A2 *3992:A 3.97587e-05
10 *352:107 *3992:A 2.43944e-05
11 *375:10 *3992:A 1.46708e-05
12 *402:14 *3992:A 2.64616e-05
13 *562:60 *3993:A 2.93845e-05
14 *562:62 *3993:A 8.40823e-05
15 *562:69 *3993:A 9.81108e-05
*RES
1 *3958:X *575:6 23.4971 
2 *575:6 *3992:A 37.935 
3 *575:6 *3993:A 28.4064 
*END

*D_NET *576 0.00448668
*CONN
*I *3994:A I *D sky130_fd_sc_hd__clkbuf_16
*I *3995:A I *D sky130_fd_sc_hd__clkbuf_16
*I *3959:X O *D sky130_fd_sc_hd__clkbuf_8
*CAP
1 *3994:A 0
2 *3995:A 7.95633e-05
3 *3959:X 0.00044407
4 *576:25 0.000409853
5 *576:12 0.000933486
6 *3995:A *753:27 9.84794e-05
7 *576:12 *753:12 0.000326983
8 *576:12 *761:16 1.7992e-05
9 *576:25 *3528:A0 9.04798e-05
10 *576:25 *3599:A0 0.000182086
11 *576:25 *724:49 0.000145457
12 *576:25 *729:114 0.000512087
13 *576:25 *761:16 6.69513e-05
14 *419:10 *576:12 5.67058e-05
15 *461:53 *576:12 0.000382574
16 *461:53 *576:25 0.000539015
17 *562:37 *576:12 0.000200902
*RES
1 *3959:X *576:12 49.4343 
2 *576:12 *3995:A 39.5743 
3 *576:12 *576:25 29.5829 
4 *576:25 *3994:A 23 
*END

*D_NET *577 0.00336007
*CONN
*I *3997:A I *D sky130_fd_sc_hd__clkbuf_16
*I *3996:A I *D sky130_fd_sc_hd__clkbuf_16
*I *3960:X O *D sky130_fd_sc_hd__clkbuf_8
*CAP
1 *3997:A 0
2 *3996:A 0
3 *3960:X 0
4 *577:25 0.000475659
5 *577:12 0.000470878
6 *577:4 0.000946537
7 *577:25 *3436:S 8.65242e-05
8 *577:25 *688:93 0.000165643
9 *577:25 *699:93 1.99587e-05
10 *577:25 *790:8 5.90846e-05
11 *3436:A1 *577:25 0.000135037
12 *363:8 *577:25 0.000101152
13 *363:18 *577:25 0.000305103
14 *452:66 *577:12 0.0003055
15 *452:75 *577:12 0.000114083
16 *461:88 *577:12 0
17 *461:88 *577:25 0.000165632
18 *464:10 *577:25 9.28078e-06
*RES
1 *3960:X *577:4 23 
2 *577:4 *577:12 39.3836 
3 *577:12 *3996:A 23 
4 *577:4 *577:25 44.21 
5 *577:25 *3997:A 23 
*END

*D_NET *578 0.00368509
*CONN
*I *3968:A I *D sky130_fd_sc_hd__clkbuf_16
*I *3967:A I *D sky130_fd_sc_hd__clkbuf_16
*I *3961:X O *D sky130_fd_sc_hd__clkbuf_8
*CAP
1 *3968:A 0.00042054
2 *3967:A 7.32813e-05
3 *3961:X 0.000157425
4 *578:10 0.0010586
5 *578:8 0.000722207
6 *3968:A *585:22 0
7 *578:10 *3540:A1 0.00053063
8 *578:10 *3558:A1 0.000265473
9 *578:10 *585:22 0
10 *578:10 *622:82 2.4867e-05
11 *578:10 *766:8 0.000181928
12 *3591:S *3968:A 0.000103405
13 *413:91 *3967:A 0.000144494
14 *562:126 *578:10 2.24366e-06
*RES
1 *3961:X *578:8 40.5271 
2 *578:8 *578:10 13.1743 
3 *578:10 *3967:A 39.5743 
4 *578:10 *3968:A 45.83 
*END

*D_NET *579 0.00276627
*CONN
*I *3970:A I *D sky130_fd_sc_hd__clkbuf_16
*I *3969:A I *D sky130_fd_sc_hd__clkbuf_16
*I *3962:X O *D sky130_fd_sc_hd__clkbuf_8
*CAP
1 *3970:A 0
2 *3969:A 0
3 *3962:X 4.17755e-05
4 *579:27 0.000804771
5 *579:12 0.000322824
6 *579:6 0.00116937
7 *579:27 *3806:CLK 0
8 *579:27 *587:42 0
9 *579:27 *754:10 5.70419e-05
10 *152:10 *579:27 8.30064e-05
11 *452:117 *579:27 0.000287475
*RES
1 *3962:X *579:6 23.6214 
2 *579:6 *579:12 36.1314 
3 *579:12 *3969:A 23 
4 *579:6 *579:27 45.5564 
5 *579:27 *3970:A 23 
*END

*D_NET *580 0.00439977
*CONN
*I *3972:A I *D sky130_fd_sc_hd__clkbuf_16
*I *3971:A I *D sky130_fd_sc_hd__clkbuf_16
*I *3963:X O *D sky130_fd_sc_hd__clkbuf_8
*CAP
1 *3972:A 0
2 *3971:A 0.000294612
3 *3963:X 0.000103189
4 *580:25 0.000397777
5 *580:8 0.000795577
6 *3971:A *3426:S0 7.78597e-05
7 *3971:A *624:73 5.58003e-05
8 *3971:A *630:14 0
9 *3971:A *686:10 1.35333e-05
10 *3971:A *688:67 0.000275473
11 *3971:A *699:52 5.3304e-05
12 *3971:A *861:23 0.00013424
13 *580:8 *699:68 2.02872e-05
14 *580:25 *3426:S0 0.000130984
15 *580:25 *3427:A0 3.91386e-05
16 *580:25 *3538:A0 0.000483343
17 *580:25 *688:67 0.000206568
18 *580:25 *699:72 0.000168351
19 *356:8 *580:8 0.000219383
20 *413:85 *580:8 0.00026025
21 *434:8 *580:25 0.000396805
22 *562:176 *3971:A 0.000273291
*RES
1 *3963:X *580:8 41.0036 
2 *580:8 *3971:A 46.8657 
3 *580:8 *580:25 27.615 
4 *580:25 *3972:A 23 
*END

*D_NET *581 0.00502122
*CONN
*I *3973:A I *D sky130_fd_sc_hd__clkbuf_16
*I *3974:A I *D sky130_fd_sc_hd__clkbuf_16
*I *3964:X O *D sky130_fd_sc_hd__clkbuf_8
*CAP
1 *3973:A 0
2 *3974:A 0
3 *3964:X 0.000602941
4 *581:16 0.000996034
5 *581:10 0.00159897
6 *581:16 *3455:S0 0
7 *581:16 *590:25 0
8 *350:26 *581:10 0.000364782
9 *379:10 *581:10 0.000178693
10 *379:10 *581:16 0.000308661
11 *380:22 *581:10 0.000138142
12 *380:22 *581:16 0.000832989
13 *503:10 *581:16 0
*RES
1 *3964:X *581:10 49.8486 
2 *581:10 *581:16 35.735 
3 *581:16 *3974:A 23 
4 *581:10 *3973:A 38 
*END

*D_NET *582 0.0038839
*CONN
*I *3976:A I *D sky130_fd_sc_hd__clkbuf_16
*I *3975:A I *D sky130_fd_sc_hd__clkbuf_16
*I *3965:X O *D sky130_fd_sc_hd__clkbuf_8
*CAP
1 *3976:A 0
2 *3975:A 0.000195018
3 *3965:X 0.000417421
4 *582:27 0.000528797
5 *582:10 0.000723814
6 *582:8 0.000417421
7 *582:8 *3430:A2 0.000327903
8 *582:8 *3625:A0 0.000136486
9 *582:8 *685:57 0.000401807
10 *582:27 *3430:A1 5.3304e-05
11 *582:27 *633:23 0.000141888
12 *582:27 *741:23 1.9847e-05
13 *582:27 *797:10 0.000114083
14 *3683:S *582:8 9.53224e-05
15 *3817:D *3975:A 0.000100124
16 *3817:D *582:27 0.000163466
17 *358:8 *582:27 1.73399e-05
18 *406:10 *582:27 0
19 *507:46 *582:8 2.9856e-05
*RES
1 *3965:X *582:8 49.4136 
2 *582:8 *582:10 15 
3 *582:10 *3975:A 26.0036 
4 *582:10 *582:27 39.3421 
5 *582:27 *3976:A 23 
*END

*D_NET *583 0.00959694
*CONN
*I *3866:CLK I *D sky130_fd_sc_hd__dfxtp_2
*I *3831:CLK I *D sky130_fd_sc_hd__dfxtp_2
*I *3842:CLK I *D sky130_fd_sc_hd__dfxtp_2
*I *3826:CLK I *D sky130_fd_sc_hd__dfxtp_2
*I *3818:CLK I *D sky130_fd_sc_hd__dfxtp_2
*I *3966:X O *D sky130_fd_sc_hd__clkbuf_16
*CAP
1 *3866:CLK 0
2 *3831:CLK 0.000871563
3 *3842:CLK 0.000374375
4 *3826:CLK 0.000512055
5 *3818:CLK 0.000328273
6 *3966:X 0.000613292
7 *583:51 0.000871563
8 *583:18 0.00147949
9 *583:12 0.00146857
10 *583:10 0.00106832
11 *3818:CLK *814:16 1.13812e-05
12 *3826:CLK *664:48 0.000279661
13 *583:10 *631:28 0
14 *583:12 *3437:A2 0.000243847
15 *583:12 *631:28 0
16 *583:12 *838:10 0.000166522
17 *583:18 *3627:A0 0
18 *583:18 *814:16 0.000137744
19 *3644:S *583:18 0.000104408
20 *3826:D *3826:CLK 1.64354e-05
21 *3831:D *3831:CLK 1.64354e-05
22 *3842:D *3842:CLK 0.000182826
23 *137:8 *583:12 0
24 *145:10 *583:12 3.74462e-05
25 *404:77 *583:10 0.000495023
26 *488:138 *583:12 0.000137061
27 *488:138 *583:18 0.000180644
28 *491:10 *583:18 0
*RES
1 *3966:X *583:10 49.89 
2 *583:10 *583:12 11.4136 
3 *583:12 *583:18 12.18 
4 *583:18 *3818:CLK 43.4893 
5 *583:18 *3826:CLK 49.1236 
6 *583:12 *3842:CLK 44.3386 
7 *583:10 *583:51 15 
8 *583:51 *3831:CLK 37.6036 
9 *583:51 *3866:CLK 23 
*END

*D_NET *584 0.00596846
*CONN
*I *3808:CLK I *D sky130_fd_sc_hd__dfxtp_2
*I *3800:CLK I *D sky130_fd_sc_hd__dfxtp_2
*I *3880:CLK I *D sky130_fd_sc_hd__dfxtp_2
*I *3768:CLK I *D sky130_fd_sc_hd__dfxtp_2
*I *3776:CLK I *D sky130_fd_sc_hd__dfxtp_2
*I *3967:X O *D sky130_fd_sc_hd__clkbuf_16
*CAP
1 *3808:CLK 0
2 *3800:CLK 0
3 *3880:CLK 0.000253053
4 *3768:CLK 0.000422115
5 *3776:CLK 4.24511e-05
6 *3967:X 0.000344163
7 *584:60 0.000143736
8 *584:25 0.000675169
9 *584:16 0.000672148
10 *584:14 0.00074279
11 *584:12 0.00038656
12 *584:8 0.000473894
13 *584:8 *3416:S0 0
14 *584:8 *662:82 0.000189173
15 *584:12 *686:134 0.000141144
16 *584:14 *686:134 0.000138569
17 *584:16 *686:134 0.000189291
18 *584:16 *756:10 5.12254e-05
19 *584:60 *626:77 0
20 *3768:D *3768:CLK 3.24476e-06
21 *3776:D *584:16 1.64354e-05
22 *3800:D *584:14 1.64354e-05
23 *27:11 *3880:CLK 0
24 *55:10 *3768:CLK 5.34638e-05
25 *79:8 *584:60 5.61414e-05
26 *87:8 *584:8 6.6869e-05
27 *345:10 *584:8 6.68587e-05
28 *452:81 *584:8 0.000823524
29 *452:81 *584:60 0
30 *461:108 *584:8 0
31 *462:10 *584:8 0
*RES
1 *3967:X *584:8 49.0614 
2 *584:8 *584:12 18.0036 
3 *584:12 *584:14 3.00357 
4 *584:14 *584:16 12.0557 
5 *584:16 *3776:CLK 23.6214 
6 *584:16 *584:25 15 
7 *584:25 *3768:CLK 45.1464 
8 *584:25 *3880:CLK 42.06 
9 *584:14 *3800:CLK 23 
10 *584:12 *584:60 32.9621 
11 *584:60 *3808:CLK 23 
*END

*D_NET *585 0.00582665
*CONN
*I *3801:CLK I *D sky130_fd_sc_hd__dfxtp_2
*I *3792:CLK I *D sky130_fd_sc_hd__dfxtp_2
*I *3784:CLK I *D sky130_fd_sc_hd__dfxtp_2
*I *3794:CLK I *D sky130_fd_sc_hd__dfxtp_2
*I *3802:CLK I *D sky130_fd_sc_hd__dfxtp_2
*I *3968:X O *D sky130_fd_sc_hd__clkbuf_16
*CAP
1 *3801:CLK 0
2 *3792:CLK 0.000120539
3 *3784:CLK 4.58267e-05
4 *3794:CLK 0.000129035
5 *3802:CLK 0.000110781
6 *3968:X 0
7 *585:64 0.000130364
8 *585:38 0.000382984
9 *585:22 0.00064686
10 *585:18 0.000623662
11 *585:16 0.000663978
12 *585:4 0.000794342
13 *3792:CLK *3417:A3 2.30274e-05
14 *3792:CLK *3589:A1 2.14486e-05
15 *3794:CLK *688:85 5.56356e-05
16 *585:16 *626:51 0.000142585
17 *585:16 *626:55 1.44895e-05
18 *585:16 *686:120 9.60907e-05
19 *585:38 *3417:A3 7.0576e-05
20 *585:38 *686:120 0.000192077
21 *585:64 *666:72 0.000166522
22 *3555:A *3784:CLK 0.000100486
23 *3591:S *585:16 0.000454347
24 *3591:S *585:64 4.34745e-05
25 *3968:A *585:22 0
26 *71:8 *3792:CLK 0.000115526
27 *346:16 *585:22 4.74809e-05
28 *346:16 *585:38 2.34364e-05
29 *443:14 *3792:CLK 7.04606e-06
30 *443:14 *585:16 5.76246e-05
31 *443:14 *585:38 0.000144268
32 *461:98 *585:22 0.000402139
33 *461:108 *585:38 0
34 *578:10 *585:22 0
*RES
1 *3968:X *585:4 23 
2 *585:4 *585:16 41.0407 
3 *585:16 *585:18 15 
4 *585:18 *585:22 25.3571 
5 *585:22 *3802:CLK 24.5743 
6 *585:22 *3794:CLK 25.5271 
7 *585:18 *585:38 6.48357 
8 *585:38 *3784:CLK 39.0979 
9 *585:38 *3792:CLK 40.9621 
10 *585:4 *585:64 32.8793 
11 *585:64 *3801:CLK 23 
*END

*D_NET *586 0.00663251
*CONN
*I *3803:CLK I *D sky130_fd_sc_hd__dfxtp_2
*I *3797:CLK I *D sky130_fd_sc_hd__dfxtp_2
*I *3789:CLK I *D sky130_fd_sc_hd__dfxtp_2
*I *3810:CLK I *D sky130_fd_sc_hd__dfxtp_2
*I *3769:CLK I *D sky130_fd_sc_hd__dfxtp_2
*I *3969:X O *D sky130_fd_sc_hd__clkbuf_16
*CAP
1 *3803:CLK 0.000505496
2 *3797:CLK 0
3 *3789:CLK 0.000158589
4 *3810:CLK 0.000522649
5 *3769:CLK 0
6 *3969:X 0
7 *586:47 0.000561542
8 *586:32 0.000425066
9 *586:10 0.0014706
10 *586:4 0.00115838
11 *3789:CLK *630:14 2.39985e-05
12 *3789:CLK *630:16 0.000230067
13 *3803:CLK *777:10 4.06849e-05
14 *3810:CLK *3558:A1 0.000324878
15 *3810:CLK *3558:S 5.5792e-05
16 *3810:CLK *3746:A1 1.24376e-05
17 *3810:CLK *774:29 5.82853e-05
18 *586:10 *666:49 0
19 *586:47 *630:14 6.44251e-05
20 *3797:D *3803:CLK 9.04092e-05
21 *48:10 *3810:CLK 0.000137744
22 *76:8 *3789:CLK 0.000275482
23 *76:8 *586:47 0.000141613
24 *445:10 *3810:CLK 3.68097e-05
25 *452:35 *586:10 1.39431e-05
26 *452:35 *586:32 7.11295e-05
27 *461:168 *3789:CLK 8.32426e-05
28 *544:116 *3810:CLK 7.96821e-05
29 *544:116 *586:10 8.13516e-05
30 *562:154 *3810:CLK 8.21456e-06
*RES
1 *3969:X *586:4 23 
2 *586:4 *586:10 27.4079 
3 *586:10 *3769:CLK 38 
4 *586:10 *3810:CLK 49.8071 
5 *586:4 *586:32 18.0036 
6 *586:32 *3789:CLK 43.2407 
7 *586:32 *586:47 16.9057 
8 *586:47 *3797:CLK 23 
9 *586:47 *3803:CLK 32.7357 
*END

*D_NET *587 0.00579457
*CONN
*I *3873:CLK I *D sky130_fd_sc_hd__dfxtp_2
*I *3806:CLK I *D sky130_fd_sc_hd__dfxtp_2
*I *3774:CLK I *D sky130_fd_sc_hd__dfxtp_2
*I *3811:CLK I *D sky130_fd_sc_hd__dfxtp_2
*I *3795:CLK I *D sky130_fd_sc_hd__dfxtp_2
*I *3970:X O *D sky130_fd_sc_hd__clkbuf_16
*CAP
1 *3873:CLK 0
2 *3806:CLK 0.000479617
3 *3774:CLK 8.37343e-05
4 *3811:CLK 0
5 *3795:CLK 0.000463038
6 *3970:X 0.000492866
7 *587:42 0.000965318
8 *587:36 0.000555965
9 *587:12 0.000625934
10 *587:10 0.00080976
11 *3795:CLK *783:14 0.00026793
12 *3795:CLK *783:27 0.000173603
13 *587:36 *699:44 0.000192297
14 *587:42 *3428:S 0
15 *587:42 *699:44 0.00016781
16 *3530:S *587:10 0
17 *3530:S *587:12 0
18 *3873:D *587:42 0.000187293
19 *26:20 *587:10 0
20 *26:20 *587:12 0
21 *53:10 *3806:CLK 0.000114092
22 *61:10 *3806:CLK 0
23 *85:8 *3806:CLK 0
24 *90:14 *3795:CLK 0.000190328
25 *90:14 *587:12 5.75756e-06
26 *152:10 *3774:CLK 1.92253e-05
27 *152:10 *587:42 0
28 *355:14 *3806:CLK 0
29 *452:117 *3806:CLK 0
30 *579:27 *3806:CLK 0
31 *579:27 *587:42 0
*RES
1 *3970:X *587:10 44.6907 
2 *587:10 *587:12 2.61 
3 *587:12 *3795:CLK 48.3571 
4 *587:12 *3811:CLK 38 
5 *587:10 *587:36 18.9564 
6 *587:36 *587:42 23.7 
7 *587:42 *3774:CLK 39.7193 
8 *587:42 *3806:CLK 46.2443 
9 *587:36 *3873:CLK 23 
*END

*D_NET *588 0.00562443
*CONN
*I *3793:CLK I *D sky130_fd_sc_hd__dfxtp_2
*I *3777:CLK I *D sky130_fd_sc_hd__dfxtp_2
*I *3881:CLK I *D sky130_fd_sc_hd__dfxtp_2
*I *3813:CLK I *D sky130_fd_sc_hd__dfxtp_2
*I *3786:CLK I *D sky130_fd_sc_hd__dfxtp_2
*I *3971:X O *D sky130_fd_sc_hd__clkbuf_16
*CAP
1 *3793:CLK 0
2 *3777:CLK 0.00014085
3 *3881:CLK 2.32269e-05
4 *3813:CLK 0.000563248
5 *3786:CLK 0.000184126
6 *3971:X 0.000267574
7 *588:57 0.000475412
8 *588:42 0.000803438
9 *588:22 0.000765883
10 *588:20 0.000450032
11 *3777:CLK *688:67 9.13962e-05
12 *3813:CLK *3746:A1 4.41821e-06
13 *3813:CLK *645:8 0.000168744
14 *3813:CLK *695:24 0
15 *3881:CLK *3746:A0 2.95423e-05
16 *588:20 *624:73 5.14826e-05
17 *588:22 *3746:A1 0.00011102
18 *588:22 *624:50 2.501e-05
19 *588:42 *624:48 0.000130809
20 *588:42 *624:50 4.60997e-05
21 *588:42 *699:52 1.50326e-05
22 *588:42 *699:68 6.30678e-05
23 *588:57 *3591:A1 0.000274543
24 *588:57 *624:14 0.000247678
25 *588:57 *624:42 0
26 *588:57 *624:48 6.32688e-05
27 *588:57 *686:110 4.16764e-05
28 *588:57 *686:152 0
29 *588:57 *699:68 9.00646e-05
30 *3520:S *588:22 3.73253e-05
31 *3520:S *588:42 5.28551e-05
32 *3521:A *3786:CLK 0.000145163
33 *3777:D *3777:CLK 0.000125581
34 *360:14 *3813:CLK 7.55729e-05
35 *415:8 *588:57 3.74442e-05
36 *432:66 *3813:CLK 0
37 *546:8 *3881:CLK 1.84831e-05
38 *562:154 *3813:CLK 4.35681e-06
*RES
1 *3971:X *3786:CLK 49.9564 
2 *3971:X *588:20 39.0979 
3 *588:20 *588:22 4.01857 
4 *588:22 *3813:CLK 49.0614 
5 *588:22 *3881:CLK 38.6214 
6 *588:20 *588:42 5.075 
7 *588:42 *3777:CLK 41.0036 
8 *588:42 *588:57 27.035 
9 *588:57 *3793:CLK 23 
*END

*D_NET *589 0.00318815
*CONN
*I *3814:CLK I *D sky130_fd_sc_hd__dfxtp_2
*I *3809:CLK I *D sky130_fd_sc_hd__dfxtp_2
*I *3785:CLK I *D sky130_fd_sc_hd__dfxtp_2
*I *3782:CLK I *D sky130_fd_sc_hd__dfxtp_2
*I *3999:A I *D sky130_fd_sc_hd__clkbuf_4
*I *3972:X O *D sky130_fd_sc_hd__clkbuf_16
*CAP
1 *3814:CLK 0.000203568
2 *3809:CLK 0
3 *3785:CLK 0
4 *3782:CLK 0.000130034
5 *3999:A 3.67067e-05
6 *3972:X 0
7 *589:42 0.00016503
8 *589:36 0.000678022
9 *589:32 0.000853923
10 *589:10 0.000355947
11 *589:6 0.000326569
12 *3814:CLK *3584:A0 1.46205e-05
13 *3814:CLK *3584:A1 7.46417e-05
14 *589:10 *630:14 0
15 *589:32 *630:14 0
16 *589:36 *624:6 0.000262473
17 *3584:S *3814:CLK 5.14826e-05
18 *85:8 *589:10 0
19 *85:8 *589:32 0
20 *459:10 *3814:CLK 3.51327e-05
*RES
1 *3972:X *589:6 38 
2 *589:6 *589:10 18.3143 
3 *589:10 *3999:A 23.6214 
4 *589:10 *3782:CLK 25.5479 
5 *589:6 *589:32 17.2889 
6 *589:32 *589:36 9.9325 
7 *589:36 *589:42 32.61 
8 *589:42 *3785:CLK 23 
9 *589:36 *3809:CLK 23 
10 *589:32 *3814:CLK 27.6918 
*END

*D_NET *590 0.00472507
*CONN
*I *3860:CLK I *D sky130_fd_sc_hd__dfxtp_2
*I *3868:CLK I *D sky130_fd_sc_hd__dfxtp_2
*I *3850:CLK I *D sky130_fd_sc_hd__dfxtp_2
*I *3844:CLK I *D sky130_fd_sc_hd__dfxtp_2
*I *3852:CLK I *D sky130_fd_sc_hd__dfxtp_2
*I *3973:X O *D sky130_fd_sc_hd__clkbuf_16
*CAP
1 *3860:CLK 2.30556e-05
2 *3868:CLK 0
3 *3850:CLK 0.000141883
4 *3844:CLK 0
5 *3852:CLK 0
6 *3973:X 0.000238795
7 *590:42 0.000338305
8 *590:34 0.000815238
9 *590:25 0.00109437
10 *590:12 6.83896e-05
11 *590:6 0.000805796
12 *590:6 *3437:S0 3.85021e-05
13 *590:12 *690:14 0.000135616
14 *590:25 *3455:S0 0
15 *590:25 *690:16 0
16 *590:34 *663:64 0.000239525
17 *590:42 *3437:A0 5.61311e-05
18 *590:42 *663:64 3.25022e-05
19 *590:42 *822:10 4.21594e-06
20 *3844:D *590:34 6.64204e-05
21 *3860:D *590:34 1.64354e-05
22 *131:10 *590:12 0.000110267
23 *131:10 *590:25 6.99011e-05
24 *379:10 *590:25 0.000116548
25 *503:10 *590:25 4.21594e-06
26 *525:92 *590:6 0.000139357
27 *525:92 *590:25 0.000169595
28 *581:16 *590:25 0
*RES
1 *3973:X *590:6 26.0036 
2 *590:6 *590:12 31.9057 
3 *590:12 *3852:CLK 23 
4 *590:6 *590:25 38.5343 
5 *590:25 *3844:CLK 23 
6 *590:25 *590:34 11.1236 
7 *590:34 *590:42 33.8321 
8 *590:42 *3850:CLK 25.0507 
9 *590:42 *3868:CLK 23 
10 *590:34 *3860:CLK 23.4971 
*END

*D_NET *591 0.0064644
*CONN
*I *3765:CLK I *D sky130_fd_sc_hd__dfxtp_2
*I *3821:CLK I *D sky130_fd_sc_hd__dfxtp_2
*I *3837:CLK I *D sky130_fd_sc_hd__dfxtp_2
*I *3861:CLK I *D sky130_fd_sc_hd__dfxtp_2
*I *3829:CLK I *D sky130_fd_sc_hd__dfxtp_2
*I *3974:X O *D sky130_fd_sc_hd__clkbuf_16
*CAP
1 *3765:CLK 0
2 *3821:CLK 0
3 *3837:CLK 0
4 *3861:CLK 0
5 *3829:CLK 0.000466123
6 *3974:X 0.000123676
7 *591:62 0.000294304
8 *591:37 0.000880055
9 *591:20 0.00134618
10 *591:18 0.000230357
11 *591:14 0.00029803
12 *591:12 0.0004051
13 *591:8 0.000166798
14 *3829:CLK *3614:A0 0
15 *3829:CLK *633:23 0
16 *3829:CLK *800:8 0
17 *591:8 *3462:A1 2.39877e-05
18 *591:8 *3616:A0 1.82497e-05
19 *591:12 *670:62 5.01469e-05
20 *591:12 *817:10 6.969e-05
21 *591:14 *670:62 8.24312e-05
22 *591:14 *817:10 5.18869e-05
23 *591:18 *670:62 9.46314e-05
24 *591:18 *670:68 0.000207738
25 *591:37 *3454:A0 0.000119828
26 *591:37 *3454:A1 0.000218216
27 *591:37 *3666:A0 7.03869e-05
28 *591:37 *3666:S 6.7177e-06
29 *591:37 *633:23 0
30 *591:62 *809:6 3.7122e-06
31 *591:62 *809:14 8.9728e-05
32 *591:62 *809:29 0.00020461
33 *3648:S *591:18 9.84851e-05
34 *3821:D *591:14 0.0001172
35 *3821:D *591:18 0.000401102
36 *3837:D *591:18 0.000187079
37 *380:10 *591:37 0
38 *380:22 *591:37 0
39 *476:14 *591:8 0
40 *476:14 *591:62 0.000107482
41 *488:100 *591:18 3.04651e-05
*RES
1 *3974:X *591:8 40.2579 
2 *591:8 *591:12 16.5743 
3 *591:12 *591:14 2.52714 
4 *591:14 *591:18 8.74143 
5 *591:18 *591:20 15 
6 *591:20 *3829:CLK 45.83 
7 *591:20 *591:37 33.27 
8 *591:37 *3861:CLK 23 
9 *591:18 *3837:CLK 23 
10 *591:14 *3821:CLK 23 
11 *591:12 *591:62 36.5457 
12 *591:62 *3765:CLK 23 
*END

*D_NET *592 0.00613286
*CONN
*I *3833:CLK I *D sky130_fd_sc_hd__dfxtp_2
*I *3847:CLK I *D sky130_fd_sc_hd__dfxtp_2
*I *3855:CLK I *D sky130_fd_sc_hd__dfxtp_2
*I *3863:CLK I *D sky130_fd_sc_hd__dfxtp_2
*I *3871:CLK I *D sky130_fd_sc_hd__dfxtp_2
*I *3975:X O *D sky130_fd_sc_hd__clkbuf_16
*CAP
1 *3833:CLK 0
2 *3847:CLK 2.0995e-05
3 *3855:CLK 0
4 *3863:CLK 0
5 *3871:CLK 0.000180071
6 *3975:X 0.000947799
7 *592:59 0.000430923
8 *592:31 0.000578036
9 *592:16 0.00101047
10 *592:14 0.000411049
11 *592:6 0.000696554
12 *592:14 *851:8 5.80963e-05
13 *592:31 *3478:A2 3.22879e-05
14 *592:31 *843:12 9.47227e-05
15 *592:59 *3625:A1 0
16 *592:59 *623:28 0
17 *592:59 *665:26 0.000355699
18 *3673:A *3847:CLK 0
19 *3673:A *592:6 7.60392e-05
20 *3724:A *3871:CLK 0.00014981
21 *3724:A *592:16 1.59094e-05
22 *3863:D *592:31 5.92579e-05
23 *3988:A *592:14 0
24 *126:12 *3847:CLK 1.14154e-05
25 *126:12 *592:6 0.000104208
26 *126:12 *592:14 5.70419e-05
27 *134:8 *592:14 2.76611e-06
28 *150:8 *3871:CLK 0.000129006
29 *350:57 *592:14 0
30 *366:18 *592:31 0.000223225
31 *490:10 *592:59 4.83778e-05
32 *533:10 *592:31 0.000439095
*RES
1 *3975:X *592:6 31.2443 
2 *592:6 *592:14 33.3557 
3 *592:14 *592:16 3.95643 
4 *592:16 *3871:CLK 27.4329 
5 *592:16 *592:31 43.5471 
6 *592:31 *3863:CLK 23 
7 *592:14 *3855:CLK 23 
8 *592:6 *3847:CLK 23.4971 
9 *3975:X *592:59 45.7264 
10 *592:59 *3833:CLK 38 
*END

*D_NET *593 0.00551294
*CONN
*I *3761:CLK I *D sky130_fd_sc_hd__dfxtp_2
*I *3838:CLK I *D sky130_fd_sc_hd__dfxtp_2
*I *3830:CLK I *D sky130_fd_sc_hd__dfxtp_2
*I *3817:CLK I *D sky130_fd_sc_hd__dfxtp_2
*I *3825:CLK I *D sky130_fd_sc_hd__dfxtp_2
*I *3976:X O *D sky130_fd_sc_hd__clkbuf_16
*CAP
1 *3761:CLK 7.25351e-05
2 *3838:CLK 1.84295e-05
3 *3830:CLK 0
4 *3817:CLK 0
5 *3825:CLK 0.00039571
6 *3976:X 5.5046e-05
7 *593:45 5.4232e-05
8 *593:30 0.00158349
9 *593:24 0.00144157
10 *593:16 0.000546951
11 *593:8 0.000348081
12 *3825:CLK *691:56 3.49377e-05
13 *593:24 *634:35 0
14 *593:30 *691:56 3.70071e-06
15 *593:30 *805:8 3.82058e-06
16 *593:45 *3625:A1 7.03766e-05
17 *593:45 *691:56 0.000141879
18 *3636:A *3838:CLK 1.12349e-05
19 *3636:A *593:16 1.98624e-05
20 *3636:A *593:24 1.41244e-05
21 *3825:D *3825:CLK 5.09544e-05
22 *3838:D *593:16 2.88997e-05
23 *40:10 *593:24 5.56356e-05
24 *109:8 *593:24 0.000194318
25 *117:8 *3761:CLK 0.000141879
26 *117:8 *593:16 0.000225265
27 *406:10 *593:24 0
*RES
1 *3976:X *593:8 38.6214 
2 *593:8 *593:16 20.0336 
3 *593:16 *593:24 35.365 
4 *593:24 *593:30 14.4793 
5 *593:30 *3825:CLK 28.7586 
6 *593:30 *593:45 31.9057 
7 *593:45 *3817:CLK 23 
8 *593:24 *3830:CLK 23 
9 *593:16 *3838:CLK 23.4971 
10 *593:8 *3761:CLK 39.9057 
*END

*D_NET *594 0.00720175
*CONN
*I *3764:CLK I *D sky130_fd_sc_hd__dfxtp_2
*I *3828:CLK I *D sky130_fd_sc_hd__dfxtp_2
*I *3762:CLK I *D sky130_fd_sc_hd__dfxtp_2
*I *3836:CLK I *D sky130_fd_sc_hd__dfxtp_2
*I *3820:CLK I *D sky130_fd_sc_hd__dfxtp_2
*I *3977:X O *D sky130_fd_sc_hd__clkbuf_16
*CAP
1 *3764:CLK 0.000231969
2 *3828:CLK 0
3 *3762:CLK 0.000107558
4 *3836:CLK 0
5 *3820:CLK 0.000129089
6 *3977:X 4.09526e-05
7 *594:51 0.000347648
8 *594:34 0.000588398
9 *594:25 0.000353005
10 *594:23 0.000451783
11 *594:10 0.00134824
12 *594:8 0.00126011
13 *3764:CLK *816:10 2.10502e-05
14 *3820:CLK *664:32 0.000145163
15 *3820:CLK *808:10 6.51997e-06
16 *594:10 *3438:S0 1.05658e-05
17 *594:10 *725:39 0
18 *594:10 *725:59 0.000118908
19 *594:10 *808:10 3.0699e-05
20 *3632:A *594:34 5.79559e-05
21 *3764:D *3764:CLK 0.000100486
22 *3820:D *3820:CLK 5.5792e-05
23 *3828:D *594:51 1.64354e-05
24 *3836:D *3764:CLK 4.08664e-05
25 *3836:D *594:25 0.000278572
26 *99:10 *3820:CLK 2.47126e-05
27 *99:10 *594:10 7.84832e-05
28 *107:10 *3762:CLK 5.43544e-05
29 *107:10 *594:51 3.64394e-05
30 *115:8 *3820:CLK 0.000113235
31 *350:26 *594:10 0.000212121
32 *381:14 *594:10 0
33 *493:10 *3820:CLK 0.000191419
34 *493:10 *594:10 0.00045814
35 *525:62 *594:8 5.3304e-05
36 *530:10 *594:10 0.000237769
*RES
1 *3977:X *594:8 38.6214 
2 *594:8 *594:10 25.1471 
3 *594:10 *3820:CLK 42.1843 
4 *594:10 *594:23 15 
5 *594:23 *594:25 4.43286 
6 *594:25 *3836:CLK 23 
7 *594:25 *594:34 2.54786 
8 *594:34 *3762:CLK 25.0507 
9 *594:34 *594:51 36.1107 
10 *594:51 *3828:CLK 23 
11 *594:23 *3764:CLK 27.4329 
*END

*D_NET *595 0.00445893
*CONN
*I *3894:CLK I *D sky130_fd_sc_hd__dfrtp_2
*I *3895:CLK I *D sky130_fd_sc_hd__dfrtp_2
*I *3763:CLK I *D sky130_fd_sc_hd__dfxtp_2
*I *3819:CLK I *D sky130_fd_sc_hd__dfxtp_2
*I *3835:CLK I *D sky130_fd_sc_hd__dfxtp_2
*I *3978:X O *D sky130_fd_sc_hd__clkbuf_16
*CAP
1 *3894:CLK 0.000124221
2 *3895:CLK 0
3 *3763:CLK 0.000202666
4 *3819:CLK 0
5 *3835:CLK 0.000245251
6 *3978:X 0.000544648
7 *595:54 0.000274045
8 *595:48 0.000770628
9 *595:21 0.000272291
10 *595:6 0.000487161
11 *3763:CLK *3490:A0 0.000148698
12 *3763:CLK *619:21 0
13 *3763:CLK *632:10 1.14452e-05
14 *3835:CLK *685:93 1.35999e-05
15 *3835:CLK *815:30 0.000139346
16 *595:6 *815:10 1.05235e-05
17 *595:6 *815:30 0.000135037
18 *595:21 *632:10 0.000163352
19 *3835:D *3835:CLK 1.64354e-05
20 *4110:A *3835:CLK 0.00031417
21 *114:10 *3835:CLK 3.05919e-05
22 *372:12 *595:54 6.45006e-05
23 *408:8 *3763:CLK 2.93845e-05
24 *408:14 *3763:CLK 8.15327e-05
25 *479:8 *3763:CLK 0.000216051
26 *479:8 *595:21 0.000163352
*RES
1 *3978:X *595:6 26.0036 
2 *595:6 *3835:CLK 29.5043 
3 *595:6 *595:21 17.2579 
4 *595:21 *3819:CLK 38 
5 *595:21 *3763:CLK 43.9657 
6 *3978:X *595:48 28.8829 
7 *595:48 *595:54 35.4271 
8 *595:54 *3895:CLK 23 
9 *595:48 *3894:CLK 25.0507 
*END

*D_NET *596 0.00930831
*CONN
*I *3898:CLK I *D sky130_fd_sc_hd__dfrtp_2
*I *3893:CLK I *D sky130_fd_sc_hd__dfrtp_2
*I *3900:CLK I *D sky130_fd_sc_hd__dfrtp_2
*I *3897:CLK I *D sky130_fd_sc_hd__dfrtp_2
*I *3896:CLK I *D sky130_fd_sc_hd__dfrtp_2
*I *4000:A I *D sky130_fd_sc_hd__clkbuf_4
*I *3979:X O *D sky130_fd_sc_hd__clkbuf_16
*CAP
1 *3898:CLK 0
2 *3893:CLK 0.000246072
3 *3900:CLK 5.02061e-05
4 *3897:CLK 0
5 *3896:CLK 0.000132327
6 *4000:A 0
7 *3979:X 0.000924585
8 *596:66 0.00050896
9 *596:62 0.000710451
10 *596:55 0.000760978
11 *596:42 0.000861325
12 *596:40 0.000762063
13 *596:30 0.000560661
14 *596:10 0.000660198
15 *596:30 *3307:A3 5.79413e-06
16 *596:30 *676:31 1.05441e-05
17 *596:40 *3282:B1 0.000233367
18 *596:40 *3307:A3 2.26497e-05
19 *596:62 *3897:D 7.9566e-05
20 *596:62 *3897:RESET_B 9.3372e-05
21 *3254:A *596:10 1.94693e-05
22 *3282:A2 *596:40 7.67478e-05
23 *3307:A1 *596:40 5.05059e-05
24 *3307:A2 *596:40 4.96207e-05
25 *3309:B1 *3896:CLK 9.15503e-05
26 *3309:B1 *596:42 0.00010003
27 *3312:B *596:42 1.12487e-05
28 *3313:A2 *596:42 0.000225265
29 *3336:B1 *3893:CLK 1.52259e-05
30 *3336:B1 *3900:CLK 6.07611e-06
31 *195:10 *596:10 0.000169674
32 *205:40 *596:42 7.91309e-05
33 *205:55 *596:42 0
34 *213:50 *596:40 0.000224692
35 *214:24 *596:40 0.000108497
36 *214:37 *596:40 0.000101207
37 *215:8 *596:40 0.000223687
38 *218:61 *596:10 0.000146082
39 *219:8 *596:30 0
40 *230:14 *596:42 0.000275482
41 *238:8 *596:42 4.41619e-05
42 *257:8 *596:10 8.51329e-05
43 *262:8 *3900:CLK 6.17437e-06
44 *262:16 *3893:CLK 0.000385735
45 *560:8 *3900:CLK 7.37814e-06
46 *560:8 *596:66 0.000172535
47 *568:29 *596:10 9.87985e-06
*RES
1 *3979:X *596:10 48.0257 
2 *596:10 *4000:A 38 
3 *3979:X *596:30 46.8064 
4 *596:30 *596:40 46.9175 
5 *596:40 *596:42 11.4136 
6 *596:42 *3896:CLK 40.9621 
7 *596:42 *596:55 19.9093 
8 *596:55 *3897:CLK 23 
9 *596:55 *596:62 10.15 
10 *596:62 *596:66 20.2511 
11 *596:66 *3900:CLK 38.9425 
12 *596:66 *3893:CLK 44.5768 
13 *596:62 *3898:CLK 23 
*END

*D_NET *597 0.00635232
*CONN
*I *3822:CLK I *D sky130_fd_sc_hd__dfxtp_2
*I *3869:CLK I *D sky130_fd_sc_hd__dfxtp_2
*I *3867:CLK I *D sky130_fd_sc_hd__dfxtp_2
*I *3853:CLK I *D sky130_fd_sc_hd__dfxtp_2
*I *3845:CLK I *D sky130_fd_sc_hd__dfxtp_2
*I *3980:X O *D sky130_fd_sc_hd__clkbuf_16
*CAP
1 *3822:CLK 0.00044092
2 *3869:CLK 0.000162071
3 *3867:CLK 0.00061919
4 *3853:CLK 0
5 *3845:CLK 0
6 *3980:X 0
7 *597:24 7.99819e-05
8 *597:18 0.000476626
9 *597:12 0.00116548
10 *597:8 0.000481736
11 *597:6 0.000610944
12 *3822:CLK *692:30 0.000239613
13 *3822:CLK *810:32 8.82055e-05
14 *3867:CLK *3445:S0 0.000136286
15 *3867:CLK *685:117 3.08966e-05
16 *3867:CLK *833:8 5.73835e-06
17 *597:8 *692:30 0.000168129
18 *597:12 *634:27 0.000181342
19 *597:12 *634:35 3.76928e-05
20 *597:12 *692:30 0.000101958
21 *597:12 *692:32 3.63581e-05
22 *597:12 *825:12 8.57577e-05
23 *597:18 *833:8 2.20111e-05
24 *597:24 *723:107 0.000169674
25 *3853:D *597:18 9.04092e-05
26 *3952:A *3867:CLK 3.26035e-05
27 *132:8 *597:24 0.000227497
28 *387:8 *3822:CLK 0.000237291
29 *387:8 *597:8 0.000359539
30 *387:8 *597:12 6.437e-05
*RES
1 *3980:X *597:6 38 
2 *597:6 *597:8 5.075 
3 *597:8 *597:12 20.075 
4 *597:12 *597:18 6.85643 
5 *597:18 *597:24 32.9621 
6 *597:24 *3845:CLK 23 
7 *597:18 *3853:CLK 23 
8 *597:12 *3867:CLK 31.6171 
9 *597:8 *3869:CLK 40.5271 
10 *597:6 *3822:CLK 47.1764 
*END

*D_NET *598 0.00481693
*CONN
*I *3843:CLK I *D sky130_fd_sc_hd__dfxtp_2
*I *3851:CLK I *D sky130_fd_sc_hd__dfxtp_2
*I *3859:CLK I *D sky130_fd_sc_hd__dfxtp_2
*I *4001:A I *D sky130_fd_sc_hd__clkbuf_4
*I *3827:CLK I *D sky130_fd_sc_hd__dfxtp_2
*I *3981:X O *D sky130_fd_sc_hd__clkbuf_16
*CAP
1 *3843:CLK 4.02344e-05
2 *3851:CLK 0
3 *3859:CLK 0
4 *4001:A 0
5 *3827:CLK 0
6 *3981:X 0.000147174
7 *598:45 0.00022474
8 *598:24 0.000798962
9 *598:16 0.000814223
10 *598:14 0.000596355
11 *598:6 0.000912773
12 *598:14 *663:26 0.000267178
13 *598:14 *685:79 5.97612e-05
14 *598:14 *723:79 2.5415e-05
15 *598:24 *685:79 0
16 *598:45 *847:12 3.88629e-05
17 *130:8 *598:45 1.13812e-05
18 *138:8 *598:14 1.01436e-05
19 *138:8 *598:24 0
20 *386:16 *598:24 0
21 *479:8 *598:45 0.000233964
22 *492:10 *598:24 0
23 *504:10 *598:24 0
24 *507:143 *598:16 8.6949e-05
25 *507:143 *598:24 9.84851e-05
26 *511:12 *598:45 0.000125239
27 *516:41 *598:16 9.84794e-05
28 *516:41 *598:24 9.84851e-05
29 *562:256 *3843:CLK 6.17437e-06
30 *562:256 *598:6 3.71228e-05
31 *562:256 *598:14 8.48285e-05
*RES
1 *3981:X *598:6 24.5743 
2 *598:6 *598:14 38.7207 
3 *598:14 *598:16 1.09786 
4 *598:16 *598:24 45.3286 
5 *598:24 *3827:CLK 23 
6 *598:16 *4001:A 23 
7 *598:14 *3859:CLK 23 
8 *598:6 *598:45 36.4836 
9 *598:45 *3851:CLK 23 
10 *3981:X *3843:CLK 46.6214 
*END

*D_NET *599 0.00536038
*CONN
*I *3877:CLK I *D sky130_fd_sc_hd__dfxtp_2
*I *3841:CLK I *D sky130_fd_sc_hd__dfxtp_2
*I *3870:CLK I *D sky130_fd_sc_hd__dfxtp_2
*I *3849:CLK I *D sky130_fd_sc_hd__dfxtp_2
*I *3857:CLK I *D sky130_fd_sc_hd__dfxtp_2
*I *3982:X O *D sky130_fd_sc_hd__clkbuf_16
*CAP
1 *3877:CLK 0
2 *3841:CLK 0
3 *3870:CLK 2.30556e-05
4 *3849:CLK 0
5 *3857:CLK 2.85003e-05
6 *3982:X 0.000711076
7 *599:59 0.000579357
8 *599:22 0.00072406
9 *599:18 0.00120904
10 *599:8 0.000622147
11 *599:22 *829:8 0.000349506
12 *599:59 *3472:A1 0
13 *599:59 *3721:A0 0.000114083
14 *599:59 *634:39 0
15 *599:59 *681:32 0.000180232
16 *599:59 *683:69 0.000352934
17 *599:59 *850:16 8.62876e-05
18 *3849:D *599:22 1.64354e-05
19 *3870:D *599:18 0.000149343
20 *352:44 *599:59 0
21 *383:14 *599:59 0
22 *387:8 *599:59 0.000127628
23 *523:8 *599:8 1.15307e-05
24 *523:8 *599:18 7.51636e-05
25 *525:115 *599:59 0
*RES
1 *3982:X *599:8 40.61 
2 *599:8 *599:18 23.7621 
3 *599:18 *599:22 11.6 
4 *599:22 *3857:CLK 23.6214 
5 *599:22 *3849:CLK 23 
6 *599:18 *3870:CLK 23.4971 
7 *599:8 *3841:CLK 38 
8 *3982:X *599:59 49.9314 
9 *599:59 *3877:CLK 38 
*END

*D_NET *600 0.0125851
*CONN
*I *3915:CLK I *D sky130_fd_sc_hd__dfrtp_2
*I *3846:CLK I *D sky130_fd_sc_hd__dfxtp_2
*I *4002:A I *D sky130_fd_sc_hd__clkbuf_4
*I *3862:CLK I *D sky130_fd_sc_hd__dfxtp_2
*I *3854:CLK I *D sky130_fd_sc_hd__dfxtp_2
*I *3766:CLK I *D sky130_fd_sc_hd__dfxtp_2
*I *3983:X O *D sky130_fd_sc_hd__clkbuf_16
*CAP
1 *3915:CLK 0
2 *3846:CLK 8.46335e-05
3 *4002:A 0
4 *3862:CLK 0
5 *3854:CLK 0.000127763
6 *3766:CLK 0.000384642
7 *3983:X 0.000297561
8 *600:73 0.000931939
9 *600:58 0.00121355
10 *600:46 0.000559231
11 *600:25 0.000999697
12 *600:23 0.000471204
13 *600:10 0.000643785
14 *600:8 0.000595183
15 *3766:CLK *663:16 0.00010403
16 *3766:CLK *700:119 3.84694e-05
17 *3766:CLK *701:37 0.000268221
18 *3766:CLK *707:35 0.000185755
19 *3766:CLK *707:41 0.000161121
20 *3766:CLK *707:74 0.000331074
21 *3846:CLK *663:12 2.02872e-05
22 *600:10 *700:119 6.84507e-05
23 *600:10 *707:74 0.000236049
24 *600:46 *3670:A0 0.000157113
25 *600:46 *726:37 1.07299e-05
26 *600:58 *700:119 5.70142e-05
27 *600:58 *707:74 0.000327929
28 *600:58 *869:40 0
29 *600:73 *3552:A_N 0
30 *600:73 *4030:A 0.000357205
31 *600:73 *700:6 4.05745e-05
32 *600:73 *700:10 0.000190582
33 *600:73 *700:79 6.81466e-05
34 *600:73 *707:74 0.000394833
35 *600:73 *707:91 6.01083e-05
36 *3688:A *3854:CLK 5.50106e-05
37 *3688:A *600:25 4.34745e-05
38 *3854:D *3854:CLK 0.000193811
39 *3862:D *600:46 0.00014884
40 *4080:A *3846:CLK 9.41704e-05
41 *202:54 *600:8 0.000401641
42 *352:34 *600:73 0.000182087
43 *404:8 *3766:CLK 5.09988e-05
44 *404:14 *3766:CLK 0.000189796
45 *498:32 *600:46 0.000481428
46 *507:24 *600:58 4.98333e-05
47 *507:30 *600:46 0.00035332
48 *507:42 *600:46 0.000513778
49 *514:10 *600:46 0.000200825
50 *562:200 *600:46 6.27672e-05
51 *562:302 *600:73 0.000120682
52 *570:16 *600:46 5.5792e-05
*RES
1 *3983:X *600:8 42.4329 
2 *600:8 *600:10 3.31429 
3 *600:10 *3766:CLK 49.7657 
4 *600:10 *600:23 17.0507 
5 *600:23 *600:25 4.43286 
6 *600:25 *3854:CLK 26.0243 
7 *600:25 *600:46 47.4621 
8 *600:46 *3862:CLK 23 
9 *600:23 *4002:A 23 
10 *600:8 *600:58 4.72286 
11 *600:58 *3846:CLK 39.5743 
12 *600:58 *600:73 35.5693 
13 *600:73 *3915:CLK 23 
*END

*D_NET *601 0.00697443
*CONN
*I *3883:CLK I *D sky130_fd_sc_hd__dfxtp_2
*I *3875:CLK I *D sky130_fd_sc_hd__dfxtp_2
*I *3787:CLK I *D sky130_fd_sc_hd__dfxtp_2
*I *3779:CLK I *D sky130_fd_sc_hd__dfxtp_2
*I *3771:CLK I *D sky130_fd_sc_hd__dfxtp_2
*I *3984:X O *D sky130_fd_sc_hd__clkbuf_16
*CAP
1 *3883:CLK 0.000368463
2 *3875:CLK 0.000361196
3 *3787:CLK 0.000264308
4 *3779:CLK 0.000211706
5 *3771:CLK 0.000547326
6 *3984:X 9.48342e-05
7 *601:52 0.00077306
8 *601:23 0.00056596
9 *601:8 0.000688705
10 *3771:CLK *751:10 9.41704e-05
11 *3779:CLK *3459:S0 0.000138917
12 *3787:CLK *3442:S0 9.03784e-05
13 *3787:CLK *620:33 0.000261257
14 *3787:CLK *620:42 0.000171906
15 *3875:CLK *3442:A3 0.000271479
16 *3875:CLK *620:22 3.47781e-05
17 *3875:CLK *687:54 7.22728e-06
18 *3875:CLK *687:64 0.000116118
19 *3883:CLK *620:22 5.3304e-05
20 *601:8 *3442:S0 0.000141869
21 *601:8 *620:33 0.000138708
22 *601:23 *3442:S0 0.000271129
23 *601:23 *620:33 0.000260986
24 *601:52 *3442:A3 0.000114092
25 *601:52 *620:22 0.000101708
26 *3771:D *3771:CLK 4.38081e-05
27 *3779:D *3779:CLK 0.000125581
28 *3883:D *3883:CLK 1.64354e-05
29 *422:10 *3875:CLK 0.000212121
30 *422:29 *3875:CLK 0.000210519
31 *535:26 *3787:CLK 0.000167319
32 *548:10 *3883:CLK 5.50606e-05
*RES
1 *3984:X *601:8 39.9057 
2 *601:8 *3771:CLK 45.3691 
3 *601:8 *601:23 3.66643 
4 *601:23 *3779:CLK 42.4329 
5 *601:23 *3787:CLK 45.3536 
6 *3984:X *601:52 39.5536 
7 *601:52 *3875:CLK 46.9486 
8 *601:52 *3883:CLK 43.4064 
*END

*D_NET *602 0.00879606
*CONN
*I *3790:CLK I *D sky130_fd_sc_hd__dfxtp_2
*I *3798:CLK I *D sky130_fd_sc_hd__dfxtp_2
*I *3886:CLK I *D sky130_fd_sc_hd__dfxtp_2
*I *3878:CLK I *D sky130_fd_sc_hd__dfxtp_2
*I *4003:A I *D sky130_fd_sc_hd__clkbuf_4
*I *3985:X O *D sky130_fd_sc_hd__clkbuf_16
*CAP
1 *3790:CLK 0
2 *3798:CLK 2.54319e-05
3 *3886:CLK 0.000159114
4 *3878:CLK 4.28022e-05
5 *4003:A 0.000165447
6 *3985:X 0.000207396
7 *602:62 0.000223175
8 *602:49 0.00087368
9 *602:32 0.000997331
10 *602:21 0.000983505
11 *602:8 0.0011004
12 *3798:CLK *667:31 3.22879e-05
13 *3878:CLK *729:37 9.91024e-05
14 *3886:CLK *688:31 7.45494e-05
15 *4003:A *667:12 0.000110913
16 *4003:A *687:54 0.000101925
17 *4003:A *697:46 6.78027e-05
18 *602:21 *667:12 0.000699024
19 *602:21 *667:27 0.000699207
20 *602:21 *688:142 0
21 *602:21 *767:10 0.000326388
22 *602:32 *667:27 0.000410379
23 *602:32 *688:142 0
24 *602:49 *3548:S 2.60152e-05
25 *602:49 *635:10 0
26 *602:49 *635:28 0
27 *602:49 *667:27 0.000404047
28 *602:49 *667:31 0.000340341
29 *602:62 *688:131 0
30 *3798:D *602:49 1.64354e-05
31 *3886:D *3886:CLK 1.64354e-05
32 *3985:A *4003:A 0
33 *3985:A *602:21 0
34 *69:8 *602:62 3.50862e-06
35 *157:8 *602:32 0
36 *369:12 *602:21 0
37 *436:10 *602:21 0
38 *442:10 *4003:A 0
39 *442:14 *602:8 0.000148393
40 *442:37 *602:62 0.000402529
41 *449:10 *602:62 3.84905e-05
*RES
1 *3985:X *602:8 41.0036 
2 *602:8 *4003:A 42.3086 
3 *602:8 *602:21 20.5693 
4 *602:21 *3878:CLK 39.0979 
5 *602:21 *602:32 5.42714 
6 *602:32 *3886:CLK 41.0243 
7 *602:32 *602:49 28.4229 
8 *602:49 *3798:CLK 23.6214 
9 *602:49 *602:62 35.7793 
10 *602:62 *3790:CLK 23 
*END

*D_NET *603 0.012769
*CONN
*I *3925:CLK I *D sky130_fd_sc_hd__dfrtp_2
*I *3920:CLK I *D sky130_fd_sc_hd__dfrtp_2
*I *3930:CLK I *D sky130_fd_sc_hd__dfrtp_2
*I *3929:CLK I *D sky130_fd_sc_hd__dfrtp_2
*I *3931:CLK I *D sky130_fd_sc_hd__dfrtp_2
*I *3986:X O *D sky130_fd_sc_hd__clkbuf_16
*CAP
1 *3925:CLK 0
2 *3920:CLK 0
3 *3930:CLK 0.000137347
4 *3929:CLK 0.000765888
5 *3931:CLK 0.000405558
6 *3986:X 0.00119338
7 *603:79 0.000193797
8 *603:73 0.00133319
9 *603:61 0.000695623
10 *603:31 0.00137607
11 *603:23 0.000747531
12 *603:10 0.000576773
13 *603:8 0.000920825
14 *3930:CLK *3930:D 5.25658e-05
15 *3931:CLK *3930:D 4.3407e-05
16 *3931:CLK *714:34 0.000401359
17 *603:8 *643:16 5.47927e-05
18 *603:10 *3930:D 4.02103e-05
19 *603:10 *708:39 1.70886e-05
20 *603:10 *714:52 4.73689e-05
21 *603:31 *3319:B1 0
22 *603:31 *3930:D 2.45549e-06
23 *603:31 *3930:RESET_B 2.13733e-05
24 *603:31 *868:8 0.000384805
25 *603:31 *868:17 0.000127272
26 *603:31 *868:50 0.000233039
27 *603:31 *869:101 2.24048e-05
28 *603:61 *3920:D 1.16636e-05
29 *603:61 *3920:RESET_B 0.000137533
30 *603:61 *637:12 0.000219794
31 *603:61 *708:39 6.38947e-05
32 *603:61 *714:52 1.52259e-05
33 *603:61 *884:14 0
34 *603:73 *3241:A1 0.000616676
35 *603:73 *3241:B1 6.70017e-05
36 *3266:B *603:79 0
37 *182:10 *603:8 5.41288e-05
38 *182:10 *603:61 0
39 *183:76 *603:73 1.36806e-05
40 *184:18 *603:31 8.62876e-05
41 *185:12 *603:31 0.000188926
42 *185:31 *3931:CLK 0.000139647
43 *185:31 *603:10 0.000135826
44 *185:31 *603:31 2.92911e-06
45 *191:16 *603:79 0.000350739
46 *195:38 *603:31 9.64022e-05
47 *202:44 *603:79 0
48 *216:72 *3931:CLK 0.000275883
49 *218:39 *603:31 0.000217817
50 *226:10 *3929:CLK 0.000179725
51 *341:20 *603:73 0.000101137
*RES
1 *3986:X *603:8 39.5743 
2 *603:8 *603:10 4.01857 
3 *603:10 *3931:CLK 48.15 
4 *603:10 *603:23 15 
5 *603:23 *603:31 44.4171 
6 *603:31 *3929:CLK 32.57 
7 *603:23 *3930:CLK 25.5686 
8 *603:8 *603:61 29.0236 
9 *603:61 *3920:CLK 23 
10 *3986:X *603:73 38.8671 
11 *603:73 *603:79 34.7229 
12 *603:79 *3925:CLK 23 
*END

*D_NET *604 0.00584664
*CONN
*I *3917:CLK I *D sky130_fd_sc_hd__dfrtp_2
*I *3922:CLK I *D sky130_fd_sc_hd__dfrtp_2
*I *3923:CLK I *D sky130_fd_sc_hd__dfrtp_2
*I *3928:CLK I *D sky130_fd_sc_hd__dfrtp_2
*I *3918:CLK I *D sky130_fd_sc_hd__dfrtp_2
*I *3987:X O *D sky130_fd_sc_hd__clkbuf_16
*CAP
1 *3917:CLK 0.000156904
2 *3922:CLK 0.000153614
3 *3923:CLK 0.000346039
4 *3928:CLK 2.34823e-05
5 *3918:CLK 0.000143031
6 *3987:X 0
7 *604:36 0.0009044
8 *604:25 0.000728469
9 *604:8 0.000597757
10 *604:6 0.000311389
11 *3917:CLK *3925:RESET_B 9.41704e-05
12 *3917:CLK *716:58 5.58003e-05
13 *3917:CLK *730:37 0.000162445
14 *3917:CLK *886:10 7.10083e-05
15 *3917:CLK *900:8 1.59094e-05
16 *3918:CLK *3918:D 7.53384e-06
17 *3918:CLK *730:37 0.000139647
18 *3918:CLK *887:10 0.000141888
19 *3922:CLK *3922:RESET_B 0
20 *3922:CLK *677:8 7.28526e-05
21 *3923:CLK *3922:RESET_B 0
22 *3923:CLK *718:21 0.000225265
23 *3923:CLK *883:10 7.23925e-05
24 *604:8 *730:37 0.000543025
25 *604:8 *886:10 0.000131878
26 *604:8 *886:16 4.42688e-05
27 *604:8 *887:10 0.00021065
28 *604:25 *3928:RESET_B 4.73712e-05
29 *604:25 *643:45 4.02658e-06
30 *604:25 *904:6 3.98818e-05
31 *604:36 *643:45 0.000206926
32 *604:36 *904:6 8.05298e-05
33 *3415:A *604:36 5.40337e-05
34 *35:13 *3922:CLK 0
35 *35:13 *3923:CLK 0
36 *343:14 *3918:CLK 6.00575e-05
*RES
1 *3987:X *604:6 38 
2 *604:6 *604:8 7.18786 
3 *604:8 *3918:CLK 41.48 
4 *604:8 *604:25 19.4536 
5 *604:25 *3928:CLK 23.4971 
6 *604:25 *604:36 22.7679 
7 *604:36 *3923:CLK 45.8921 
8 *604:36 *3922:CLK 41.3143 
9 *604:6 *3917:CLK 41.8321 
*END

*D_NET *605 0.00769643
*CONN
*I *3823:CLK I *D sky130_fd_sc_hd__dfxtp_2
*I *3767:CLK I *D sky130_fd_sc_hd__dfxtp_2
*I *3839:CLK I *D sky130_fd_sc_hd__dfxtp_2
*I *3858:CLK I *D sky130_fd_sc_hd__dfxtp_2
*I *3834:CLK I *D sky130_fd_sc_hd__dfxtp_2
*I *3988:X O *D sky130_fd_sc_hd__clkbuf_16
*CAP
1 *3823:CLK 0.00040791
2 *3767:CLK 0
3 *3839:CLK 0
4 *3858:CLK 0.000113007
5 *3834:CLK 0
6 *3988:X 0.000341705
7 *605:36 0.000645473
8 *605:28 0.00129917
9 *605:22 0.00134119
10 *605:14 0.00109866
11 *605:6 0.00104776
12 *605:6 *4047:A 5.67058e-05
13 *605:6 *719:6 2.93431e-05
14 *605:6 *719:10 2.02872e-05
15 *605:6 *803:12 5.50106e-05
16 *605:6 *803:27 0.000310641
17 *605:14 *803:12 9.5876e-06
18 *605:36 *664:48 0
19 *605:36 *664:61 0
20 *3621:A *605:22 0.000102389
21 *3628:A *605:36 2.93431e-05
22 *3823:D *3823:CLK 8.68427e-05
23 *46:8 *605:14 0.000149491
24 *102:10 *605:22 1.24365e-05
25 *105:8 *605:36 1.13812e-05
26 *110:8 *605:22 0.000121698
27 *118:10 *605:22 1.14452e-05
28 *118:10 *605:28 0.000171906
29 *482:10 *605:36 0.000223043
*RES
1 *3988:X *605:6 30.2914 
2 *605:6 *605:14 35.9657 
3 *605:14 *605:22 31.5507 
4 *605:22 *605:28 25.2121 
5 *605:28 *605:36 42.8636 
6 *605:36 *3834:CLK 23 
7 *605:28 *3858:CLK 25.0507 
8 *605:22 *3839:CLK 38 
9 *605:14 *3767:CLK 23 
10 *605:6 *3823:CLK 29.7321 
*END

*D_NET *606 0.00406469
*CONN
*I *3927:CLK I *D sky130_fd_sc_hd__dfrtp_2
*I *3914:CLK I *D sky130_fd_sc_hd__dfrtp_2
*I *3924:CLK I *D sky130_fd_sc_hd__dfrtp_2
*I *3932:CLK I *D sky130_fd_sc_hd__dfrtp_2
*I *3919:CLK I *D sky130_fd_sc_hd__dfrtp_2
*I *3989:X O *D sky130_fd_sc_hd__clkbuf_16
*CAP
1 *3927:CLK 0.000210846
2 *3914:CLK 3.43162e-05
3 *3924:CLK 0
4 *3932:CLK 0.000448307
5 *3919:CLK 0.000439867
6 *3989:X 9.66891e-05
7 *606:39 0.000414477
8 *606:14 0.00107857
9 *606:10 0.000344923
10 *606:8 0.000420526
11 *3914:CLK *3927:RESET_B 1.94693e-05
12 *3919:CLK *3919:D 7.88926e-05
13 *3927:CLK *3927:RESET_B 0.000196039
14 *3932:CLK *3932:D 6.17437e-06
15 *606:8 *880:8 9.84851e-05
16 *606:10 *3914:RESET_B 0
17 *606:10 *3920:D 0
18 *606:10 *714:77 0
19 *606:10 *910:16 0
20 *606:14 *910:16 0
21 *606:39 *3914:RESET_B 0
22 *3956:A *3932:CLK 3.26035e-05
23 *190:10 *606:10 0
24 *562:302 *606:14 0
25 *573:10 *3932:CLK 0.000144501
*RES
1 *3989:X *606:8 40.0507 
2 *606:8 *606:10 2.61 
3 *606:10 *606:14 17.61 
4 *606:14 *3919:CLK 30.7679 
5 *606:14 *3932:CLK 31.2443 
6 *606:10 *3924:CLK 38 
7 *606:8 *606:39 18.3143 
8 *606:39 *3914:CLK 23.6214 
9 *606:39 *3927:CLK 28.3857 
*END

*D_NET *607 0.00505566
*CONN
*I *4004:A I *D sky130_fd_sc_hd__clkbuf_4
*I *3916:CLK I *D sky130_fd_sc_hd__dfrtp_2
*I *3933:CLK I *D sky130_fd_sc_hd__dfrtp_2
*I *3926:CLK I *D sky130_fd_sc_hd__dfrtp_2
*I *3921:CLK I *D sky130_fd_sc_hd__dfrtp_2
*I *3990:X O *D sky130_fd_sc_hd__clkbuf_16
*CAP
1 *4004:A 0
2 *3916:CLK 0
3 *3933:CLK 0.000248949
4 *3926:CLK 3.45259e-05
5 *3921:CLK 0
6 *3990:X 0.000571764
7 *607:30 0.000901222
8 *607:22 0.00114473
9 *607:18 0.000665797
10 *607:10 0.000779631
11 *3926:CLK *3926:RESET_B 1.84917e-05
12 *3933:CLK *909:6 5.70419e-05
13 *607:10 *738:14 0.000169665
14 *607:18 *738:14 0.000177217
15 *607:22 *738:14 0
16 *607:30 *3921:RESET_B 8.79516e-05
17 *607:30 *3926:D 0
18 *607:30 *886:8 0.000143665
19 *3248:A *3933:CLK 5.50049e-05
20 *191:10 *607:18 0
21 *191:16 *607:22 0
22 *191:16 *607:30 0
*RES
1 *3990:X *607:10 46.12 
2 *607:10 *607:18 19.3293 
3 *607:18 *607:22 17.9621 
4 *607:22 *607:30 27.7807 
5 *607:30 *3921:CLK 23 
6 *607:22 *3926:CLK 38.6214 
7 *607:18 *3933:CLK 27.93 
8 *607:18 *3916:CLK 23 
9 *607:10 *4004:A 38 
*END

*D_NET *608 0.00403319
*CONN
*I *3864:CLK I *D sky130_fd_sc_hd__dfxtp_2
*I *3760:CLK I *D sky130_fd_sc_hd__dfxtp_2
*I *3832:CLK I *D sky130_fd_sc_hd__dfxtp_2
*I *3824:CLK I *D sky130_fd_sc_hd__dfxtp_2
*I *3816:CLK I *D sky130_fd_sc_hd__dfxtp_2
*I *3991:X O *D sky130_fd_sc_hd__clkbuf_16
*CAP
1 *3864:CLK 0
2 *3760:CLK 0
3 *3832:CLK 0.000106941
4 *3824:CLK 0.000225007
5 *3816:CLK 0
6 *3991:X 0.000282634
7 *608:67 0.000282634
8 *608:51 0.000191575
9 *608:21 0.000505652
10 *608:10 0.000711675
11 *608:4 0.000729545
12 *608:10 *796:10 0.000142678
13 *608:51 *3479:S0 9.88575e-05
14 *608:51 *628:22 4.68488e-05
15 *608:51 *689:52 9.01053e-05
16 *608:67 *625:58 4.68426e-05
17 *3624:A *608:10 5.56279e-05
18 *3624:A *608:21 3.59255e-05
19 *3816:D *608:10 1.64354e-05
20 *3824:D *3824:CLK 2.88997e-05
21 *39:10 *608:51 6.11183e-05
22 *103:8 *3824:CLK 0.000115526
23 *111:12 *3824:CLK 2.56281e-05
24 *111:12 *3832:CLK 9.19995e-05
25 *405:14 *608:67 0.000141038
*RES
1 *3991:X *608:4 23 
2 *608:4 *608:10 9.36286 
3 *608:10 *3816:CLK 23 
4 *608:10 *608:21 18.0243 
5 *608:21 *3824:CLK 42.8264 
6 *608:21 *3832:CLK 40.61 
7 *608:4 *608:51 35.075 
8 *608:51 *3760:CLK 23 
9 *3991:X *608:67 42.4329 
10 *608:67 *3864:CLK 38 
*END

*D_NET *609 0.0072075
*CONN
*I *3884:CLK I *D sky130_fd_sc_hd__dfxtp_2
*I *3780:CLK I *D sky130_fd_sc_hd__dfxtp_2
*I *3856:CLK I *D sky130_fd_sc_hd__dfxtp_2
*I *3876:CLK I *D sky130_fd_sc_hd__dfxtp_2
*I *3772:CLK I *D sky130_fd_sc_hd__dfxtp_2
*I *3992:X O *D sky130_fd_sc_hd__clkbuf_16
*CAP
1 *3884:CLK 0
2 *3780:CLK 0
3 *3856:CLK 0
4 *3876:CLK 0
5 *3772:CLK 0
6 *3992:X 0.000497652
7 *609:68 0.000285725
8 *609:60 0.000509116
9 *609:56 0.000528503
10 *609:40 0.000819894
11 *609:25 0.00145968
12 *609:12 0.000639789
13 *609:10 0.00019254
14 *609:10 *658:10 0.000164291
15 *609:10 *659:12 1.69668e-05
16 *609:25 *752:12 1.73399e-05
17 *609:25 *752:25 8.14473e-05
18 *609:40 *3450:S0 0.000104133
19 *609:40 *3526:A1 0
20 *609:40 *628:22 0
21 *609:40 *631:18 0.000109864
22 *609:40 *648:12 0.000255836
23 *609:40 *684:27 0
24 *609:40 *689:52 9.41987e-05
25 *609:40 *752:25 0.000179651
26 *609:68 *659:12 0.000199701
27 *3772:D *609:25 0.000193273
28 *3876:D *609:25 0.000108993
29 *3876:D *609:40 2.81041e-05
30 *3884:D *609:60 5.73018e-05
31 *21:10 *609:68 3.7122e-06
32 *59:8 *609:10 0.000116314
33 *59:8 *609:68 0.000169674
34 *367:8 *609:40 0
35 *405:14 *609:40 9.82009e-05
36 *418:12 *609:56 0
37 *427:18 *609:25 9.65021e-05
38 *427:18 *609:68 0
39 *549:10 *609:40 0.000179089
*RES
1 *3992:X *609:10 41.8321 
2 *609:10 *609:12 15 
3 *609:12 *3772:CLK 23 
4 *609:12 *609:25 12.2421 
5 *609:25 *3876:CLK 23 
6 *609:25 *609:40 48.415 
7 *609:40 *3856:CLK 23 
8 *3992:X *609:56 42.3086 
9 *609:56 *609:60 18.48 
10 *609:60 *609:68 36.09 
11 *609:68 *3780:CLK 23 
12 *609:60 *3884:CLK 23 
*END

*D_NET *610 0.00788882
*CONN
*I *3840:CLK I *D sky130_fd_sc_hd__dfxtp_2
*I *3848:CLK I *D sky130_fd_sc_hd__dfxtp_2
*I *3807:CLK I *D sky130_fd_sc_hd__dfxtp_2
*I *3804:CLK I *D sky130_fd_sc_hd__dfxtp_2
*I *3812:CLK I *D sky130_fd_sc_hd__dfxtp_2
*I *3993:X O *D sky130_fd_sc_hd__clkbuf_16
*CAP
1 *3840:CLK 3.05548e-05
2 *3848:CLK 0.000263993
3 *3807:CLK 0.000228216
4 *3804:CLK 0
5 *3812:CLK 2.79296e-05
6 *3993:X 0.000500658
7 *610:45 0.00125492
8 *610:23 0.000440855
9 *610:12 0.000658605
10 *610:6 0.00187906
11 *3807:CLK *662:34 1.94812e-05
12 *3807:CLK *681:77 2.60152e-05
13 *3848:CLK *625:82 3.92985e-05
14 *610:6 *768:8 9.5877e-05
15 *610:12 *652:10 5.50049e-05
16 *610:12 *681:77 1.89075e-05
17 *610:23 *856:25 0
18 *610:45 *684:119 0.000152951
19 *3481:A2 *610:12 3.85934e-05
20 *3659:A *3840:CLK 6.17437e-06
21 *3812:D *3812:CLK 5.50049e-05
22 *3840:D *3840:CLK 5.5792e-05
23 *3992:A *610:12 5.42827e-05
24 *3993:A *610:12 2.07355e-05
25 *352:107 *610:12 8.80821e-05
26 *363:18 *3807:CLK 0
27 *375:10 *610:12 9.58714e-05
28 *397:10 *3807:CLK 0.000165926
29 *397:10 *610:12 0.000163352
30 *397:10 *610:23 0.000453797
31 *402:14 *610:12 6.16439e-05
32 *452:66 *3807:CLK 0.000131746
33 *452:66 *610:23 8.11415e-05
34 *466:10 *610:12 8.67978e-05
35 *499:10 *3848:CLK 0.000111106
36 *562:56 *610:6 0.000262059
37 *562:60 *610:6 8.50221e-05
38 *562:62 *610:6 7.65677e-05
39 *562:69 *610:6 4.86662e-05
40 *562:69 *610:12 5.41288e-05
41 *562:75 *610:45 0
*RES
1 *3993:X *610:6 32.6736 
2 *610:6 *610:12 24.1764 
3 *610:12 *3812:CLK 38.6214 
4 *610:12 *610:23 6.13143 
5 *610:23 *3804:CLK 38 
6 *610:23 *3807:CLK 44.0486 
7 *610:6 *610:45 31.3436 
8 *610:45 *3848:CLK 42.6814 
9 *610:45 *3840:CLK 38.6214 
*END

*D_NET *611 0.00625803
*CONN
*I *3805:CLK I *D sky130_fd_sc_hd__dfxtp_2
*I *3796:CLK I *D sky130_fd_sc_hd__dfxtp_2
*I *3788:CLK I *D sky130_fd_sc_hd__dfxtp_2
*I *3799:CLK I *D sky130_fd_sc_hd__dfxtp_2
*I *3791:CLK I *D sky130_fd_sc_hd__dfxtp_2
*I *3994:X O *D sky130_fd_sc_hd__clkbuf_16
*CAP
1 *3805:CLK 3.64085e-05
2 *3796:CLK 0
3 *3788:CLK 0.000339264
4 *3799:CLK 0.000162285
5 *3791:CLK 0.000106788
6 *3994:X 0.000341503
7 *611:49 0.000731968
8 *611:47 0.000518773
9 *611:16 0.000654422
10 *611:10 0.000637192
11 *3788:CLK *612:20 0.000178517
12 *3788:CLK *768:8 2.6081e-05
13 *3791:CLK *686:35 0
14 *3791:CLK *686:83 2.93431e-05
15 *3799:CLK *686:22 7.41184e-05
16 *3799:CLK *686:33 0
17 *3805:CLK *662:34 7.88926e-05
18 *3805:CLK *666:16 7.88926e-05
19 *611:10 *3568:A0 5.31444e-05
20 *611:10 *666:49 0.000114074
21 *611:16 *3476:A1 7.15126e-05
22 *611:16 *3476:A3 9.93202e-05
23 *611:16 *686:33 7.61385e-05
24 *611:47 *645:8 3.49594e-05
25 *611:47 *720:100 1.01436e-05
26 *3544:S *611:47 5.20603e-05
27 *3544:S *611:49 0.000193291
28 *3603:S *3791:CLK 5.73309e-05
29 *3788:D *3788:CLK 8.6426e-05
30 *3799:D *3799:CLK 0.000100069
31 *52:8 *3788:CLK 0
32 *70:12 *3791:CLK 0
33 *78:10 *3791:CLK 0.000138708
34 *78:10 *3799:CLK 0.000263217
35 *360:14 *3788:CLK 0
36 *360:14 *611:49 0
37 *437:10 *3788:CLK 0.000247503
38 *437:10 *611:49 0.000236923
39 *461:57 *611:10 0.000353214
40 *544:106 *3788:CLK 7.55491e-05
*RES
1 *3994:X *611:10 43.51 
2 *611:10 *611:16 34.9093 
3 *611:16 *3791:CLK 40.5271 
4 *611:16 *3799:CLK 42.7643 
5 *3994:X *611:47 39.9057 
6 *611:47 *611:49 8.59643 
7 *611:49 *3788:CLK 45.975 
8 *611:49 *3796:CLK 38 
9 *611:47 *3805:CLK 39.5743 
*END

*D_NET *612 0.00741295
*CONN
*I *3781:CLK I *D sky130_fd_sc_hd__dfxtp_2
*I *3885:CLK I *D sky130_fd_sc_hd__dfxtp_2
*I *3998:A I *D sky130_fd_sc_hd__clkbuf_4
*I *3773:CLK I *D sky130_fd_sc_hd__dfxtp_2
*I *3865:CLK I *D sky130_fd_sc_hd__dfxtp_2
*I *3995:X O *D sky130_fd_sc_hd__clkbuf_16
*CAP
1 *3781:CLK 0.000131323
2 *3885:CLK 3.53572e-05
3 *3998:A 2.34823e-05
4 *3773:CLK 0.000252161
5 *3865:CLK 0
6 *3995:X 4.38702e-05
7 *612:51 0.000328237
8 *612:24 0.000487944
9 *612:20 0.00152307
10 *612:16 0.00139032
11 *612:6 0.000789301
12 *3773:CLK *674:54 0.000167354
13 *3781:CLK *724:32 5.56279e-05
14 *3885:CLK *668:12 1.79329e-05
15 *612:16 *753:12 8.62876e-05
16 *612:16 *753:27 0.000522326
17 *612:16 *761:16 8.4047e-05
18 *612:20 *768:8 5.36725e-05
19 *612:24 *674:54 0.000485212
20 *612:51 *630:16 0
21 *612:51 *753:27 1.46784e-05
22 *3712:A *612:24 0
23 *3788:CLK *612:20 0.000178517
24 *75:10 *3773:CLK 8.09866e-05
25 *75:10 *612:24 0.000177914
26 *144:8 *612:24 3.46181e-05
27 *377:10 *612:24 0
28 *518:8 *612:24 1.14452e-05
29 *544:106 *612:24 7.70391e-05
30 *550:14 *3781:CLK 0.000193873
31 *550:14 *612:51 0.000166353
*RES
1 *3995:X *612:6 23.6214 
2 *612:6 *612:16 38.6379 
3 *612:16 *612:20 24.6736 
4 *612:20 *612:24 27.1179 
5 *612:24 *3865:CLK 23 
6 *612:20 *3773:CLK 42.785 
7 *612:16 *3998:A 23.4971 
8 *612:6 *612:51 19.0186 
9 *612:51 *3885:CLK 38.6214 
10 *612:51 *3781:CLK 41.2314 
*END

*D_NET *613 0.00448585
*CONN
*I *3815:CLK I *D sky130_fd_sc_hd__dfxtp_2
*I *3879:CLK I *D sky130_fd_sc_hd__dfxtp_2
*I *3887:CLK I *D sky130_fd_sc_hd__dfxtp_2
*I *3775:CLK I *D sky130_fd_sc_hd__dfxtp_2
*I *3783:CLK I *D sky130_fd_sc_hd__dfxtp_2
*I *3996:X O *D sky130_fd_sc_hd__clkbuf_16
*CAP
1 *3815:CLK 0
2 *3879:CLK 0
3 *3887:CLK 0
4 *3775:CLK 0
5 *3783:CLK 0
6 *3996:X 0.000606863
7 *613:63 0.000398387
8 *613:44 0.000196856
9 *613:24 0.000132726
10 *613:18 0.000524687
11 *613:12 0.000941428
12 *613:10 0.000352612
13 *613:8 0.000208476
14 *613:8 *3450:S0 6.10813e-05
15 *613:8 *3758:A0 6.32688e-05
16 *613:8 *628:22 0
17 *613:8 *867:8 0.000120644
18 *613:12 *755:10 6.99589e-05
19 *613:24 *645:18 5.04995e-05
20 *613:24 *655:10 7.03766e-05
21 *613:44 *4098:A 2.07484e-05
22 *613:63 *695:66 3.7122e-06
23 *613:63 *720:36 0.000200533
24 *3775:D *613:18 0.00014884
25 *413:120 *613:44 0.000223786
26 *421:10 *613:24 0
27 *421:10 *613:44 0
28 *544:61 *613:63 9.03639e-05
*RES
1 *3996:X *613:8 43.075 
2 *613:8 *613:10 15 
3 *613:10 *613:12 5.38571 
4 *613:12 *613:18 7.45714 
5 *613:18 *613:24 32.9621 
6 *613:24 *3783:CLK 23 
7 *613:18 *3775:CLK 23 
8 *613:12 *613:44 34.205 
9 *613:44 *3887:CLK 23 
10 *613:10 *3879:CLK 23 
11 *3996:X *613:63 30.7886 
12 *613:63 *3815:CLK 23 
*END

*D_NET *614 0.005664
*CONN
*I *3770:CLK I *D sky130_fd_sc_hd__dfxtp_2
*I *3874:CLK I *D sky130_fd_sc_hd__dfxtp_2
*I *3882:CLK I *D sky130_fd_sc_hd__dfxtp_2
*I *3872:CLK I *D sky130_fd_sc_hd__dfxtp_2
*I *3778:CLK I *D sky130_fd_sc_hd__dfxtp_2
*I *3997:X O *D sky130_fd_sc_hd__clkbuf_16
*CAP
1 *3770:CLK 0.000263648
2 *3874:CLK 0
3 *3882:CLK 0.000360503
4 *3872:CLK 0
5 *3778:CLK 0.000569371
6 *3997:X 0.000355382
7 *614:52 0.000453227
8 *614:37 0.00077227
9 *614:21 0.000397734
10 *614:6 0.0011003
11 *3778:CLK *758:10 3.33939e-05
12 *3882:CLK *628:22 0
13 *614:6 *758:10 3.62229e-05
14 *614:21 *628:20 0
15 *614:37 *688:93 8.45065e-06
16 *3506:A *3770:CLK 5.58003e-05
17 *3770:D *3770:CLK 4.69418e-05
18 *3778:D *3778:CLK 1.64354e-05
19 *3874:D *614:52 1.64354e-05
20 *153:10 *3882:CLK 0.000154695
21 *161:12 *3882:CLK 8.1606e-05
22 *161:12 *614:37 5.11301e-05
23 *347:10 *3882:CLK 0
24 *413:108 *614:21 8.14696e-05
25 *544:78 *614:21 0.000187612
26 *544:89 *614:21 0.000621373
*RES
1 *3997:X *614:6 25.0507 
2 *614:6 *3778:CLK 32.2179 
3 *614:6 *614:21 40.7093 
4 *614:21 *3872:CLK 23 
5 *3997:X *614:37 41.7079 
6 *614:37 *3882:CLK 45.8921 
7 *614:37 *614:52 18.0243 
8 *614:52 *3874:CLK 23 
9 *614:52 *3770:CLK 27.4536 
*END

*D_NET *615 0.000305011
*CONN
*I *3898:D I *D sky130_fd_sc_hd__dfrtp_2
*I *3899:HI O *D sky130_fd_sc_hd__conb_1
*CAP
1 *3898:D 2.68158e-05
2 *3899:HI 9.77894e-05
3 *615:8 0.000124605
4 *3898:D *3897:RESET_B 5.58003e-05
*RES
1 *3899:HI *615:8 39.5536 
2 *615:8 *3898:D 38.6214 
*END

*D_NET *616 0.000500629
*CONN
*I *3889:D I *D sky130_fd_sc_hd__dfrtp_2
*I *4055:X O *D sky130_fd_sc_hd__clkdlybuf4s25_1
*CAP
1 *3889:D 0
2 *4055:X 0.000241044
3 *616:10 0.000241044
4 *3889:CLK *616:10 1.85413e-05
*RES
1 *4055:X *616:10 41.8321 
2 *616:10 *3889:D 38 
*END

*D_NET *617 0.00226254
*CONN
*I *3903:RESET_B I *D sky130_fd_sc_hd__dfrtp_2
*I *3901:RESET_B I *D sky130_fd_sc_hd__dfrtp_2
*I *4056:X O *D sky130_fd_sc_hd__clkdlybuf4s25_1
*CAP
1 *3903:RESET_B 0.000334928
2 *3901:RESET_B 0.000371645
3 *4056:X 0.000483331
4 *617:10 0.000520048
5 *3903:RESET_B *4042:A 4.99842e-05
6 *3903:RESET_B *627:10 5.91256e-05
7 *617:10 *713:12 0
8 *617:10 *877:8 0.000113268
9 aempty *617:10 9.86551e-06
10 *37:10 *3903:RESET_B 1.69668e-05
11 *37:10 *617:10 0
12 *566:61 *3903:RESET_B 3.31127e-05
13 *566:74 *3903:RESET_B 0.000270262
*RES
1 *4056:X *617:10 47.2179 
2 *617:10 *3901:RESET_B 15.5489 
3 *3901:RESET_B *3903:RESET_B 37.7886 
*END

*D_NET *618 0.0129108
*CONN
*I *3544:A1 I *D sky130_fd_sc_hd__mux2_2
*I *3580:A1 I *D sky130_fd_sc_hd__mux2_2
*I *3735:A1 I *D sky130_fd_sc_hd__mux2_2
*I *3562:A1 I *D sky130_fd_sc_hd__mux2_2
*I *3597:A0 I *D sky130_fd_sc_hd__mux2_2
*I *3752:A1 I *D sky130_fd_sc_hd__mux2_2
*I *3526:A0 I *D sky130_fd_sc_hd__mux2_2
*I *3509:A1 I *D sky130_fd_sc_hd__mux2_2
*I *4008:X O *D sky130_fd_sc_hd__clkdlybuf4s25_1
*CAP
1 *3544:A1 0
2 *3580:A1 0
3 *3735:A1 0
4 *3562:A1 0.000167518
5 *3597:A0 0
6 *3752:A1 0
7 *3526:A0 0.000471709
8 *3509:A1 0.00035709
9 *4008:X 0
10 *618:83 0.000487494
11 *618:47 0.00116902
12 *618:38 0.0010015
13 *618:25 0.000725835
14 *618:12 0.000693726
15 *618:8 0.000443253
16 *618:6 0.000450567
17 *618:4 0.000577318
18 *3509:A1 *668:18 0.0002618
19 *3526:A0 *3450:A3 8.62876e-05
20 *3526:A0 *3526:A1 0.00044614
21 *3526:A0 *668:26 9.67842e-05
22 *3562:A1 *686:41 0.00024576
23 *3562:A1 *792:16 2.46906e-05
24 *618:6 *3580:A0 2.69729e-05
25 *618:6 *4008:A 0.000176276
26 *618:6 *668:18 0.000454539
27 *618:8 *662:52 0.000320089
28 *618:8 *668:18 0.00112945
29 *618:12 *668:18 4.22275e-05
30 *618:25 *3450:A3 0.000299438
31 *618:25 *648:12 0.000124317
32 *618:25 *686:49 0.00019747
33 *618:47 *3451:A 2.93845e-05
34 *618:47 *686:41 0.000258469
35 *618:47 *864:24 6.69899e-05
36 *618:83 *3544:A0 2.97185e-05
37 *618:83 *4008:A 6.96783e-05
38 *618:83 *668:18 0.000140927
39 *618:83 *674:54 0.000100047
40 *618:83 *686:35 0.000109352
41 *618:83 *729:94 2.51913e-05
42 *3544:S *618:83 5.82853e-05
43 *3581:A *618:8 0.000142678
44 *3597:S *3562:A1 0.000282912
45 *388:18 *618:83 9.27264e-06
46 *399:8 *618:83 5.56356e-05
47 *452:66 *618:6 4.44329e-05
48 *452:66 *618:8 0.000164639
49 *540:10 *3509:A1 0.000104429
50 *544:38 *3526:A0 0.000352547
51 *544:38 *618:25 3.70187e-05
52 *544:61 *618:25 0.000351875
*RES
1 *4008:X *618:4 23 
2 *618:4 *618:6 4.90929 
3 *618:6 *618:8 12.5321 
4 *618:8 *618:12 1.595 
5 *618:12 *3509:A1 30.7886 
6 *618:12 *618:25 24.6529 
7 *618:25 *3526:A0 49.5379 
8 *618:25 *618:38 15 
9 *618:38 *3752:A1 23 
10 *618:38 *618:47 13.9821 
11 *618:47 *3597:A0 23 
12 *618:47 *3562:A1 28.9036 
13 *618:8 *3735:A1 23 
14 *618:6 *3580:A1 23 
15 *618:4 *618:83 38.5136 
16 *618:83 *3544:A1 23 
*END

*D_NET *619 0.0121951
*CONN
*I *3612:A1 I *D sky130_fd_sc_hd__mux2_2
*I *3629:A1 I *D sky130_fd_sc_hd__mux2_2
*I *3681:A1 I *D sky130_fd_sc_hd__mux2_2
*I *3664:A1 I *D sky130_fd_sc_hd__mux2_2
*I *3715:A0 I *D sky130_fd_sc_hd__mux2_2
*I *3698:A1 I *D sky130_fd_sc_hd__mux2_2
*I *3490:A1 I *D sky130_fd_sc_hd__mux2_2
*I *3646:A1 I *D sky130_fd_sc_hd__mux2_2
*I *4009:X O *D sky130_fd_sc_hd__clkdlybuf4s25_1
*CAP
1 *3612:A1 0
2 *3629:A1 0.000557432
3 *3681:A1 0
4 *3664:A1 0
5 *3715:A0 0
6 *3698:A1 0.000263252
7 *3490:A1 0.000240025
8 *3646:A1 0.000329654
9 *4009:X 0.000248875
10 *619:94 0.000904888
11 *619:71 0.000596313
12 *619:55 0.00146037
13 *619:45 0.00110729
14 *619:34 0.000588349
15 *619:21 0.000547034
16 *619:10 0.000760174
17 *619:6 0.000801705
18 *3490:A1 *3490:A0 0.000228903
19 *3490:A1 *672:14 6.17437e-06
20 *3646:A1 *632:14 7.74665e-05
21 *619:6 *632:14 0.000185368
22 *619:6 *632:23 0.000305827
23 *619:10 *632:14 0.00035886
24 *619:21 *743:21 0
25 *619:55 *3664:S 4.21048e-05
26 *619:55 *3681:A0 0.000310162
27 *619:55 *3698:A0 0
28 *619:55 *831:10 6.43363e-05
29 *619:71 *3664:S 0.000322733
30 *619:71 *663:16 8.52094e-06
31 *619:71 *847:12 1.37434e-05
32 *619:94 *743:21 0.000433219
33 *619:94 *799:18 3.48854e-05
34 *3613:A *3629:A1 0.000105227
35 *3629:S *3629:A1 0.000100477
36 *3646:S *3646:A1 2.93845e-05
37 *3681:S *619:55 6.92122e-05
38 *3698:S *3698:A1 9.5877e-05
39 *3763:CLK *619:21 0
40 *3819:D *3646:A1 1.64354e-05
41 *3851:D *619:71 2.94115e-05
42 *42:14 *619:21 0.000148412
43 *42:14 *619:94 0
44 *98:10 *3629:A1 5.58003e-05
45 *98:10 *619:21 1.58805e-05
46 *122:10 *619:55 9.99588e-05
47 *408:14 *619:21 5.86328e-05
48 *470:31 *3698:A1 0.000144057
49 *470:31 *619:45 0.000177677
50 *479:8 *619:21 0
51 *502:8 *619:55 0
52 *502:8 *619:71 5.28551e-05
53 *507:143 *619:55 0
54 *511:12 *619:71 0.000165394
55 *525:14 *619:71 3.27248e-05
*RES
1 *4009:X *619:6 28.3857 
2 *619:6 *619:10 4.45357 
3 *619:10 *3646:A1 26.9564 
4 *619:10 *619:21 19.7229 
5 *619:21 *3490:A1 41.48 
6 *619:21 *619:34 16.2014 
7 *619:34 *3698:A1 26.9564 
8 *619:34 *619:45 3.97714 
9 *619:45 *619:55 46.53 
10 *619:55 *619:71 40.7093 
11 *619:71 *3715:A0 23 
12 *619:55 *3664:A1 23 
13 *619:45 *3681:A1 23 
14 *619:6 *619:94 37.8093 
15 *619:94 *3629:A1 31.41 
16 *619:94 *3612:A1 23 
*END

*D_NET *620 0.01222
*CONN
*I *3733:A1 I *D sky130_fd_sc_hd__mux2_2
*I *3750:A1 I *D sky130_fd_sc_hd__mux2_2
*I *3560:A1 I *D sky130_fd_sc_hd__mux2_2
*I *3542:A1 I *D sky130_fd_sc_hd__mux2_2
*I *3578:A1 I *D sky130_fd_sc_hd__mux2_2
*I *3595:A0 I *D sky130_fd_sc_hd__mux2_2
*I *3524:A0 I *D sky130_fd_sc_hd__mux2_2
*I *3507:A1 I *D sky130_fd_sc_hd__mux2_2
*I *4010:X O *D sky130_fd_sc_hd__clkdlybuf4s25_1
*CAP
1 *3733:A1 0
2 *3750:A1 0.000212683
3 *3560:A1 0
4 *3542:A1 0
5 *3578:A1 0.000723269
6 *3595:A0 2.18824e-05
7 *3524:A0 0
8 *3507:A1 8.39871e-05
9 *4010:X 0.000158832
10 *620:80 0.00030129
11 *620:70 0.000689483
12 *620:46 0.00091281
13 *620:42 0.000833755
14 *620:33 0.000668284
15 *620:22 0.000913477
16 *620:12 0.000840264
17 *620:6 0.000347304
18 *3507:A1 *3507:A0 1.57571e-05
19 *3578:A1 *783:14 3.19411e-05
20 *3750:A1 *3750:A0 0.000260841
21 *3750:A1 *863:8 5.56279e-05
22 *620:6 *3733:A0 0.000131819
23 *620:12 *687:54 0.000136462
24 *620:12 *687:64 5.18573e-05
25 *620:12 *863:14 0.000122479
26 *620:33 *3442:A2 8.72173e-05
27 *620:33 *3442:S0 2.24151e-05
28 *620:33 *751:10 0.000159651
29 *620:42 *3466:S0 3.673e-05
30 *620:42 *783:27 8.36198e-05
31 *620:42 *791:8 1.39826e-05
32 *620:46 *3595:A1 4.08224e-05
33 *620:70 *3466:S0 0.000221513
34 *620:80 *3443:A0 0.000367578
35 *620:80 *3443:S0 0.00049144
36 *620:80 *3443:S1 0.000100061
37 *620:80 *3560:A0 0.000226087
38 *620:80 *688:142 0.000131088
39 *620:80 *775:10 1.13812e-05
40 *3507:S *3507:A1 5.3304e-05
41 *3507:S *620:22 1.24376e-05
42 *3560:S *620:70 9.77405e-05
43 *3579:A *3578:A1 7.07029e-05
44 *3787:CLK *620:33 0.000261257
45 *3787:CLK *620:42 0.000171906
46 *3875:CLK *620:22 3.47781e-05
47 *3883:CLK *620:22 5.3304e-05
48 *82:10 *3578:A1 6.89359e-06
49 *413:54 *620:22 4.08664e-05
50 *413:54 *620:33 3.47781e-05
51 *413:69 *620:33 0.000248269
52 *413:69 *620:42 0.000315664
53 *413:69 *620:70 0.000104295
54 *422:29 *620:22 0.000138718
55 *442:24 *620:80 1.16455e-05
56 *442:37 *620:80 1.51481e-05
57 *446:10 *620:70 1.84831e-05
58 *452:111 *3578:A1 1.57732e-05
59 *465:14 *3578:A1 5.58003e-05
60 *535:26 *620:42 0.000100218
61 *535:36 *620:70 0.000138859
62 *544:152 *3750:A1 6.06161e-05
63 *548:10 *3750:A1 7.74518e-05
64 *548:10 *620:22 7.19838e-05
65 *601:8 *620:33 0.000138708
66 *601:23 *620:33 0.000260986
67 *601:52 *620:22 0.000101708
*RES
1 *4010:X *620:6 25.5271 
2 *620:6 *620:12 35.075 
3 *620:12 *620:22 36.96 
4 *620:22 *3507:A1 24.0979 
5 *620:22 *620:33 25.005 
6 *620:33 *3524:A0 38 
7 *620:33 *620:42 8.59643 
8 *620:42 *620:46 17.5271 
9 *620:46 *3595:A0 23.4971 
10 *620:46 *3578:A1 33.295 
11 *620:42 *620:70 22.8714 
12 *620:70 *620:80 40.5021 
13 *620:80 *3542:A1 23 
14 *620:70 *3560:A1 23 
15 *620:12 *3750:A1 28.4064 
16 *620:6 *3733:A1 23 
*END

*D_NET *621 0.0124561
*CONN
*I *3713:A0 I *D sky130_fd_sc_hd__mux2_2
*I *3679:A1 I *D sky130_fd_sc_hd__mux2_2
*I *3696:A1 I *D sky130_fd_sc_hd__mux2_2
*I *3662:A1 I *D sky130_fd_sc_hd__mux2_2
*I *3610:A1 I *D sky130_fd_sc_hd__mux2_2
*I *3644:A1 I *D sky130_fd_sc_hd__mux2_2
*I *3488:A1 I *D sky130_fd_sc_hd__mux2_2
*I *3627:A1 I *D sky130_fd_sc_hd__mux2_2
*I *4011:X O *D sky130_fd_sc_hd__clkdlybuf4s25_1
*CAP
1 *3713:A0 0.000353212
2 *3679:A1 0.000707929
3 *3696:A1 9.33994e-05
4 *3662:A1 0
5 *3610:A1 7.59616e-05
6 *3644:A1 0.000273502
7 *3488:A1 0.000495113
8 *3627:A1 0.000540578
9 *4011:X 6.45114e-05
10 *621:96 0.00118578
11 *621:78 0.000579476
12 *621:41 0.0010481
13 *621:37 0.000609546
14 *621:22 0.00114076
15 *621:18 0.00100706
16 *621:16 0.000309864
17 *621:10 0.000324114
18 *3488:A1 *3488:A0 0
19 *3610:A1 *3610:A0 2.30292e-05
20 *3627:A1 *3627:A0 0.000101649
21 *3644:A1 *664:48 0.000159247
22 *3644:A1 *742:8 0.000100477
23 *3679:A1 *3679:A0 0.000360963
24 *3713:A0 *684:48 1.50326e-05
25 *621:10 *3437:A2 1.05235e-05
26 *621:16 *3437:A2 2.45964e-05
27 *621:16 *838:10 2.84912e-05
28 *621:18 *684:50 0
29 *621:22 *3438:S1 0
30 *621:22 *684:50 0
31 *621:37 *3610:S 4.00259e-06
32 *621:41 *3438:S0 2.52012e-05
33 *621:41 *664:42 6.79988e-05
34 *3439:S *621:78 0.000274078
35 *3644:S *621:22 0.000118174
36 *3696:S *3696:A1 1.21972e-05
37 *97:10 *3644:A1 5.5792e-05
38 *145:10 *3713:A0 1.16455e-05
39 *145:10 *621:10 1.23172e-05
40 *145:10 *621:16 7.17297e-05
41 *145:10 *621:96 0.000104086
42 *365:12 *621:41 0
43 *365:12 *621:78 0.000137651
44 *366:8 *621:78 7.4416e-05
45 *366:16 *3713:A0 6.17437e-06
46 *407:10 *3488:A1 5.72217e-05
47 *473:10 *621:37 1.94812e-05
48 *473:10 *621:41 0
49 *488:121 *3610:A1 2.81406e-06
50 *488:121 *3627:A1 1.05235e-05
51 *488:121 *621:37 9.5911e-05
52 *488:138 *3696:A1 5.3304e-05
53 *488:138 *621:16 2.46345e-05
54 *488:138 *621:18 0.000130424
55 *488:138 *621:22 0.000598625
56 *501:10 *621:16 0
57 *501:10 *621:18 0
58 *501:10 *621:78 0.000223518
59 *510:10 *3679:A1 9.08709e-06
60 *528:10 *3713:A0 0.000326305
61 *528:10 *621:16 6.10745e-05
62 *528:10 *621:96 0.000234785
*RES
1 *4011:X *621:10 38.9425 
2 *621:10 *621:16 3.5525 
3 *621:16 *621:18 1.90571 
4 *621:18 *621:22 24.3007 
5 *621:22 *3627:A1 31.41 
6 *621:22 *621:37 4.93 
7 *621:37 *621:41 20.4271 
8 *621:41 *3488:A1 47.2593 
9 *621:41 *3644:A1 44.0279 
10 *621:37 *3610:A1 24.0979 
11 *621:18 *621:78 28.0293 
12 *621:78 *3662:A1 23 
13 *621:16 *3696:A1 39.0979 
14 *621:10 *621:96 3.75964 
15 *621:96 *3679:A1 47.1971 
16 *621:96 *3713:A0 45.4986 
*END

*D_NET *622 0.012265
*CONN
*I *3540:A1 I *D sky130_fd_sc_hd__mux2_2
*I *3558:A1 I *D sky130_fd_sc_hd__mux2_2
*I *3593:A0 I *D sky130_fd_sc_hd__mux2_2
*I *3576:A1 I *D sky130_fd_sc_hd__mux2_2
*I *3731:A1 I *D sky130_fd_sc_hd__mux2_2
*I *3505:A1 I *D sky130_fd_sc_hd__mux2_2
*I *3522:A0 I *D sky130_fd_sc_hd__mux2_2
*I *3748:A1 I *D sky130_fd_sc_hd__mux2_2
*I *4012:X O *D sky130_fd_sc_hd__clkdlybuf4s25_1
*CAP
1 *3540:A1 0.000486207
2 *3558:A1 0.000355277
3 *3593:A0 0
4 *3576:A1 0
5 *3731:A1 0
6 *3505:A1 0
7 *3522:A0 4.93533e-05
8 *3748:A1 0
9 *4012:X 0.000461677
10 *622:84 0.000841483
11 *622:82 0.000500318
12 *622:63 0.000765043
13 *622:49 0.000171476
14 *622:43 0.000918634
15 *622:36 0.000305964
16 *622:23 0.000516347
17 *622:14 0.000598475
18 *622:12 0.000919879
19 *622:10 0.000461677
20 *3522:A0 *3522:S 6.17437e-06
21 *3540:A1 *766:31 0
22 *3558:A1 *774:29 0
23 *622:10 *628:20 0
24 *622:14 *3748:A0 0.000313785
25 *622:23 *3522:A1 7.80231e-05
26 *622:23 *3522:S 5.40337e-05
27 *622:36 *668:51 0.000588227
28 *622:49 *662:82 0.000536538
29 *622:63 *782:27 1.03142e-05
30 *622:82 *3435:A3 0.000283068
31 *622:82 *3435:S1 2.46906e-05
32 *622:82 *688:85 1.31414e-05
33 *622:82 *688:93 1.85903e-05
34 *622:82 *699:93 0
35 *622:82 *766:8 0.000130659
36 *622:82 *782:27 4.05481e-05
37 *622:82 *790:12 5.3304e-05
38 *3436:A1 *622:82 0.000135037
39 *3748:S *622:14 1.47795e-05
40 *3748:S *622:23 5.5792e-05
41 *3810:CLK *3558:A1 0.000324878
42 *73:10 *3540:A1 0.000375529
43 *161:12 *622:10 5.93605e-05
44 *347:10 *622:10 0
45 *362:10 *3540:A1 0
46 *413:91 *3540:A1 0.000148031
47 *445:10 *3558:A1 9.09342e-06
48 *445:10 *622:82 2.75733e-06
49 *452:75 *622:49 0.000533254
50 *452:81 *622:43 9.66585e-05
51 *452:81 *622:63 5.3304e-05
52 *461:88 *622:82 7.48608e-05
53 *464:10 *622:63 3.19411e-05
54 *464:10 *622:82 1.60336e-05
55 *544:78 *622:14 9.8592e-06
56 *578:10 *3540:A1 0.00053063
57 *578:10 *3558:A1 0.000265473
58 *578:10 *622:82 2.4867e-05
*RES
1 *4012:X *622:10 44.9186 
2 *622:10 *622:12 15 
3 *622:12 *622:14 5.86214 
4 *622:14 *3748:A1 23 
5 *622:14 *622:23 3.85286 
6 *622:23 *3522:A0 23.6214 
7 *622:23 *622:36 37.8921 
8 *622:36 *3505:A1 23 
9 *622:12 *622:43 6.33857 
10 *622:43 *622:49 37.1879 
11 *622:49 *3731:A1 23 
12 *622:43 *3576:A1 23 
13 *622:43 *622:63 3.97714 
14 *622:63 *3593:A0 23 
15 *622:63 *622:82 40.6886 
16 *622:82 *622:84 15 
17 *622:84 *3558:A1 45.6229 
18 *622:84 *3540:A1 48.5436 
*END

*D_NET *623 0.00904954
*CONN
*I *3660:A1 I *D sky130_fd_sc_hd__mux2_2
*I *3711:A0 I *D sky130_fd_sc_hd__mux2_2
*I *3694:A1 I *D sky130_fd_sc_hd__mux2_2
*I *3677:A1 I *D sky130_fd_sc_hd__mux2_2
*I *3608:A1 I *D sky130_fd_sc_hd__mux2_2
*I *3486:A1 I *D sky130_fd_sc_hd__mux2_2
*I *3642:A1 I *D sky130_fd_sc_hd__mux2_2
*I *3625:A1 I *D sky130_fd_sc_hd__mux2_2
*I *4013:X O *D sky130_fd_sc_hd__clkdlybuf4s25_1
*CAP
1 *3660:A1 0
2 *3711:A0 0
3 *3694:A1 0
4 *3677:A1 0
5 *3608:A1 0
6 *3486:A1 0
7 *3642:A1 0
8 *3625:A1 0.000378914
9 *4013:X 0.000507297
10 *623:77 0.000219507
11 *623:71 0.000387774
12 *623:62 0.000365852
13 *623:58 0.000197585
14 *623:28 0.000676614
15 *623:22 0.000351442
16 *623:16 0.000363081
17 *623:10 0.000605047
18 *623:8 0.000803006
19 *3625:A1 *3625:A0 0.00010018
20 *3625:A1 *665:26 0
21 *3625:A1 *685:40 9.84794e-05
22 *3625:A1 *691:56 0.000112322
23 *623:8 *4013:A 2.30292e-05
24 *623:8 *4024:A 2.81066e-05
25 *623:10 *3430:S0 3.93962e-05
26 *623:10 *4024:A 7.90464e-05
27 *623:10 *633:35 0.000124863
28 *623:10 *689:10 7.03663e-05
29 *623:10 *821:16 0.000373027
30 *623:16 *3430:S0 0.000178085
31 *623:16 *3608:A0 8.72173e-05
32 *623:16 *633:23 0.000142814
33 *623:16 *633:35 9.42582e-05
34 *623:16 *669:14 4.08664e-05
35 *623:16 *669:24 5.3304e-05
36 *623:22 *633:23 0.000111852
37 *623:28 *691:56 1.69668e-05
38 *623:71 *3711:A1 0.000120344
39 *623:77 *837:10 3.6608e-05
40 *3486:S *623:22 3.47781e-05
41 *3642:S *623:28 0.000227497
42 *3712:A *623:77 0.000297179
43 *112:8 *623:28 4.6318e-06
44 *404:40 *623:22 8.62876e-05
45 *404:57 *623:28 0.00048023
46 *488:27 *623:28 0.000481937
47 *488:44 *623:28 2.55642e-05
48 *490:10 *623:28 0
49 *498:38 *623:62 6.63159e-06
50 *498:38 *623:71 0.000274955
51 *507:42 *623:62 0.000135455
52 *507:42 *623:71 1.12796e-05
53 *525:45 *623:71 0.000125489
54 *592:59 *3625:A1 0
55 *592:59 *623:28 0
56 *593:45 *3625:A1 7.03766e-05
*RES
1 *4013:X *623:8 44.3386 
2 *623:8 *623:10 8.24429 
3 *623:10 *623:16 22.2293 
4 *623:16 *623:22 31.5536 
5 *623:22 *623:28 24.8807 
6 *623:28 *3625:A1 46.6379 
7 *623:28 *3642:A1 38 
8 *623:22 *3486:A1 23 
9 *623:16 *3608:A1 23 
10 *623:10 *623:58 15 
11 *623:58 *623:62 3.02429 
12 *623:62 *3677:A1 23 
13 *623:62 *623:71 6.235 
14 *623:71 *623:77 35.075 
15 *623:77 *3694:A1 23 
16 *623:71 *3711:A0 23 
17 *623:58 *3660:A1 23 
*END

*D_NET *624 0.012763
*CONN
*I *3574:A1 I *D sky130_fd_sc_hd__mux2_2
*I *3556:A1 I *D sky130_fd_sc_hd__mux2_2
*I *3503:A1 I *D sky130_fd_sc_hd__mux2_2
*I *3520:A0 I *D sky130_fd_sc_hd__mux2_2
*I *3729:A1 I *D sky130_fd_sc_hd__mux2_2
*I *3746:A1 I *D sky130_fd_sc_hd__mux2_2
*I *3538:A1 I *D sky130_fd_sc_hd__mux2_2
*I *3591:A0 I *D sky130_fd_sc_hd__mux2_2
*I *4014:X O *D sky130_fd_sc_hd__clkdlybuf4s25_1
*CAP
1 *3574:A1 0.000216394
2 *3556:A1 0
3 *3503:A1 0
4 *3520:A0 3.61248e-05
5 *3729:A1 0
6 *3746:A1 0.000298236
7 *3538:A1 0.000406124
8 *3591:A0 0
9 *4014:X 0.000850296
10 *624:96 0.000313399
11 *624:73 0.000427617
12 *624:50 0.000823634
13 *624:48 0.000445134
14 *624:42 0.00069991
15 *624:21 0.000915869
16 *624:14 0.000411503
17 *624:8 0.000387446
18 *624:6 0.000850296
19 *3520:A0 *3435:S0 2.95526e-05
20 *3538:A1 *3538:A0 5.50049e-05
21 *3574:A1 *3574:A0 0.000271821
22 *3746:A1 *3746:A0 0.00012464
23 *624:14 *3574:A0 2.37243e-05
24 *624:14 *3591:A1 0.000156844
25 *624:14 *686:110 3.97399e-05
26 *624:14 *789:10 0.00015822
27 *624:21 *3591:A1 5.50106e-05
28 *624:42 *3426:S0 0
29 *624:42 *686:152 0.000139647
30 *624:42 *699:68 0.000139657
31 *624:73 *699:52 0.000429922
32 *624:96 *3574:A0 4.35949e-05
33 *3591:S *624:14 5.3304e-05
34 *3591:S *624:21 0.000139352
35 *3810:CLK *3746:A1 1.24376e-05
36 *3813:CLK *3746:A1 4.41821e-06
37 *3971:A *624:73 5.58003e-05
38 *72:8 *624:14 3.36258e-05
39 *72:8 *624:96 2.99696e-05
40 *88:8 *624:6 0.000231278
41 *160:12 *624:42 0.000215801
42 *413:85 *624:42 2.02872e-05
43 *413:91 *624:42 2.93747e-05
44 *413:91 *624:48 9.91895e-05
45 *415:8 *624:48 0.000372297
46 *422:45 *624:73 0.000910409
47 *432:66 *3746:A1 7.12495e-05
48 *432:66 *624:48 4.16051e-06
49 *432:66 *624:50 4.03002e-05
50 *463:10 *624:14 0.000588765
51 *535:36 *624:73 3.85196e-05
52 *544:116 *3746:A1 6.74169e-05
53 *546:8 *3746:A1 1.84831e-05
54 *546:12 *624:42 3.93526e-05
55 *588:20 *624:73 5.14826e-05
56 *588:22 *3746:A1 0.00011102
57 *588:22 *624:50 2.501e-05
58 *588:42 *624:48 0.000130809
59 *588:42 *624:50 4.60997e-05
60 *588:57 *624:14 0.000247678
61 *588:57 *624:42 0
62 *588:57 *624:48 6.32688e-05
63 *589:36 *624:6 0.000262473
*RES
1 *4014:X *624:6 35.0557 
2 *624:6 *624:8 15 
3 *624:8 *624:14 25.2743 
4 *624:14 *3591:A0 23 
5 *624:14 *624:21 2.52714 
6 *624:21 *3538:A1 29.3593 
7 *624:21 *624:42 38.3479 
8 *624:42 *624:48 22.4779 
9 *624:48 *624:50 2.25786 
10 *624:50 *3746:A1 45.4571 
11 *624:50 *624:73 27.5529 
12 *624:73 *3729:A1 23 
13 *624:48 *3520:A0 38.6214 
14 *624:42 *3503:A1 23 
15 *624:8 *624:96 2.175 
16 *624:96 *3556:A1 38 
17 *624:96 *3574:A1 42.64 
*END

*D_NET *625 0.0112071
*CONN
*I *3675:A1 I *D sky130_fd_sc_hd__mux2_2
*I *3658:A1 I *D sky130_fd_sc_hd__mux2_2
*I *3709:A0 I *D sky130_fd_sc_hd__mux2_2
*I *3692:A1 I *D sky130_fd_sc_hd__mux2_2
*I *3484:A1 I *D sky130_fd_sc_hd__mux2_2
*I *3606:A1 I *D sky130_fd_sc_hd__mux2_2
*I *3640:A1 I *D sky130_fd_sc_hd__mux2_2
*I *3623:A1 I *D sky130_fd_sc_hd__mux2_2
*I *4015:X O *D sky130_fd_sc_hd__clkdlybuf4s25_1
*CAP
1 *3675:A1 0
2 *3658:A1 0.000264891
3 *3709:A0 0
4 *3692:A1 0
5 *3484:A1 0.000101498
6 *3606:A1 0
7 *3640:A1 0.000305949
8 *3623:A1 0.000107072
9 *4015:X 0
10 *625:99 0.0006116
11 *625:82 0.00131264
12 *625:65 0.000745236
13 *625:58 0.00029336
14 *625:50 0.000917863
15 *625:35 0.00103716
16 *625:19 0.00108747
17 *625:4 0.000268353
18 *3484:A1 *3484:A0 0.000108681
19 *3484:A1 *665:36 5.50049e-05
20 *3623:A1 *3623:A0 7.87147e-05
21 *3640:A1 *3640:A0 0.000316804
22 *625:19 *636:17 8.4047e-05
23 *625:19 *665:36 4.75206e-05
24 *625:19 *669:32 8.4047e-05
25 *625:35 *669:24 0.00082735
26 *625:50 *3420:A0 0.000185095
27 *625:50 *3484:A0 0.000139647
28 *625:58 *684:27 0.000135753
29 *625:82 *3709:A1 5.82853e-05
30 *625:82 *828:10 8.43768e-05
31 *625:99 *3675:A0 0
32 *625:99 *684:21 0.000366658
33 *625:99 *690:10 0
34 *625:99 *828:10 0
35 *3422:A0 *625:99 4.84129e-06
36 *3640:S *3640:A1 6.62982e-06
37 *3640:S *625:35 2.92911e-06
38 *3658:S *3658:A1 0.000144494
39 *3709:S *625:82 0.000512608
40 *3848:CLK *625:82 3.92985e-05
41 *3848:D *625:82 1.64354e-05
42 *3991:A *625:65 0.000138859
43 *136:8 *625:99 0
44 *366:18 *625:50 4.01468e-05
45 *401:12 *3484:A1 5.3304e-05
46 *405:14 *3484:A1 0
47 *405:14 *625:50 0
48 *405:14 *625:58 0.000133426
49 *498:38 *3658:A1 0.00013449
50 *498:38 *625:82 2.64616e-05
51 *498:38 *625:99 5.15635e-05
52 *507:93 *625:99 0.000174615
53 *518:8 *625:99 0
54 *525:58 *3658:A1 3.6608e-05
55 *526:10 *625:65 1.84831e-05
56 *608:67 *625:58 4.68426e-05
*RES
1 *4015:X *625:4 23 
2 *625:4 *3623:A1 24.5743 
3 *625:4 *625:19 32.7757 
4 *625:19 *3640:A1 27.4329 
5 *625:19 *3606:A1 23 
6 *625:19 *625:35 24.6736 
7 *625:35 *3484:A1 40.175 
8 *625:35 *625:50 21.4836 
9 *625:50 *625:58 37.1464 
10 *625:58 *3692:A1 23 
11 *625:50 *625:65 5.38571 
12 *625:65 *3709:A0 23 
13 *625:65 *625:82 26.9107 
14 *625:82 *3658:A1 42.4329 
15 *625:82 *625:99 28.2571 
16 *625:99 *3675:A1 23 
*END

*D_NET *626 0.0109819
*CONN
*I *3589:A0 I *D sky130_fd_sc_hd__mux2_2
*I *3572:A1 I *D sky130_fd_sc_hd__mux2_2
*I *3744:A1 I *D sky130_fd_sc_hd__mux2_2
*I *3536:A1 I *D sky130_fd_sc_hd__mux2_2
*I *3554:A1 I *D sky130_fd_sc_hd__mux2_2
*I *3727:A1 I *D sky130_fd_sc_hd__mux2_2
*I *3518:A0 I *D sky130_fd_sc_hd__mux2_2
*I *3501:A1 I *D sky130_fd_sc_hd__mux2_2
*I *4016:X O *D sky130_fd_sc_hd__clkdlybuf4s25_1
*CAP
1 *3589:A0 0.00027856
2 *3572:A1 0
3 *3744:A1 0.00033111
4 *3536:A1 0
5 *3554:A1 0
6 *3727:A1 7.42755e-05
7 *3518:A0 0.000146087
8 *3501:A1 0.000190123
9 *4016:X 9.01176e-05
10 *626:92 0.000703292
11 *626:77 0.000940086
12 *626:68 0.000218953
13 *626:55 0.000372172
14 *626:51 0.00136821
15 *626:18 0.000862593
16 *626:14 0.000658473
17 *626:10 0.00157161
18 *626:8 0.000573165
19 *3501:A1 *3501:A0 0.000100069
20 *3501:A1 *668:72 9.97184e-05
21 *3518:A0 *3416:A2 0
22 *3518:A0 *668:72 0.000129412
23 *3589:A0 *3572:A0 1.35714e-05
24 *626:10 *3416:A0 0.00019747
25 *626:10 *628:20 0
26 *626:10 *860:10 0.00010349
27 *626:14 *3416:A0 8.11552e-05
28 *626:14 *628:20 0
29 *626:14 *852:14 3.70187e-05
30 *626:18 *748:8 1.94693e-05
31 *626:51 *662:82 9.06851e-05
32 *626:55 *3554:A0 6.48049e-05
33 *626:55 *772:10 1.01436e-05
34 *626:68 *666:72 0.000191255
35 *626:68 *686:120 9.03964e-06
36 *626:68 *772:10 0
37 *626:77 *628:20 0
38 *3418:A1 *626:51 0.000105934
39 *3572:S *3589:A0 5.82853e-05
40 *3572:S *626:92 0.000100486
41 *3591:S *626:51 0.000352735
42 *3728:A *626:18 0.00014196
43 *3744:S *3744:A1 5.58003e-05
44 *79:8 *626:10 0
45 *151:10 *626:18 5.50049e-05
46 *347:8 *626:51 0.00014196
47 *453:10 *626:92 0.000136428
48 *461:108 *626:51 0.000137651
49 *462:10 *3589:A0 1.24362e-05
50 *584:60 *626:77 0
51 *585:16 *626:51 0.000142585
52 *585:16 *626:55 1.44895e-05
*RES
1 *4016:X *626:8 39.0979 
2 *626:8 *626:10 6.83571 
3 *626:10 *626:14 16.5536 
4 *626:14 *626:18 23.7207 
5 *626:18 *3501:A1 41.1279 
6 *626:18 *3518:A0 41.6664 
7 *626:14 *3727:A1 24.5743 
8 *626:10 *626:51 48.2493 
9 *626:51 *626:55 17.61 
10 *626:55 *3554:A1 23 
11 *626:55 *626:68 34.0807 
12 *626:68 *3536:A1 23 
13 *626:8 *626:77 17.9621 
14 *626:77 *3744:A1 27.4329 
15 *626:77 *626:92 7.95429 
16 *626:92 *3572:A1 23 
17 *626:92 *3589:A0 26.9771 
*END

*D_NET *627 0.000684301
*CONN
*I *3901:D I *D sky130_fd_sc_hd__dfrtp_2
*I *3902:HI O *D sky130_fd_sc_hd__conb_1
*CAP
1 *3901:D 1.47919e-05
2 *3902:HI 0.000264384
3 *627:10 0.000279176
4 *627:10 *3891:RESET_B 5.5792e-05
5 *3901:CLK *3901:D 1.10317e-05
6 *3903:RESET_B *627:10 5.91256e-05
*RES
1 *3902:HI *627:10 42.64 
2 *627:10 *3901:D 38.2123 
*END

*D_NET *628 0.0135737
*CONN
*I *4016:A I *D sky130_fd_sc_hd__clkdlybuf4s25_1
*I *4015:A I *D sky130_fd_sc_hd__clkdlybuf4s25_1
*I *4057:X O *D sky130_fd_sc_hd__clkdlybuf4s25_1
*CAP
1 *4016:A 0
2 *4015:A 3.38811e-05
3 *4057:X 0.000430655
4 *628:22 0.00239112
5 *628:20 0.00355356
6 *628:14 0.0013471
7 *628:10 0.000581438
8 *4015:A *665:36 5.50049e-05
9 *628:14 *860:10 3.71251e-05
10 *628:14 *860:28 5.76359e-05
11 *628:20 *3434:S1 0.000104837
12 *628:20 *3748:A0 2.36418e-05
13 *628:20 *686:134 5.561e-05
14 *628:20 *852:14 0
15 *628:20 *860:10 0.00015965
16 *628:22 *3434:S1 1.42282e-05
17 *628:22 *3450:S0 0.000621727
18 *628:22 *3479:S0 0.000404047
19 *628:22 *3606:A0 8.93429e-05
20 *628:22 *3758:A0 0
21 *628:22 *631:18 0.00013127
22 *628:22 *636:17 0
23 *628:22 *668:26 0.000495454
24 *628:22 *668:41 0.000274342
25 *628:22 *669:32 8.16149e-05
26 *628:22 *689:52 0
27 *628:22 *758:10 0.00032481
28 *628:22 *796:10 1.94812e-05
29 *628:22 *862:10 0
30 *3745:A *628:10 0.000102389
31 *3882:CLK *628:22 0
32 *135:8 *628:22 0.000115637
33 *151:10 *628:20 0.000111852
34 *158:10 *628:22 0
35 *161:12 *628:22 0
36 *540:10 *628:22 0.000165648
37 *544:78 *628:20 6.48014e-05
38 *544:78 *628:22 0.000474551
39 *544:89 *628:10 0.000166233
40 *544:89 *628:20 0
41 *549:10 *628:22 0.000561356
42 *552:10 *628:22 0.000476768
43 *608:51 *628:22 4.68488e-05
44 *609:40 *628:22 0
45 *613:8 *628:22 0
46 *614:21 *628:20 0
47 *622:10 *628:20 0
48 *626:10 *628:20 0
49 *626:14 *628:20 0
50 *626:77 *628:20 0
*RES
1 *4057:X *628:10 45.6436 
2 *628:10 *628:14 18.0036 
3 *628:14 *628:20 38.8318 
4 *628:20 *628:22 61.5939 
5 *628:22 *4015:A 38.6214 
6 *628:14 *4016:A 23 
*END

*D_NET *629 0.00475082
*CONN
*I *3941:RESET_B I *D sky130_fd_sc_hd__dfrtp_2
*I *4054:X O *D sky130_fd_sc_hd__dlygate4sd3_1
*CAP
1 *3941:RESET_B 0.000990525
2 *4054:X 0.000588653
3 *629:10 0.00157918
4 *3941:RESET_B *3941:D 0.000859164
5 *3941:RESET_B *728:8 8.60951e-05
6 *3941:RESET_B *728:21 9.67842e-05
7 *3941:RESET_B *733:37 0.000179618
8 *629:10 *733:10 0
9 *3375:B *629:10 0
10 *176:35 *629:10 0.0003708
11 *296:18 *629:10 0
*RES
1 *4054:X *629:10 48.7507 
2 *629:10 *3941:RESET_B 32.5968 
*END

*D_NET *630 0.0109036
*CONN
*I *4014:A I *D sky130_fd_sc_hd__clkdlybuf4s25_1
*I *4013:A I *D sky130_fd_sc_hd__clkdlybuf4s25_1
*I *4058:X O *D sky130_fd_sc_hd__clkdlybuf4s25_1
*CAP
1 *4014:A 0
2 *4013:A 2.81847e-05
3 *4058:X 0.000334664
4 *630:16 0.00147697
5 *630:14 0.002633
6 *630:10 0.00151888
7 *630:10 *765:10 3.21627e-05
8 *630:14 *3428:S 0.000160005
9 *630:14 *686:16 0
10 *630:14 *699:72 0.000491104
11 *630:16 *3599:A0 0
12 *630:16 *686:16 0
13 *630:16 *697:72 0.00150476
14 *630:16 *724:87 0
15 *630:16 *724:115 0
16 *630:16 *753:27 0
17 *630:16 *785:28 0.000299187
18 *630:16 *793:22 6.28591e-05
19 *3754:S *630:16 0
20 *3789:CLK *630:14 2.39985e-05
21 *3789:CLK *630:16 0.000230067
22 *3971:A *630:14 0
23 *60:8 *630:16 0.000115526
24 *76:8 *630:14 8.52094e-06
25 *76:8 *630:16 0.000142243
26 *355:14 *630:14 0.000391167
27 *358:14 *630:16 0.000111694
28 *388:12 *630:16 3.34859e-05
29 *388:16 *630:16 0.000116119
30 *413:24 *630:16 9.39159e-05
31 *452:35 *630:16 0
32 *452:138 *630:10 5.45541e-05
33 *537:8 *630:14 0.000478026
34 *544:32 *630:16 0
35 *550:14 *630:16 0
36 *562:162 *630:14 7.84105e-05
37 *562:176 *630:14 0.000396649
38 *586:47 *630:14 6.44251e-05
39 *589:10 *630:14 0
40 *589:32 *630:14 0
41 *612:51 *630:16 0
42 *623:8 *4013:A 2.30292e-05
*RES
1 *4058:X *630:10 43.8207 
2 *630:10 *630:14 31.6825 
3 *630:14 *630:16 36.8404 
4 *630:16 *4013:A 38.6214 
5 *630:10 *4014:A 38 
*END

*D_NET *631 0.0173658
*CONN
*I *4012:A I *D sky130_fd_sc_hd__clkdlybuf4s25_1
*I *4011:A I *D sky130_fd_sc_hd__clkdlybuf4s25_1
*I *4059:X O *D sky130_fd_sc_hd__clkdlybuf4s25_1
*CAP
1 *4012:A 0
2 *4011:A 0
3 *4059:X 0.00024888
4 *631:28 0.000304893
5 *631:18 0.00803
6 *631:6 0.00797399
7 *631:18 *3748:A0 0.00012381
8 *631:18 *668:72 1.70886e-05
9 *631:18 *689:52 0.000129592
10 *631:28 *664:61 0
11 *39:10 *631:18 0.00011093
12 *401:12 *631:18 0.000173513
13 *413:108 *631:18 1.19317e-05
14 *583:10 *631:28 0
15 *583:12 *631:28 0
16 *609:40 *631:18 0.000109864
17 *628:22 *631:18 0.00013127
*RES
1 *4059:X *631:6 26.9564 
2 *631:6 *631:18 48.2175 
3 *631:18 *631:28 35.6457 
4 *631:28 *4011:A 23 
5 *631:6 *4012:A 23 
*END

*D_NET *632 0.0167126
*CONN
*I *4010:A I *D sky130_fd_sc_hd__clkdlybuf4s25_1
*I *4009:A I *D sky130_fd_sc_hd__clkdlybuf4s25_1
*I *4060:X O *D sky130_fd_sc_hd__clkdlybuf4s25_1
*CAP
1 *4010:A 0.000362874
2 *4009:A 0
3 *4060:X 0.000457943
4 *632:25 0.00240083
5 *632:23 0.00225428
6 *632:14 0.000545488
7 *632:10 0.00078711
8 *632:25 *3252:A2 1.86973e-05
9 *632:25 *3322:A1 0.000471344
10 *632:25 *3482:C 7.36654e-05
11 *632:25 *637:20 8.83237e-05
12 *632:25 *637:22 4.38375e-05
13 *632:25 *683:59 0.000246435
14 *632:25 *726:23 0.00122727
15 *632:25 *879:10 0
16 *632:25 *905:25 0.00141766
17 *3295:A2 *632:25 0
18 *3447:S *632:25 0.000380939
19 *3629:S *632:10 0.00020819
20 *3646:A1 *632:14 7.74665e-05
21 *3763:CLK *632:10 1.14452e-05
22 *3819:D *632:14 1.64354e-05
23 *173:10 *632:25 0.00315679
24 *194:10 *632:25 0
25 *200:10 *632:25 0
26 *253:14 *632:25 1.80023e-05
27 *352:10 *4010:A 0.000100947
28 *372:12 *632:25 0.000204851
29 *408:14 *632:10 0.000802554
30 *479:8 *632:10 6.34648e-06
31 *568:14 *632:25 0.000319514
32 *595:21 *632:10 0.000163352
33 *619:6 *632:14 0.000185368
34 *619:6 *632:23 0.000305827
35 *619:10 *632:14 0.00035886
*RES
1 *4060:X *632:10 49.9314 
2 *632:10 *632:14 22.7679 
3 *632:14 *4009:A 23 
4 *632:14 *632:23 19.9093 
5 *632:23 *632:25 70.9257 
6 *632:25 *4010:A 44.3386 
*END

*D_NET *633 0.017124
*CONN
*I *4008:A I *D sky130_fd_sc_hd__clkdlybuf4s25_1
*I *4053:A I *D sky130_fd_sc_hd__clkdlybuf4s25_1
*I *4061:X O *D sky130_fd_sc_hd__clkdlybuf4s25_1
*CAP
1 *4008:A 0.000975591
2 *4053:A 2.34823e-05
3 *4061:X 4.06836e-05
4 *633:35 0.00227524
5 *633:23 0.00359308
6 *633:21 0.0032236
7 *633:6 0.000994334
8 *4008:A *3580:A0 0.000103299
9 *4008:A *668:18 0.000197994
10 *633:6 *3488:S 3.77997e-05
11 *633:6 *725:22 7.53384e-06
12 *633:21 *3488:S 0.000107125
13 *633:21 *672:32 0.000176867
14 *633:21 *725:6 0.000214953
15 *633:21 *725:22 0.000180454
16 *633:23 *3608:A0 0.000180941
17 *633:23 *3666:S 0.000195248
18 *633:23 *663:43 0.000223043
19 *633:23 *723:38 0
20 *633:23 *797:10 1.22803e-05
21 *633:23 *841:18 0
22 *633:35 *3429:S1 0
23 *633:35 *4024:A 0
24 *633:35 *668:18 0.000230718
25 *633:35 *674:18 9.28842e-05
26 *633:35 *684:8 0
27 *633:35 *689:10 0.000141869
28 *3486:S *633:23 2.49733e-05
29 *3493:A *633:21 0.000210345
30 *3683:S *633:23 0.000104653
31 *3796:D *4008:A 6.45598e-05
32 *3829:CLK *633:23 0
33 *96:8 *633:23 9.63815e-05
34 *100:10 *633:23 0
35 *116:8 *633:23 5.93381e-05
36 *140:8 *633:23 3.19287e-05
37 *357:8 *633:35 0
38 *360:14 *633:35 0.000248386
39 *404:40 *633:23 5.30518e-05
40 *406:10 *633:23 0
41 *419:10 *633:35 0.000538659
42 *461:26 *633:35 0.000213541
43 *461:53 *633:35 6.26051e-05
44 *485:8 *633:23 0
45 *488:100 *633:23 0
46 *494:10 *633:23 0
47 *507:46 *633:23 0.000232644
48 *507:46 *633:35 0.000373158
49 *507:93 *633:35 0.000639286
50 *509:8 *633:35 0
51 *516:49 *633:23 0
52 *522:10 *633:23 0
53 *531:8 *633:23 0
54 *562:229 *633:23 7.98226e-05
55 *582:27 *633:23 0.000141888
56 *591:37 *633:23 0
57 *618:6 *4008:A 0.000176276
58 *618:83 *4008:A 6.96783e-05
59 *623:10 *633:35 0.000124863
60 *623:16 *633:23 0.000142814
61 *623:16 *633:35 9.42582e-05
62 *623:22 *633:23 0.000111852
*RES
1 *4061:X *633:6 24.0979 
2 *633:6 *4053:A 23.4971 
3 *633:6 *633:21 34.2436 
4 *633:21 *633:23 50.9054 
5 *633:23 *633:35 49.5411 
6 *633:35 *4008:A 39.9029 
*END

*D_NET *634 0.0139644
*CONN
*I *4052:A I *D sky130_fd_sc_hd__clkdlybuf4s25_1
*I *4051:A I *D sky130_fd_sc_hd__clkdlybuf4s25_1
*I *4062:X O *D sky130_fd_sc_hd__clkdlybuf4s25_1
*CAP
1 *4052:A 0
2 *4051:A 3.6708e-05
3 *4062:X 0.000231619
4 *634:39 0.000605842
5 *634:35 0.00198201
6 *634:27 0.00249199
7 *634:10 0.00138415
8 *4051:A *723:10 5.3304e-05
9 *634:10 *672:32 0.000101428
10 *634:27 *3461:A1 0.000246793
11 *634:27 *3462:A0 7.75952e-05
12 *634:27 *3462:A1 0
13 *634:27 *3616:A0 0
14 *634:27 *3685:A0 0.000376242
15 *634:27 *670:62 0.000114764
16 *634:27 *692:38 0.000459653
17 *634:27 *723:62 1.69668e-05
18 *634:27 *825:12 0.000174097
19 *634:35 *721:42 0.000271859
20 *634:39 *3458:S1 4.89774e-05
21 *634:39 *687:101 0.000218062
22 *634:39 *865:28 0
23 *44:8 *634:10 0.000167113
24 *44:8 *634:27 0.000148788
25 *117:8 *634:35 0.000542095
26 *124:10 *634:27 6.43005e-05
27 *350:20 *634:35 2.05503e-05
28 *383:14 *634:39 0.000887639
29 *387:8 *634:35 0.00182359
30 *387:8 *634:39 4.04573e-05
31 *410:8 *634:10 0.000113785
32 *461:18 *634:39 0
33 *486:10 *634:35 0.000135558
34 *495:10 *634:35 0.000246748
35 *523:8 *634:35 0.000319741
36 *532:8 *634:35 0.000246757
37 *562:23 *634:39 9.61794e-05
38 *593:24 *634:35 0
39 *597:12 *634:27 0.000181342
40 *597:12 *634:35 3.76928e-05
41 *599:59 *634:39 0
*RES
1 *4062:X *634:10 43.6136 
2 *634:10 *4051:A 38.6214 
3 *634:10 *634:27 28.9689 
4 *634:27 *634:35 42.1536 
5 *634:35 *634:39 30.8154 
6 *634:39 *4052:A 23 
*END

*D_NET *635 0.0136823
*CONN
*I *4050:A I *D sky130_fd_sc_hd__clkdlybuf4s25_1
*I *4049:A I *D sky130_fd_sc_hd__clkdlybuf4s25_1
*I *4063:X O *D sky130_fd_sc_hd__clkdlybuf4s25_1
*CAP
1 *4050:A 2.09573e-05
2 *4049:A 0
3 *4063:X 0.00026667
4 *635:28 0.00379459
5 *635:10 0.00432098
6 *635:8 0.000772109
7 *4050:A *722:6 9.84851e-05
8 *635:10 *722:76 0.000422723
9 *635:10 *778:10 0
10 *635:28 *3691:B_N 2.60152e-05
11 *635:28 *683:59 1.03597e-05
12 *635:28 *703:98 2.05503e-05
13 *635:28 *707:74 7.14436e-05
14 *3549:A *635:8 6.17437e-06
15 *66:8 *635:28 0.000104858
16 *69:8 *635:10 8.07477e-05
17 *77:10 *635:10 2.28401e-05
18 *165:12 *4050:A 4.06849e-05
19 *390:10 *635:10 7.64851e-06
20 *390:10 *635:28 1.38338e-05
21 *544:16 *635:28 0.000206515
22 *544:138 *635:28 0.000717376
23 *544:169 *635:28 0.00265672
24 *602:49 *635:10 0
25 *602:49 *635:28 0
*RES
1 *4063:X *635:8 42.4329 
2 *635:8 *635:10 10.7093 
3 *635:10 *635:28 45.0404 
4 *635:28 *4049:A 38 
5 *635:10 *4050:A 39.0979 
*END

*D_NET *636 0.00971346
*CONN
*I *4047:A I *D sky130_fd_sc_hd__clkdlybuf4s25_1
*I *4048:A I *D sky130_fd_sc_hd__clkdlybuf4s25_1
*I *4064:X O *D sky130_fd_sc_hd__clkdlybuf4s25_1
*CAP
1 *4047:A 2.53838e-05
2 *4048:A 0
3 *4064:X 0.000250165
4 *636:17 0.00219503
5 *636:15 0.00222295
6 *636:6 0.000303472
7 *636:6 *720:10 0.000121017
8 *636:15 *720:10 4.5051e-05
9 *636:17 *3479:S0 0
10 *636:17 *3606:A0 0.000274455
11 *636:17 *3620:A1 4.3407e-05
12 *636:17 *3640:A0 0.000303269
13 *636:17 *668:26 0.000578159
14 *636:17 *668:41 0.000875504
15 *636:17 *669:32 0.000162054
16 *636:17 *752:12 6.68378e-05
17 *636:17 *763:21 0.000400886
18 *636:17 *796:10 7.56656e-05
19 *636:17 *803:12 0.000113614
20 *636:17 *804:10 7.10099e-05
21 *636:17 *812:8 0.000321786
22 *163:10 *636:17 0
23 *166:8 *636:17 0.000114092
24 *413:112 *636:17 7.10099e-05
25 *413:120 *636:17 0.000852112
26 *418:12 *636:17 0
27 *544:78 *636:17 8.57765e-05
28 *605:6 *4047:A 5.67058e-05
29 *625:19 *636:17 8.4047e-05
30 *628:22 *636:17 0
*RES
1 *4064:X *636:6 27.9093 
2 *636:6 *4048:A 23 
3 *636:6 *636:15 16.0979 
4 *636:15 *636:17 58.9529 
5 *636:17 *4047:A 38.6214 
*END

*D_NET *637 0.0124762
*CONN
*I *3235:B I *D sky130_fd_sc_hd__and3b_2
*I *3285:B I *D sky130_fd_sc_hd__and4_4
*I *3251:B I *D sky130_fd_sc_hd__and3_2
*I *3482:C I *D sky130_fd_sc_hd__and4bb_2
*I *3262:A2 I *D sky130_fd_sc_hd__a21o_2
*I *3238:A2 I *D sky130_fd_sc_hd__a31oi_2
*I *3252:A2 I *D sky130_fd_sc_hd__a21oi_2
*I *4065:X O *D sky130_fd_sc_hd__clkdlybuf4s25_1
*CAP
1 *3235:B 0
2 *3285:B 0
3 *3251:B 0
4 *3482:C 0.000210921
5 *3262:A2 1.49804e-05
6 *3238:A2 0.000276446
7 *3252:A2 0.000138267
8 *4065:X 0
9 *637:75 5.01009e-05
10 *637:22 0.000538651
11 *637:20 0.000282488
12 *637:18 0.000354491
13 *637:16 0.000355318
14 *637:14 0.000707818
15 *637:12 0.00041064
16 *637:6 0.00282534
17 *637:4 0.0027171
18 *3238:A2 *3238:A3 6.72929e-05
19 *3238:A2 *3252:B1 7.07651e-05
20 *3252:A2 *3238:A3 0.000181125
21 *3262:A2 *868:50 5.50106e-05
22 *3482:C *3252:B1 0
23 *3482:C *708:68 0
24 *637:6 *3243:B 2.19845e-05
25 *637:6 *3243:C 2.64616e-05
26 *637:6 *4113:A 5.70006e-05
27 *637:6 *708:41 6.343e-05
28 *637:6 *708:86 0.000219687
29 *637:6 *912:8 0.000251524
30 *637:12 *714:52 6.38543e-05
31 *637:14 *3235:C 8.73404e-05
32 *637:20 *707:25 0.000102696
33 *637:20 *869:71 3.35885e-05
34 *637:22 *869:71 2.29192e-05
35 *3252:A1 *3238:A2 7.03863e-05
36 *3252:A1 *3252:A2 5.70419e-05
37 *3987:A *637:6 0.000872787
38 *14:10 *637:6 2.25203e-05
39 *183:23 *637:6 5.04818e-05
40 *184:10 *637:75 2.60152e-05
41 *184:18 *3238:A2 5.54463e-05
42 *184:40 *637:14 1.21972e-05
43 *184:74 *3482:C 5.50049e-05
44 *193:8 *637:16 0.000303724
45 *193:14 *637:75 6.7177e-06
46 *193:45 *637:75 8.85189e-05
47 *193:81 *3262:A2 5.50106e-05
48 *218:39 *637:14 2.02872e-05
49 *218:39 *637:16 6.68822e-05
50 *218:39 *637:75 6.16439e-05
51 *603:61 *637:12 0.000219794
52 *632:25 *3252:A2 1.86973e-05
53 *632:25 *3482:C 7.36654e-05
54 *632:25 *637:20 8.83237e-05
55 *632:25 *637:22 4.38375e-05
*RES
1 *4065:X *637:4 23 
2 *637:4 *637:6 36.83 
3 *637:6 *637:12 32.9621 
4 *637:12 *637:14 3.95643 
5 *637:14 *637:16 4.90929 
6 *637:16 *637:18 15 
7 *637:18 *637:20 3.66643 
8 *637:20 *637:22 2.25786 
9 *637:22 *3252:A2 40.9 
10 *637:22 *3238:A2 42.6814 
11 *637:20 *3262:A2 38.6214 
12 *637:18 *3482:C 42.06 
13 *637:16 *3251:B 23 
14 *637:14 *637:75 31.5536 
15 *637:75 *3285:B 23 
16 *637:12 *3235:B 23 
*END

*D_NET *638 0.00205729
*CONN
*I *3890:D I *D sky130_fd_sc_hd__dfrtp_2
*I *4066:X O *D sky130_fd_sc_hd__clkdlybuf4s25_1
*CAP
1 *3890:D 0.000475641
2 *4066:X 0.000269033
3 *638:8 0.000744674
4 *3890:D *3890:RESET_B 4.65874e-05
5 *3367:A2 *638:8 0.000344789
6 *3368:A3 *638:8 4.55501e-05
7 *554:10 *638:8 1.70419e-05
8 *565:61 *638:8 0.000113973
*RES
1 *4066:X *638:8 44.8357 
2 *638:8 *3890:D 43.9295 
*END

*D_NET *639 0.00162504
*CONN
*I *3900:RESET_B I *D sky130_fd_sc_hd__dfrtp_2
*I *3898:RESET_B I *D sky130_fd_sc_hd__dfrtp_2
*I *4067:X O *D sky130_fd_sc_hd__clkdlybuf4s25_1
*CAP
1 *3900:RESET_B 0.000247143
2 *3898:RESET_B 4.0378e-05
3 *4067:X 0.000258658
4 *639:10 0.00054618
5 *3898:RESET_B *3897:RESET_B 9.2585e-05
6 *3900:RESET_B *3900:D 2.55762e-05
7 *3900:RESET_B *718:42 5.3603e-05
8 *3900:RESET_B *914:8 0.000329146
9 *639:10 *718:42 1.51481e-05
10 *4067:A *639:10 1.66262e-05
*RES
1 *4067:X *639:10 41.6043 
2 *639:10 *3898:RESET_B 16.0254 
3 *639:10 *3900:RESET_B 21.3282 
*END

*D_NET *640 0.000839809
*CONN
*I *4090:A I *D sky130_fd_sc_hd__buf_1
*I *3888:Q O *D sky130_fd_sc_hd__dfstp_2
*CAP
1 *4090:A 0
2 *3888:Q 0.00021293
3 *640:8 0.00021293
4 *640:8 *3888:SET_B 0.00024785
5 *640:8 *713:12 0.0001661
*RES
1 *3888:Q *640:8 43.4271 
2 *640:8 *4090:A 38 
*END

*D_NET *641 0.000905146
*CONN
*I *4091:A I *D sky130_fd_sc_hd__buf_1
*I *3893:Q O *D sky130_fd_sc_hd__dfrtp_2
*CAP
1 *4091:A 0.000204408
2 *3893:Q 8.90679e-05
3 *641:8 0.000293476
4 *4091:A *718:6 5.40241e-05
5 *4091:A *718:21 9.44958e-05
6 *641:8 *915:10 0.000169674
*RES
1 *3893:Q *641:8 40.2579 
2 *641:8 *4091:A 42.4329 
*END

*D_NET *642 0.0146612
*CONN
*I *4092:A I *D sky130_fd_sc_hd__buf_1
*I *3224:A_N I *D sky130_fd_sc_hd__nand4b_2
*I *3228:A_N I *D sky130_fd_sc_hd__and3b_4
*I *3219:A I *D sky130_fd_sc_hd__inv_2
*I *3216:A_N I *D sky130_fd_sc_hd__nand3b_2
*I *3938:Q O *D sky130_fd_sc_hd__dfstp_2
*CAP
1 *4092:A 3.65708e-05
2 *3224:A_N 4.01155e-05
3 *3228:A_N 0
4 *3219:A 0.000141691
5 *3216:A_N 0
6 *3938:Q 0.000377674
7 *642:64 0.000587097
8 *642:45 0.001052
9 *642:30 0.000727757
10 *642:24 0.00163411
11 *642:20 0.00297999
12 *642:10 0.00182711
13 *642:8 0.000377674
14 *3219:A *3249:A2 9.67842e-05
15 *3219:A *696:8 0
16 *3224:A_N *3224:B 0
17 *642:8 *678:8 0.000326983
18 *642:8 *890:14 0
19 *642:8 *895:10 0
20 *642:20 *711:6 0.000238359
21 *642:20 *711:12 4.96303e-05
22 *642:20 *712:24 0.00135591
23 *642:20 *730:16 3.49714e-05
24 *642:24 *3407:A2 9.91386e-05
25 *642:24 *729:6 8.85299e-06
26 *642:24 *729:12 6.74969e-06
27 *642:30 *3224:B 7.4416e-05
28 *642:30 *3224:D 0.000168754
29 *642:30 *687:135 7.55595e-05
30 *642:30 *715:31 1.14452e-05
31 *642:45 *3249:A2 0.000140259
32 *642:45 *4078:A 0.000188926
33 *642:45 *681:22 7.80354e-05
34 *642:45 *687:135 0.000222104
35 *642:45 *696:8 5.3304e-05
36 *642:45 *715:29 2.35393e-05
37 *642:45 *715:31 6.42902e-05
38 *642:64 *683:38 0.000467503
39 *642:64 *683:104 9.28078e-06
40 *642:64 *698:10 0
41 *642:64 *715:25 0.000224039
42 *642:64 *715:27 6.08043e-05
43 *642:64 *715:29 9.48381e-06
44 *3249:A1 *3219:A 6.93968e-05
45 *170:10 *3219:A 2.46348e-05
46 *171:8 *642:64 0.000169194
47 *174:10 *642:30 1.39431e-05
48 *177:6 *642:64 2.95423e-05
49 *192:8 *642:45 8.48502e-06
50 *336:10 *642:20 2.29192e-05
51 *565:80 *642:24 0.000452157
*RES
1 *3938:Q *642:8 45.8921 
2 *642:8 *642:10 15 
3 *642:10 *642:20 42.4671 
4 *642:20 *642:24 31.3436 
5 *642:24 *642:30 21.6907 
6 *642:30 *3216:A_N 38 
7 *642:30 *642:45 23.2236 
8 *642:45 *3219:A 26.045 
9 *642:45 *642:64 44.8521 
10 *642:64 *3228:A_N 23 
11 *642:24 *3224:A_N 23.8493 
12 *642:10 *4092:A 23.6214 
*END

*D_NET *643 0.0087395
*CONN
*I *4093:A I *D sky130_fd_sc_hd__buf_1
*I *3235:A_N I *D sky130_fd_sc_hd__and3b_2
*I *3237:A I *D sky130_fd_sc_hd__inv_2
*I *3928:Q O *D sky130_fd_sc_hd__dfrtp_2
*CAP
1 *4093:A 0
2 *3235:A_N 0
3 *3237:A 0
4 *3928:Q 0.002304
5 *643:45 0.00111057
6 *643:24 0.000206198
7 *643:16 0.000632945
8 *643:6 0.00162018
9 *643:6 *676:8 5.3304e-05
10 *643:6 *706:38 4.05745e-05
11 *643:6 *706:44 2.93747e-05
12 *643:6 *717:14 4.5051e-05
13 *643:6 *911:8 0.000398497
14 *643:16 *3235:C 0.000139052
15 *643:16 *3930:D 8.94487e-05
16 *643:16 *708:39 0.000192077
17 *643:24 *708:41 0.000139352
18 *643:24 *714:52 0.000213648
19 *643:45 *3928:RESET_B 0.000174906
20 *643:45 *904:6 0.000453724
21 *3265:B *643:6 0.000414359
22 *182:10 *643:16 3.70071e-06
23 *184:10 *643:24 6.68587e-05
24 *184:18 *643:24 3.20914e-05
25 *184:74 *643:24 9.5877e-05
26 *185:31 *643:6 1.79651e-05
27 *193:14 *643:24 0
28 *603:8 *643:16 5.47927e-05
29 *604:25 *643:45 4.02658e-06
30 *604:36 *643:45 0.000206926
*RES
1 *3928:Q *643:6 44.1079 
2 *643:6 *643:16 37.54 
3 *643:16 *643:24 35.2407 
4 *643:24 *3237:A 23 
5 *643:16 *3235:A_N 23 
6 *3928:Q *643:45 40.8143 
7 *643:45 *4093:A 23 
*END

*D_NET *644 0.00106177
*CONN
*I *4094:A I *D sky130_fd_sc_hd__buf_1
*I *3425:X O *D sky130_fd_sc_hd__buf_1
*CAP
1 *4094:A 0
2 *3425:X 0.000380723
3 *644:10 0.000380723
4 *644:10 *646:10 0.000113923
5 *644:10 *656:8 0.000163196
6 *16:10 *644:10 2.45549e-06
7 *367:14 *644:10 2.07484e-05
*RES
1 *3425:X *644:10 46.555 
2 *644:10 *4094:A 38 
*END

*D_NET *645 0.00847771
*CONN
*I *4095:A I *D sky130_fd_sc_hd__buf_1
*I *3433:X O *D sky130_fd_sc_hd__a21bo_2
*CAP
1 *4095:A 0
2 *3433:X 0.000406075
3 *645:18 0.00364284
4 *645:8 0.00404892
5 *645:8 *720:100 0
6 *645:18 *666:24 8.24235e-05
7 *645:18 *666:40 4.32466e-05
8 *3813:CLK *645:8 0.000168744
9 *360:14 *645:8 0
10 *432:47 *645:8 0
11 *432:66 *645:8 0
12 *461:82 *645:18 0
13 *611:47 *645:8 3.49594e-05
14 *613:24 *645:18 5.04995e-05
*RES
1 *3433:X *645:8 45.7161 
2 *645:8 *645:18 39.4572 
3 *645:18 *4095:A 23 
*END

*D_NET *646 0.000591747
*CONN
*I *4096:A I *D sky130_fd_sc_hd__buf_1
*I *3441:X O *D sky130_fd_sc_hd__buf_1
*CAP
1 *4096:A 7.72179e-05
2 *3441:X 0.000145591
3 *646:10 0.000222809
4 *4096:A *4103:A 3.22051e-05
5 *644:10 *646:10 0.000113923
*RES
1 *3441:X *646:10 40.8793 
2 *646:10 *4096:A 39.5743 
*END

*D_NET *647 0.00155146
*CONN
*I *4097:A I *D sky130_fd_sc_hd__buf_1
*I *3449:X O *D sky130_fd_sc_hd__buf_1
*CAP
1 *4097:A 4.17433e-05
2 *3449:X 0.000536666
3 *647:10 0.000578409
4 *647:10 *4109:A 9.64943e-05
5 *647:10 *661:8 0.000298147
*RES
1 *3449:X *647:10 47.0314 
2 *647:10 *4097:A 38.6214 
*END

*D_NET *648 0.00661892
*CONN
*I *4098:A I *D sky130_fd_sc_hd__buf_1
*I *3457:X O *D sky130_fd_sc_hd__a22o_2
*CAP
1 *4098:A 0.0011058
2 *3457:X 0.000936121
3 *648:12 0.00177489
4 *648:6 0.00160522
5 *648:6 *760:8 2.38288e-05
6 *648:12 *3450:A3 0.000188049
7 *648:12 *3450:S0 0
8 *648:12 *3526:A1 6.01596e-05
9 *648:12 *752:25 0.000246267
10 *3457:A1 *648:6 0.000127379
11 *3516:A *4098:A 3.49864e-05
12 *3887:D *4098:A 2.28004e-05
13 *352:67 *648:6 5.72091e-05
14 *352:73 *648:6 3.53051e-05
15 *544:61 *648:12 0
16 *609:40 *648:12 0.000255836
17 *613:44 *4098:A 2.07484e-05
18 *618:25 *648:12 0.000124317
*RES
1 *3457:X *648:6 38.3907 
2 *648:6 *648:12 46.6957 
3 *648:12 *4098:A 37.21 
*END

*D_NET *649 0.00121616
*CONN
*I *3891:D I *D sky130_fd_sc_hd__dfrtp_2
*I *4068:X O *D sky130_fd_sc_hd__clkdlybuf4s25_1
*CAP
1 *3891:D 8.6778e-05
2 *4068:X 0.000454702
3 *649:10 0.00054148
4 *649:10 *713:79 5.0518e-05
5 *313:8 *649:10 4.21494e-05
6 *315:8 *3891:D 4.05309e-05
*RES
1 *4068:X *649:10 45.3743 
2 *649:10 *3891:D 39.5743 
*END

*D_NET *650 0.000514405
*CONN
*I *4099:A I *D sky130_fd_sc_hd__buf_1
*I *3465:X O *D sky130_fd_sc_hd__buf_1
*CAP
1 *4099:A 5.8069e-05
2 *3465:X 9.60977e-05
3 *650:8 0.000154167
4 *4099:A *652:20 0.000144494
5 *388:24 *650:8 6.15779e-05
*RES
1 *3465:X *650:8 39.9057 
2 *650:8 *4099:A 39.5743 
*END

*D_NET *651 0.00240567
*CONN
*I *4100:A I *D sky130_fd_sc_hd__buf_1
*I *3473:X O *D sky130_fd_sc_hd__a21bo_2
*CAP
1 *4100:A 0
2 *3473:X 0
3 *651:10 0.00091154
4 *651:6 0.00091154
5 *651:10 *3530:A1 0.000108681
6 *651:10 *722:33 0
7 *651:10 *754:27 0
8 *651:10 *762:8 0.000197479
9 *651:10 *786:8 0
10 *651:10 *794:12 2.14404e-05
11 *3530:S *651:10 0
12 *26:16 *651:10 0.000233971
13 *26:20 *651:10 2.10225e-05
14 *461:181 *651:10 0
*RES
1 *3473:X *651:6 38 
2 *651:6 *651:10 34.5129 
3 *651:10 *4100:A 23 
*END

*D_NET *652 0.00560079
*CONN
*I *4101:A I *D sky130_fd_sc_hd__buf_1
*I *3481:X O *D sky130_fd_sc_hd__a22o_2
*CAP
1 *4101:A 0
2 *3481:X 0.000320498
3 *652:20 0.00183094
4 *652:10 0.00215143
5 *652:10 *681:77 3.58553e-05
6 *652:20 *658:10 5.5792e-05
7 *3481:A2 *652:10 0.000556964
8 *3804:D *652:20 1.64354e-05
9 *4099:A *652:20 0.000144494
10 *363:18 *652:10 0.000203009
11 *388:18 *652:20 0.000177063
12 *399:8 *652:20 5.3304e-05
13 *610:12 *652:10 5.50049e-05
*RES
1 *3481:X *652:10 47.2179 
2 *652:10 *652:20 40.1057 
3 *652:20 *4101:A 23 
*END

*D_NET *653 0.000225483
*CONN
*I *4102:A I *D sky130_fd_sc_hd__clkbuf_4
*I *4100:X O *D sky130_fd_sc_hd__buf_1
*CAP
1 *4102:A 0.000112741
2 *4100:X 0.000112741
*RES
1 *4100:X *4102:A 48.0714 
*END

*D_NET *654 0.000226868
*CONN
*I *4103:A I *D sky130_fd_sc_hd__clkbuf_4
*I *4096:X O *D sky130_fd_sc_hd__buf_1
*CAP
1 *4103:A 9.73316e-05
2 *4096:X 9.73316e-05
3 *4096:A *4103:A 3.22051e-05
*RES
1 *4096:X *4103:A 47.595 
*END

*D_NET *655 0.000817118
*CONN
*I *4104:A I *D sky130_fd_sc_hd__clkbuf_4
*I *4095:X O *D sky130_fd_sc_hd__buf_1
*CAP
1 *4104:A 0
2 *4095:X 0.000214351
3 *655:10 0.000214351
4 *34:11 *655:10 0.000151516
5 *421:10 *655:10 0
6 *430:10 *655:10 0.000166522
7 *613:24 *655:10 7.03766e-05
*RES
1 *4095:X *655:10 42.9921 
2 *655:10 *4104:A 38 
*END

*D_NET *656 0.000675806
*CONN
*I *4105:A I *D sky130_fd_sc_hd__clkbuf_4
*I *4094:X O *D sky130_fd_sc_hd__buf_1
*CAP
1 *4105:A 3.09382e-05
2 *4094:X 0.000210675
3 *656:8 0.000241613
4 *16:10 *4105:A 2.93845e-05
5 *18:10 *656:8 0
6 *644:10 *656:8 0.000163196
*RES
1 *4094:X *656:8 43.075 
2 *656:8 *4105:A 38.6214 
*END

*D_NET *657 0.000380076
*CONN
*I *4106:A I *D sky130_fd_sc_hd__clkbuf_4
*I *4101:X O *D sky130_fd_sc_hd__buf_1
*CAP
1 *4106:A 0
2 *4101:X 0.000118363
3 *657:10 0.000118363
4 *657:10 *658:10 2.99613e-05
5 *657:10 *659:12 0.000113389
*RES
1 *4101:X *657:10 40.175 
2 *657:10 *4106:A 38 
*END

*D_NET *658 0.00174252
*CONN
*I *4107:A I *D sky130_fd_sc_hd__clkbuf_4
*I *4099:X O *D sky130_fd_sc_hd__buf_1
*CAP
1 *4107:A 0
2 *4099:X 0.000435995
3 *658:10 0.000435995
4 *658:10 *659:12 0
5 rd_data[7] *658:10 5.92233e-05
6 *51:10 *658:10 0
7 *59:8 *658:10 0.000151817
8 *418:12 *658:10 0
9 *427:18 *658:10 0.000409449
10 *609:10 *658:10 0.000164291
11 *652:20 *658:10 5.5792e-05
12 *657:10 *658:10 2.99613e-05
*RES
1 *4099:X *658:10 49.6829 
2 *658:10 *4107:A 38 
*END

*D_NET *659 0.00238971
*CONN
*I *4108:A I *D sky130_fd_sc_hd__clkbuf_4
*I *4098:X O *D sky130_fd_sc_hd__buf_1
*CAP
1 *4108:A 0
2 *4098:X 0
3 *659:12 0.000895941
4 *659:6 0.000895941
5 rd_data[7] *659:12 5.92233e-05
6 *20:10 *659:12 1.94812e-05
7 *21:10 *659:12 0
8 *59:8 *659:12 0.00018907
9 *427:18 *659:12 0
10 *609:10 *659:12 1.69668e-05
11 *609:68 *659:12 0.000199701
12 *657:10 *659:12 0.000113389
13 *658:10 *659:12 0
*RES
1 *4098:X *659:6 38 
2 *659:6 *659:12 34.7821 
3 *659:12 *4108:A 23 
*END

*D_NET *660 0.000660818
*CONN
*I *3892:D I *D sky130_fd_sc_hd__dfrtp_2
*I *4069:X O *D sky130_fd_sc_hd__clkdlybuf4s25_1
*CAP
1 *3892:D 0
2 *4069:X 0.000282218
3 *660:10 0.000282218
4 *660:10 *3892:RESET_B 0
5 *660:10 *713:12 9.63815e-05
*RES
1 *4069:X *660:10 42.6607 
2 *660:10 *3892:D 38 
*END

*D_NET *661 0.000951074
*CONN
*I *4109:A I *D sky130_fd_sc_hd__clkbuf_4
*I *4097:X O *D sky130_fd_sc_hd__buf_1
*CAP
1 *4109:A 5.03729e-05
2 *4097:X 0.000156169
3 *661:8 0.000206542
4 *661:8 *890:14 0
5 *661:8 *891:8 0.000138718
6 rd_data[3] *661:8 4.6318e-06
7 *647:10 *4109:A 9.64943e-05
8 *647:10 *661:8 0.000298147
*RES
1 *4097:X *661:8 42.3707 
2 *661:8 *4109:A 39.0979 
*END

*D_NET *662 0.0203671
*CONN
*I *3737:S I *D sky130_fd_sc_hd__mux2_2
*I *3741:S I *D sky130_fd_sc_hd__mux2_2
*I *3727:S I *D sky130_fd_sc_hd__mux2_2
*I *3731:S I *D sky130_fd_sc_hd__mux2_2
*I *3735:S I *D sky130_fd_sc_hd__mux2_2
*I *4079:X O *D sky130_fd_sc_hd__buf_2
*CAP
1 *3737:S 0
2 *3741:S 0
3 *3727:S 0
4 *3731:S 5.42343e-05
5 *3735:S 0
6 *4079:X 0.00103841
7 *662:82 0.00111356
8 *662:59 0.00158441
9 *662:52 0.000602913
10 *662:46 0.00111323
11 *662:40 0.00018969
12 *662:34 0.00303684
13 *662:20 0.00348285
14 *662:12 0.00158039
15 *3731:S *3434:S0 9.79925e-05
16 *662:12 *3517:A_N 2.35407e-06
17 *662:12 *687:78 0.000374186
18 *662:20 *666:16 0
19 *662:20 *687:78 0.000139352
20 *662:20 *724:10 0.000350168
21 *662:20 *729:76 0.000141252
22 *662:34 *3568:A0 2.64616e-05
23 *662:34 *666:16 0.000649458
24 *662:34 *785:28 0.000225393
25 *662:34 *787:10 5.79559e-05
26 *662:40 *695:66 6.16531e-05
27 *662:46 *3474:S0 0.000135037
28 *662:46 *686:83 6.70361e-05
29 *662:52 *859:8 0.000110913
30 *662:59 *859:8 3.70187e-05
31 *662:82 *3576:A0 4.3838e-05
32 *662:82 *681:141 0
33 *662:82 *782:10 3.75047e-05
34 *662:82 *854:8 0.000110267
35 *3551:A *662:34 0.000152945
36 *3805:CLK *662:34 7.88926e-05
37 *3805:D *662:34 4.5591e-05
38 *3807:CLK *662:34 1.94812e-05
39 *3807:D *662:34 4.9054e-06
40 *3875:D *662:12 8.60677e-05
41 *26:22 *662:20 0.00014002
42 *78:10 *662:34 0.000100805
43 *81:8 *662:82 0.000109496
44 *347:8 *662:82 5.47927e-05
45 *347:10 *662:52 0
46 *347:10 *662:59 0
47 *417:10 *662:34 0.000141954
48 *450:10 *662:34 0.000263802
49 *452:14 *662:20 0
50 *452:66 *662:40 0.000137788
51 *452:66 *662:52 0.000329155
52 *452:66 *662:59 0.00033741
53 *452:75 *662:59 0.000174165
54 *452:75 *662:82 3.31149e-05
55 *452:81 *662:82 0.000138488
56 *535:18 *662:12 0.000259467
57 *538:8 *662:59 0
58 *543:8 *662:52 4.21594e-06
59 *543:8 *662:59 0.000153685
60 *584:8 *662:82 0.000189173
61 *618:8 *662:52 0.000320089
62 *622:49 *662:82 0.000536538
63 *626:51 *662:82 9.06851e-05
*RES
1 *4079:X *662:12 39.4057 
2 *662:12 *662:20 43.34 
3 *662:20 *662:34 48.285 
4 *662:34 *662:40 31.9057 
5 *662:40 *662:46 17.0714 
6 *662:46 *662:52 29.1893 
7 *662:52 *3735:S 23 
8 *662:46 *662:59 11.7657 
9 *662:59 *3731:S 39.0979 
10 *662:59 *662:82 41.4314 
11 *662:82 *3727:S 23 
12 *662:40 *3741:S 23 
13 *662:12 *3737:S 23 
*END

*D_NET *663 0.0171836
*CONN
*I *3664:S I *D sky130_fd_sc_hd__mux2_2
*I *3662:S I *D sky130_fd_sc_hd__mux2_2
*I *3666:S I *D sky130_fd_sc_hd__mux2_2
*I *3668:S I *D sky130_fd_sc_hd__mux2_2
*I *4080:X O *D sky130_fd_sc_hd__clkbuf_2
*CAP
1 *3664:S 0.000283359
2 *3662:S 0
3 *3666:S 0.00013423
4 *3668:S 0
5 *4080:X 0.000476628
6 *663:64 0.00152387
7 *663:43 0.00272736
8 *663:26 0.00183045
9 *663:16 0.00178127
10 *663:12 0.00121335
11 *3664:S *3664:A0 4.05684e-05
12 *3666:S *3454:A0 3.70094e-05
13 *3666:S *3666:A0 0.000413364
14 *663:12 *707:74 0.000189377
15 *663:16 *707:35 0.000184184
16 *663:16 *707:41 0.000163343
17 *663:16 *707:74 0.000139913
18 *663:43 *3454:A0 0.0002129
19 *663:43 *3668:A0 0.000315857
20 *663:43 *3702:A1 4.96207e-05
21 *663:43 *723:90 8.78068e-05
22 *663:43 *825:12 4.05745e-05
23 *663:43 *841:18 0.000102389
24 *3766:CLK *663:16 0.00010403
25 *3844:D *663:64 2.97352e-05
26 *3845:D *663:43 0.000280222
27 *3846:CLK *663:12 2.02872e-05
28 *3860:D *663:64 4.9054e-06
29 *3981:A *663:26 0.000184527
30 *4080:A *663:12 0.000193047
31 *45:8 *663:16 0.000169674
32 *146:10 *663:26 0.000111276
33 *202:56 *663:12 2.27043e-05
34 *202:104 *663:12 0.000118217
35 *404:14 *663:16 0
36 *411:8 *663:16 0
37 *470:31 *663:26 0.000325588
38 *479:43 *663:16 0.000342125
39 *488:65 *663:26 0.000270239
40 *498:22 *663:12 0.000214412
41 *511:12 *663:16 1.74126e-05
42 *516:24 *663:12 2.11066e-05
43 *516:51 *3666:S 0.00031495
44 *516:105 *663:12 0.000161953
45 *522:10 *663:43 5.72217e-05
46 *525:14 *663:16 0.000468896
47 *525:29 *663:12 0.00017837
48 *525:29 *663:16 5.06004e-05
49 *562:256 *663:26 5.62429e-05
50 *562:256 *663:43 0.000180812
51 *590:34 *663:64 0.000239525
52 *590:42 *663:64 3.25022e-05
53 *591:37 *3666:S 6.7177e-06
54 *598:14 *663:26 0.000267178
55 *619:55 *3664:S 4.21048e-05
56 *619:71 *3664:S 0.000322733
57 *619:71 *663:16 8.52094e-06
58 *633:23 *3666:S 0.000195248
59 *633:23 *663:43 0.000223043
*RES
1 *4080:X *663:12 49.7968 
2 *663:12 *663:16 35.9732 
3 *663:16 *663:26 47.3379 
4 *663:26 *3668:S 23 
5 *663:26 *663:43 39.7329 
6 *663:43 *3666:S 44.09 
7 *663:43 *663:64 36.17 
8 *663:64 *3662:S 23 
9 *663:16 *3664:S 29.525 
*END

*D_NET *664 0.01379
*CONN
*I *3633:S I *D sky130_fd_sc_hd__mux2_2
*I *3631:S I *D sky130_fd_sc_hd__mux2_2
*I *3637:S I *D sky130_fd_sc_hd__mux2_2
*I *3627:S I *D sky130_fd_sc_hd__mux2_2
*I *4110:X O *D sky130_fd_sc_hd__clkbuf_2
*CAP
1 *3633:S 0
2 *3631:S 0
3 *3637:S 0
4 *3627:S 0
5 *4110:X 0.000229419
6 *664:61 0.00101917
7 *664:48 0.00186608
8 *664:42 0.00144633
9 *664:34 0.000599418
10 *664:32 0.00148676
11 *664:18 0.00148676
12 *664:16 0.000742004
13 *664:8 0.000971424
14 *664:16 *672:24 5.07687e-05
15 *664:16 *723:10 0.000434246
16 *664:16 *723:24 0.000100231
17 *664:16 *809:14 3.50715e-05
18 *664:32 *723:38 1.59071e-05
19 *664:32 *725:22 0.000431799
20 *664:32 *808:10 0.00032298
21 *664:32 *809:14 0.000144494
22 *664:42 *3438:A0 0.000106178
23 *664:42 *3438:A1 2.43944e-05
24 *664:42 *3438:S0 0.000147024
25 *664:42 *3631:A0 0.000140927
26 *664:48 *3627:A0 0
27 *664:48 *742:8 2.0964e-05
28 *664:48 *806:8 0
29 *664:61 *3479:A3 0.000352296
30 *664:61 *3627:A0 0
31 *664:61 *3637:A0 9.64943e-05
32 *664:61 *3654:A0 0.000280756
33 *664:61 *719:18 4.05745e-05
34 *664:61 *719:37 3.72639e-05
35 *3644:A1 *664:48 0.000159247
36 *3820:CLK *664:32 0.000145163
37 *3820:D *664:32 0.00010368
38 *3826:CLK *664:48 0.000279661
39 *41:10 *664:42 5.45541e-05
40 *113:8 *664:48 3.31683e-05
41 *137:8 *664:61 5.56306e-05
42 *365:12 *664:42 1.40087e-05
43 *484:12 *664:42 9.94694e-05
44 *491:10 *664:48 0.000147656
45 *493:10 *664:32 0
46 *605:36 *664:48 0
47 *605:36 *664:61 0
48 *621:41 *664:42 6.79988e-05
49 *631:28 *664:61 0
*RES
1 *4110:X *664:8 42.0186 
2 *664:8 *664:16 40.875 
3 *664:16 *664:18 15 
4 *664:18 *664:32 46.5064 
5 *664:32 *664:34 15 
6 *664:34 *664:42 42.4079 
7 *664:42 *664:48 32.6071 
8 *664:48 *3627:S 38 
9 *664:48 *664:61 36.9157 
10 *664:61 *3637:S 23 
11 *664:34 *3631:S 23 
12 *664:18 *3633:S 23 
*END

*D_NET *665 0.0160522
*CONN
*I *3635:S I *D sky130_fd_sc_hd__mux2_2
*I *3625:S I *D sky130_fd_sc_hd__mux2_2
*I *3623:S I *D sky130_fd_sc_hd__mux2_2
*I *4081:X O *D sky130_fd_sc_hd__clkbuf_2
*CAP
1 *3635:S 0
2 *3625:S 0
3 *3623:S 0
4 *4081:X 0.000560294
5 *665:56 0.000312288
6 *665:36 0.00131652
7 *665:26 0.00180027
8 *665:14 0.00147
9 *665:12 0.00184474
10 *665:8 0.0011065
11 *665:12 *3652:A0 7.23925e-05
12 *665:12 *685:18 0
13 *665:12 *721:51 0.000381669
14 *665:12 *721:64 6.93449e-05
15 *665:12 *810:12 0.000166444
16 *665:12 *810:32 0
17 *665:12 *818:8 3.81391e-05
18 *665:14 *3625:A0 0.000326398
19 *665:14 *685:34 0.000343246
20 *665:14 *685:40 2.83509e-05
21 *665:14 *721:26 8.17328e-05
22 *665:14 *721:42 0.000175903
23 *665:26 *3625:A0 0.000147656
24 *665:26 *685:40 9.01193e-05
25 *665:26 *690:14 0.000832989
26 *665:36 *3623:A0 0.000101762
27 *665:56 *3635:A0 5.82853e-05
28 *665:56 *685:18 0.000242738
29 *665:56 *721:26 0.000232049
30 *3480:A0 *665:36 0.000442062
31 *3484:A1 *665:36 5.50049e-05
32 *3625:A1 *665:26 0
33 *4015:A *665:36 5.50049e-05
34 *4087:A *665:56 0.000141355
35 *173:29 *665:56 5.3304e-05
36 *173:37 *665:56 3.46013e-05
37 *350:20 *665:56 9.79925e-05
38 *350:57 *665:36 0.000227208
39 *401:12 *665:36 0.000195448
40 *402:8 *665:36 2.93747e-05
41 *404:36 *665:8 0.000336332
42 *404:57 *665:36 0.00124782
43 *405:8 *665:36 5.50106e-05
44 *507:65 *665:14 0.00048523
45 *507:65 *665:26 0.000323991
46 *562:204 *665:56 2.46387e-05
47 *562:214 *665:56 2.97099e-05
48 *562:248 *665:56 1.50326e-05
49 *592:59 *665:26 0.000355699
50 *625:19 *665:36 4.75206e-05
*RES
1 *4081:X *665:8 48.15 
2 *665:8 *665:12 28.8786 
3 *665:12 *665:14 22.5371 
4 *665:14 *665:26 45.1836 
5 *665:26 *665:36 33.35 
6 *665:36 *3623:S 23 
7 *665:14 *3625:S 23 
8 *665:12 *665:56 38.845 
9 *665:56 *3635:S 23 
*END

*D_NET *666 0.0167135
*CONN
*I *3564:S I *D sky130_fd_sc_hd__mux2_2
*I *3568:S I *D sky130_fd_sc_hd__mux2_2
*I *3554:S I *D sky130_fd_sc_hd__mux2_2
*I *3558:S I *D sky130_fd_sc_hd__mux2_2
*I *3562:S I *D sky130_fd_sc_hd__mux2_2
*I *4082:X O *D sky130_fd_sc_hd__buf_2
*CAP
1 *3564:S 0
2 *3568:S 0
3 *3554:S 0
4 *3558:S 3.3042e-05
5 *3562:S 0
6 *4082:X 0.000593586
7 *666:72 0.00123263
8 *666:49 0.0021174
9 *666:40 0.00180324
10 *666:24 0.00274549
11 *666:16 0.00192997
12 *666:10 0.00196765
13 *666:6 0.000721795
14 *666:6 *3524:A1 4.75206e-05
15 *666:10 *777:10 5.33753e-05
16 *666:16 *3546:A0 0
17 *666:16 *724:128 8.62876e-05
18 *666:16 *777:10 9.48381e-06
19 *666:16 *785:10 5.50106e-05
20 *666:24 *720:87 1.14452e-05
21 *666:49 *3568:A0 4.91697e-05
22 *666:49 *686:22 0
23 *666:49 *686:33 2.12347e-06
24 *666:49 *686:35 7.35144e-05
25 *666:49 *720:87 8.65472e-05
26 *666:49 *779:10 5.33753e-05
27 *666:72 *686:120 0.00012947
28 *666:72 *774:29 0.000126084
29 *3551:A *666:16 0.0002263
30 *3805:CLK *666:16 7.88926e-05
31 *3805:D *666:16 0.000142697
32 *3810:CLK *3558:S 5.5792e-05
33 *26:22 *666:10 0
34 *26:22 *666:16 0
35 *48:10 *666:72 0
36 *56:8 *666:72 0
37 *65:8 *666:72 5.11217e-05
38 *383:14 *666:16 0
39 *398:8 *666:24 4.75766e-05
40 *417:10 *666:16 0
41 *422:29 *666:6 2.02872e-05
42 *422:39 *666:6 0.000152046
43 *426:10 *666:6 0.000354127
44 *426:10 *666:10 0
45 *426:10 *666:16 0
46 *435:10 *666:72 0
47 *442:24 *666:6 7.51453e-06
48 *461:82 *666:49 8.44835e-05
49 *461:168 *666:6 0.000317519
50 *585:64 *666:72 0.000166522
51 *586:10 *666:49 0
52 *611:10 *666:49 0.000114074
53 *626:68 *666:72 0.000191255
54 *645:18 *666:24 8.24235e-05
55 *645:18 *666:40 4.32466e-05
56 *662:20 *666:16 0
57 *662:34 *666:16 0.000649458
*RES
1 *4082:X *666:6 36.0086 
2 *666:6 *666:10 17.2579 
3 *666:10 *666:16 48.785 
4 *666:16 *666:24 23.9868 
5 *666:24 *666:40 42.9237 
6 *666:40 *3562:S 23 
7 *666:24 *666:49 25.5761 
8 *666:49 *3558:S 38.6214 
9 *666:49 *666:72 41.535 
10 *666:72 *3554:S 23 
11 *666:16 *3568:S 23 
12 *666:10 *3564:S 38 
*END

*D_NET *667 0.0150247
*CONN
*I *3548:S I *D sky130_fd_sc_hd__mux2_2
*I *3536:S I *D sky130_fd_sc_hd__mux2_2
*I *3538:S I *D sky130_fd_sc_hd__mux2_2
*I *3542:S I *D sky130_fd_sc_hd__mux2_2
*I *4083:X O *D sky130_fd_sc_hd__clkbuf_2
*CAP
1 *3548:S 0.00017027
2 *3536:S 0.00119668
3 *3538:S 0
4 *3542:S 0
5 *4083:X 0.000456539
6 *667:39 0.000284683
7 *667:31 0.00384556
8 *667:27 0.00346291
9 *667:12 0.00138498
10 *3536:S *3417:S0 0.000270209
11 *3536:S *3427:A0 9.9336e-05
12 *3536:S *3427:A1 2.32101e-05
13 *3536:S *686:152 0.000136738
14 *3548:S *778:10 4.26198e-05
15 *667:27 *699:30 0
16 *667:27 *726:12 0
17 *3798:CLK *667:31 3.22879e-05
18 *3798:D *667:31 1.74843e-05
19 *3886:D *667:27 0.000215573
20 *4003:A *667:12 0.000110913
21 *355:8 *3536:S 0.000346297
22 *355:14 *667:39 0.000349386
23 *602:21 *667:12 0.000699024
24 *602:21 *667:27 0.000699207
25 *602:32 *667:27 0.000410379
26 *602:49 *3548:S 2.60152e-05
27 *602:49 *667:27 0.000404047
28 *602:49 *667:31 0.000340341
*RES
1 *4083:X *667:12 49.4757 
2 *667:12 *3542:S 38 
3 *667:12 *667:27 23.3657 
4 *667:27 *667:31 45.16 
5 *667:31 *667:39 35.8207 
6 *667:39 *3538:S 23 
7 *667:31 *3536:S 43.9836 
8 *667:27 *3548:S 41.6664 
*END

*D_NET *668 0.0219642
*CONN
*I *3528:S I *D sky130_fd_sc_hd__mux2_2
*I *3532:S I *D sky130_fd_sc_hd__mux2_2
*I *3518:S I *D sky130_fd_sc_hd__mux2_2
*I *3522:S I *D sky130_fd_sc_hd__mux2_2
*I *3526:S I *D sky130_fd_sc_hd__mux2_2
*I *4084:X O *D sky130_fd_sc_hd__buf_2
*CAP
1 *3528:S 0
2 *3532:S 0
3 *3518:S 0
4 *3522:S 8.4818e-05
5 *3526:S 0
6 *4084:X 0.00195799
7 *668:72 0.000727143
8 *668:51 0.00152781
9 *668:41 0.00138224
10 *668:26 0.000453103
11 *668:20 0.00111949
12 *668:18 0.00256443
13 *668:12 0.00452243
14 *668:12 *3528:A0 2.10502e-05
15 *668:12 *3528:A1 2.62486e-05
16 *668:26 *3526:A1 5.41385e-05
17 *668:41 *3515:A0 0.000151907
18 *668:41 *755:10 0.000222113
19 *668:41 *763:21 0.000229793
20 *668:41 *862:10 4.05745e-05
21 *668:51 *720:10 0.000141888
22 *668:51 *750:10 0.000109343
23 *668:51 *763:21 5.56356e-05
24 *668:72 *3501:A0 0
25 *668:72 *3518:A1 1.83408e-05
26 *3501:A1 *668:72 9.97184e-05
27 *3509:A1 *668:18 0.0002618
28 *3512:A *668:18 0.000145163
29 *3518:A0 *668:72 0.000129412
30 *3522:A0 *3522:S 6.17437e-06
31 *3526:A0 *668:26 9.67842e-05
32 *3529:A *668:12 4.42603e-05
33 *3796:D *668:18 0.000102319
34 *3885:CLK *668:12 1.79329e-05
35 *3885:D *668:12 3.24476e-06
36 *4008:A *668:18 0.000197994
37 *166:8 *668:41 0.000114092
38 *413:99 *668:72 4.83778e-05
39 *413:108 *668:72 0
40 *413:112 *668:51 0
41 *539:10 *668:12 2.34132e-05
42 *540:10 *668:26 0.000167785
43 *544:78 *668:41 0.000169674
44 *544:89 *668:72 0
45 *552:10 *668:41 4.48521e-05
46 *618:6 *668:18 0.000454539
47 *618:8 *668:18 0.00112945
48 *618:12 *668:18 4.22275e-05
49 *618:83 *668:18 0.000140927
50 *622:23 *3522:S 5.40337e-05
51 *622:36 *668:51 0.000588227
52 *628:22 *668:26 0.000495454
53 *628:22 *668:41 0.000274342
54 *631:18 *668:72 1.70886e-05
55 *633:35 *668:18 0.000230718
56 *636:17 *668:26 0.000578159
57 *636:17 *668:41 0.000875504
*RES
1 *4084:X *668:12 49.4107 
2 *668:12 *668:18 39.6057 
3 *668:18 *668:20 15 
4 *668:20 *668:26 31.385 
5 *668:26 *3526:S 23 
6 *668:20 *668:41 35.59 
7 *668:41 *668:51 31.4471 
8 *668:51 *3522:S 39.595 
9 *668:51 *668:72 29.9143 
10 *668:72 *3518:S 23 
11 *668:41 *3532:S 23 
12 *668:12 *3528:S 23 
*END

*D_NET *669 0.0115535
*CONN
*I *3608:S I *D sky130_fd_sc_hd__mux2_2
*I *3606:S I *D sky130_fd_sc_hd__mux2_2
*I *3620:S I *D sky130_fd_sc_hd__mux2_2
*I *4085:X O *D sky130_fd_sc_hd__clkbuf_2
*CAP
1 *3608:S 0
2 *3606:S 0
3 *3620:S 0
4 *4085:X 0.00128217
5 *669:32 0.000247322
6 *669:24 0.00225219
7 *669:14 0.00238013
8 *669:6 0.00165744
9 *669:14 *3608:A0 4.67488e-05
10 *669:24 *3608:A0 2.93747e-05
11 *669:32 *3479:S0 7.91309e-05
12 *669:32 *3620:A1 7.73389e-05
13 *3640:S *669:24 0.000216229
14 *3760:D *669:24 1.74843e-05
15 *358:14 *669:14 0
16 *404:36 *669:14 0.000124894
17 *404:36 *669:24 1.41077e-05
18 *472:8 *669:24 3.71251e-05
19 *488:6 *669:6 1.94812e-05
20 *488:8 *669:6 0.000251675
21 *488:27 *669:6 0.000798444
22 *488:44 *669:24 0.000773003
23 *623:16 *669:14 4.08664e-05
24 *623:16 *669:24 5.3304e-05
25 *625:19 *669:32 8.4047e-05
26 *625:35 *669:24 0.00082735
27 *628:22 *669:32 8.16149e-05
28 *636:17 *669:32 0.000162054
*RES
1 *4085:X *669:6 41.7257 
2 *669:6 *669:14 36.4629 
3 *669:14 *669:24 40.4964 
4 *669:24 *669:32 37.0014 
5 *669:32 *3620:S 23 
6 *669:24 *3606:S 23 
7 *669:14 *3608:S 23 
*END

*D_NET *670 0.0146419
*CONN
*I *3616:S I *D sky130_fd_sc_hd__mux2_2
*I *3614:S I *D sky130_fd_sc_hd__mux2_2
*I *3610:S I *D sky130_fd_sc_hd__mux2_2
*I *3612:S I *D sky130_fd_sc_hd__mux2_2
*I *4111:X O *D sky130_fd_sc_hd__clkbuf_2
*CAP
1 *3616:S 0
2 *3614:S 0
3 *3610:S 0.000786252
4 *3612:S 0
5 *4111:X 0.00132891
6 *670:68 0.00154952
7 *670:62 0.00145868
8 *670:44 0.00189837
9 *670:26 0.00154136
10 *670:12 0.00166732
11 *3610:S *3610:A0 0.000182826
12 *3610:S *3614:A0 5.67058e-05
13 *3610:S *3614:A1 2.18506e-05
14 *3610:S *725:35 0.000284605
15 *3610:S *725:85 2.64616e-05
16 *670:44 *3681:A0 0.000137361
17 *670:44 *3698:A0 0.000351508
18 *670:44 *723:62 1.24376e-05
19 *670:62 *3462:A1 3.47781e-05
20 *670:62 *3616:A0 0.000326973
21 *670:62 *801:8 5.3304e-05
22 *670:62 *817:10 8.27947e-06
23 *670:62 *817:32 5.79559e-05
24 *670:68 *3614:A0 9.58714e-05
25 *3648:S *3610:S 0.000440163
26 *3648:S *670:68 0.000212407
27 *3669:A *670:44 0.000181925
28 *3681:S *670:12 6.57318e-05
29 *3699:A *670:44 0.00016444
30 *470:31 *670:44 0.000235305
31 *488:88 *670:44 0.00028883
32 *488:121 *3610:S 0.000453182
33 *493:10 *3610:S 2.64616e-05
34 *511:8 *670:44 0.000138444
35 *591:12 *670:62 5.01469e-05
36 *591:14 *670:62 8.24312e-05
37 *591:18 *670:62 9.46314e-05
38 *591:18 *670:68 0.000207738
39 *621:37 *3610:S 4.00259e-06
40 *634:27 *670:62 0.000114764
*RES
1 *4111:X *670:12 46.5059 
2 *670:12 *670:26 41.8877 
3 *670:26 *3612:S 23 
4 *4111:X *670:44 47.8571 
5 *670:44 *670:62 44.2721 
6 *670:62 *670:68 12.4493 
7 *670:68 *3610:S 44.1286 
8 *670:68 *3614:S 23 
9 *670:44 *3616:S 23 
*END

*D_NET *671 0.00156858
*CONN
*I *3894:D I *D sky130_fd_sc_hd__dfrtp_2
*I *4070:X O *D sky130_fd_sc_hd__clkdlybuf4s25_1
*CAP
1 *3894:D 0.000164812
2 *4070:X 0.000587477
3 *671:10 0.000752289
4 *671:10 *682:8 0
5 *255:10 *671:10 6.40032e-05
*RES
1 *4070:X *671:10 48.5436 
2 *671:10 *3894:D 41.0036 
*END

*D_NET *672 0.0151248
*CONN
*I *3490:S I *D sky130_fd_sc_hd__mux2_2
*I *3494:S I *D sky130_fd_sc_hd__mux2_2
*I *3492:S I *D sky130_fd_sc_hd__mux2_2
*I *3488:S I *D sky130_fd_sc_hd__mux2_2
*I *4086:X O *D sky130_fd_sc_hd__clkbuf_2
*CAP
1 *3490:S 0
2 *3494:S 0
3 *3492:S 0
4 *3488:S 0.00121001
5 *4086:X 0.000393633
6 *672:32 0.00234913
7 *672:30 0.00131064
8 *672:24 0.000560878
9 *672:22 0.00109419
10 *672:14 0.00152797
11 *672:8 0.00121677
12 *3488:S *725:6 0.000752921
13 *672:8 *802:8 5.3304e-05
14 *672:14 *721:18 0.000138727
15 *672:22 *3446:S1 0.000231363
16 *672:22 *685:79 0.00047559
17 *672:22 *815:30 0
18 *672:30 *3494:A0 5.75756e-06
19 *3490:A1 *672:14 6.17437e-06
20 *3497:A *672:8 0.000189044
21 *3630:A *672:24 5.5792e-05
22 *3646:S *672:14 0
23 *3646:S *672:22 0.000249909
24 *31:9 *3488:S 5.50106e-05
25 *32:9 *672:32 5.56356e-05
26 *114:10 *672:22 8.98982e-05
27 *410:8 *672:30 0
28 *470:25 *672:14 1.82343e-05
29 *470:31 *672:14 0.00045002
30 *479:8 *672:14 0.00183673
31 *516:24 *672:14 0.000323446
32 *633:6 *3488:S 3.77997e-05
33 *633:21 *3488:S 0.000107125
34 *633:21 *672:32 0.000176867
35 *634:10 *672:32 0.000101428
36 *664:16 *672:24 5.07687e-05
*RES
1 *4086:X *672:8 44.815 
2 *672:8 *672:14 40.4164 
3 *672:14 *672:22 45.2457 
4 *672:22 *672:24 7.76786 
5 *672:24 *672:30 33.3143 
6 *672:30 *672:32 21.1079 
7 *672:32 *3488:S 42.865 
8 *672:32 *3492:S 23 
9 *672:24 *3494:S 23 
10 *672:14 *3490:S 23 
*END

*D_NET *673 0.000821579
*CONN
*I *3297:A2 I *D sky130_fd_sc_hd__a22oi_4
*I *4112:X O *D sky130_fd_sc_hd__clkdlybuf4s25_1
*CAP
1 *3297:A2 0
2 *4112:X 0.000208295
3 *673:8 0.000208295
4 *673:8 *3312:A 6.17437e-06
5 *230:8 *673:8 0.000398814
*RES
1 *4112:X *673:8 27.93 
2 *673:8 *3297:A2 23 
*END

*D_NET *674 0.0149145
*CONN
*I *3477:A1 I *D sky130_fd_sc_hd__o21a_2
*I *3453:A1 I *D sky130_fd_sc_hd__o21a_2
*I *3472:A1 I *D sky130_fd_sc_hd__o21ai_2
*I *3432:A1 I *D sky130_fd_sc_hd__o21ai_2
*I *4087:X O *D sky130_fd_sc_hd__clkbuf_2
*CAP
1 *3477:A1 0
2 *3453:A1 6.88228e-05
3 *3472:A1 0.000278022
4 *3432:A1 0.000110149
5 *4087:X 0
6 *674:54 0.00053742
7 *674:39 0.000716392
8 *674:18 0.000127639
9 *674:12 0.000737813
10 *674:8 0.00192792
11 *674:6 0.00103972
12 *3472:A1 *683:69 0
13 *674:8 *3470:A1 0
14 *674:8 *685:10 0.000261945
15 *674:8 *685:18 0.00170122
16 *674:8 *727:34 0.00170029
17 *674:12 *681:58 6.69016e-05
18 *674:12 *685:10 1.22822e-05
19 *674:12 *685:138 0.0015255
20 *674:54 *3544:A0 0.000237027
21 *3544:S *674:54 0.000100477
22 *3773:CLK *674:54 0.000167354
23 *3980:A *674:8 8.1791e-05
24 *26:22 *3472:A1 0.000108324
25 *67:8 *674:54 0.000137788
26 *75:10 *674:54 5.76837e-05
27 *101:8 *674:8 8.51432e-05
28 *352:44 *3472:A1 5.57755e-05
29 *352:44 *674:8 1.79888e-05
30 *352:44 *674:12 7.59794e-05
31 *352:58 *3453:A1 8.82055e-05
32 *352:58 *674:39 0.000171111
33 *360:14 *674:18 1.19796e-05
34 *388:18 *674:54 1.35714e-05
35 *392:14 *3472:A1 0
36 *392:14 *674:8 0
37 *413:16 *3472:A1 8.4047e-05
38 *461:26 *674:12 0.000968503
39 *461:34 *3453:A1 0.000123924
40 *461:34 *674:39 0.000247714
41 *477:8 *674:8 0
42 *488:65 *674:8 0
43 *525:115 *674:8 0
44 *544:32 *674:12 0.000119313
45 *544:106 *674:54 0.00039629
46 *544:116 *674:54 7.43426e-05
47 *599:59 *3472:A1 0
48 *612:24 *674:54 0.000485212
49 *618:83 *674:54 0.000100047
50 *633:35 *674:18 9.28842e-05
*RES
1 *4087:X *674:6 38 
2 *674:6 *674:8 35.0071 
3 *674:8 *674:12 36.1079 
4 *674:12 *674:18 32.61 
5 *674:18 *3432:A1 23 
6 *674:8 *3472:A1 43.7793 
7 *3432:A1 *674:39 27.9093 
8 *674:39 *3453:A1 25.5271 
9 *674:39 *674:54 46.8821 
10 *674:54 *3477:A1 23 
*END

*D_NET *675 0.00465986
*CONN
*I *3250:B I *D sky130_fd_sc_hd__nor2_8
*I *3366:A2_N I *D sky130_fd_sc_hd__a2bb2oi_2
*I *4088:X O *D sky130_fd_sc_hd__buf_2
*CAP
1 *3250:B 0.000131556
2 *3366:A2_N 0
3 *4088:X 0.000334527
4 *675:10 0.000780233
5 *675:8 0.000983204
6 *3250:B *3940:RESET_B 0.000153308
7 *3250:B *683:104 0
8 *675:10 *3220:C 0.000110913
9 *675:10 *3940:RESET_B 5.75798e-05
10 *675:10 *681:110 0.000543779
11 *675:10 *683:104 0
12 *675:10 *699:10 0.000495953
13 *675:10 *715:25 0.000173472
14 *675:10 *715:27 1.12487e-05
15 *675:10 *729:20 6.33771e-05
16 *675:10 *729:37 0.000388792
17 *675:10 *732:10 7.87022e-05
18 *3250:A *3250:B 0
19 *192:8 *675:8 0.000353214
*RES
1 *4088:X *675:8 42.9093 
2 *675:8 *675:10 18.8086 
3 *675:10 *3366:A2_N 38 
4 *675:10 *3250:B 41.3143 
*END

*D_NET *676 0.00625912
*CONN
*I *3318:A2_N I *D sky130_fd_sc_hd__a2bb2oi_2
*I *3286:C1 I *D sky130_fd_sc_hd__a311oi_1
*I *3307:C1 I *D sky130_fd_sc_hd__a311o_2
*I *3296:A2_N I *D sky130_fd_sc_hd__a2bb2o_4
*I *4089:X O *D sky130_fd_sc_hd__clkbuf_2
*CAP
1 *3318:A2_N 0.000119391
2 *3286:C1 6.28158e-05
3 *3307:C1 0
4 *3296:A2_N 0.000216207
5 *4089:X 4.99221e-05
6 *676:31 0.000236045
7 *676:16 0.000539163
8 *676:12 0.000280254
9 *676:10 0.000891113
10 *676:8 0.000691116
11 *676:10 *3319:B1 0.000216356
12 *676:10 *708:24 0.000138727
13 *676:10 *708:39 0.000166513
14 *676:10 *884:14 0.000765041
15 *676:10 *884:16 0.000417591
16 *676:10 *884:30 6.12484e-05
17 *676:10 *906:10 6.7177e-06
18 *676:31 *3307:A3 0.00024521
19 *3286:B1 *3286:C1 2.30292e-05
20 *214:12 *676:10 8.35568e-05
21 *214:14 *676:10 9.35749e-05
22 *214:14 *676:12 0.000126936
23 *214:14 *676:16 2.70366e-05
24 *214:24 *676:16 7.03869e-05
25 *214:24 *676:31 9.74235e-05
26 *219:8 *676:16 7.03869e-05
27 *219:8 *676:31 0
28 *225:57 *676:10 0.000400322
29 *228:10 *676:10 0
30 *228:10 *676:12 0
31 *228:10 *676:16 0
32 *229:10 *3296:A2_N 9.91895e-05
33 *596:30 *676:31 1.05441e-05
34 *643:6 *676:8 5.3304e-05
*RES
1 *4089:X *676:8 38.6214 
2 *676:8 *676:10 21.6257 
3 *676:10 *676:12 3.31429 
4 *676:12 *676:16 17.61 
5 *676:16 *3296:A2_N 26.9564 
6 *676:16 *676:31 35.365 
7 *676:31 *3307:C1 23 
8 *676:12 *3286:C1 39.0979 
9 *676:10 *3318:A2_N 40.0507 
*END

*D_NET *677 0.00120813
*CONN
*I *4113:A I *D sky130_fd_sc_hd__clkbuf_4
*I *4093:X O *D sky130_fd_sc_hd__buf_1
*CAP
1 *4113:A 0.000132961
2 *4093:X 0.00020853
3 *677:8 0.000341492
4 *677:8 *3922:RESET_B 0
5 *677:8 *882:10 0.000222113
6 *3922:CLK *677:8 7.28526e-05
7 *14:10 *4113:A 0.000173179
8 *14:10 *677:8 0
9 *35:13 *677:8 0
10 *637:6 *4113:A 5.70006e-05
*RES
1 *4093:X *677:8 43.075 
2 *677:8 *4113:A 41.48 
*END

*D_NET *678 0.00137659
*CONN
*I *4114:A I *D sky130_fd_sc_hd__clkbuf_4
*I *4092:X O *D sky130_fd_sc_hd__buf_1
*CAP
1 *4114:A 0.000126958
2 *4092:X 0.000189353
3 *678:8 0.000316311
4 *4114:A *4039:A 0.000318782
5 *4114:A *710:8 9.8203e-05
6 *642:8 *678:8 0.000326983
*RES
1 *4092:X *678:8 42.3707 
2 *678:8 *4114:A 41.48 
*END

*D_NET *679 0.000491452
*CONN
*I *4115:A I *D sky130_fd_sc_hd__clkbuf_4
*I *4091:X O *D sky130_fd_sc_hd__buf_1
*CAP
1 *4115:A 0.000150064
2 *4091:X 9.35545e-05
3 *679:8 0.000243618
4 *679:8 *3893:RESET_B 4.21594e-06
5 *679:8 *718:21 0
6 *38:8 *679:8 0
*RES
1 *4091:X *679:8 39.5536 
2 *679:8 *4115:A 40.0507 
*END

*D_NET *680 0.00104726
*CONN
*I *4116:A I *D sky130_fd_sc_hd__clkbuf_4
*I *4090:X O *D sky130_fd_sc_hd__buf_1
*CAP
1 *4116:A 0.000173936
2 *4090:X 0.00011951
3 *680:8 0.000293446
4 *4116:A *3903:D 0.000141095
5 *4116:A *4042:A 9.89901e-05
6 *680:8 *3888:SET_B 0.000107677
7 *680:8 *713:12 0.000112608
8 *680:8 *877:8 0
*RES
1 *4090:X *680:8 40.9621 
2 *680:8 *4116:A 41.48 
*END

*D_NET *681 0.0404061
*CONN
*I *3428:S I *D sky130_fd_sc_hd__mux2_2
*I *3418:S I *D sky130_fd_sc_hd__mux2_2
*I *3436:S I *D sky130_fd_sc_hd__mux2_2
*I *3222:C I *D sky130_fd_sc_hd__nand4_2
*I *3223:A I *D sky130_fd_sc_hd__inv_2
*I *3431:A1 I *D sky130_fd_sc_hd__o21a_2
*I *3475:A I *D sky130_fd_sc_hd__or2_2
*I *3451:A I *D sky130_fd_sc_hd__or2_2
*I *4017:X O *D sky130_fd_sc_hd__clkdlybuf4s25_1
*CAP
1 *3428:S 0.000272157
2 *3418:S 0
3 *3436:S 5.26993e-05
4 *3222:C 2.79004e-05
5 *3223:A 0
6 *3431:A1 0
7 *3475:A 0
8 *3451:A 2.10561e-05
9 *4017:X 0.000373287
10 *681:141 0.000660271
11 *681:124 0.00320705
12 *681:116 0.00630009
13 *681:110 0.00372097
14 *681:77 0.000676343
15 *681:58 0.00275297
16 *681:52 0.00222621
17 *681:44 0.000979581
18 *681:32 0.00273079
19 *681:22 0.00319155
20 *681:10 0.00148377
21 *3222:C *3222:D 5.50106e-05
22 *3436:S *790:8 4.68559e-05
23 *3451:A *686:41 2.93845e-05
24 *681:10 *687:24 8.26569e-05
25 *681:10 *699:10 0.000155068
26 *681:10 *732:10 0.000136738
27 *681:22 *3935:RESET_B 0.000140949
28 *681:22 *4078:A 1.17152e-05
29 *681:22 *687:24 0.000202179
30 *681:22 *687:135 0.000456486
31 *681:22 *699:10 0.000184825
32 *681:22 *726:23 0
33 *681:22 *737:10 0.000202663
34 *681:22 *899:14 0.000147314
35 *681:32 *3458:A0 4.34902e-05
36 *681:32 *700:48 3.53115e-05
37 *681:32 *707:91 0.000349862
38 *681:32 *857:6 2.64577e-05
39 *681:32 *865:12 1.05235e-05
40 *681:44 *724:87 0.000325164
41 *681:44 *865:28 4.82774e-05
42 *681:52 *724:87 2.32101e-05
43 *681:110 *715:25 0.000543779
44 *681:124 *853:19 4.79531e-05
45 *681:141 *790:8 0.000110292
46 *3231:A2 *681:22 0
47 *3255:B *681:22 0
48 *3418:A1 *681:141 0.000272377
49 *3428:A0 *3428:S 5.56356e-05
50 *3432:A2 *681:52 5.3304e-05
51 *3440:A0 *681:58 7.88828e-05
52 *3481:A2 *681:77 0.000177878
53 *3754:S *681:44 0.00014752
54 *3807:CLK *681:77 2.60152e-05
55 *3877:D *681:32 7.10068e-06
56 *3954:A *681:32 0.000113456
57 *81:8 *681:141 0
58 *83:8 *681:77 0.000216694
59 *169:8 *681:22 5.61414e-05
60 *173:8 *681:22 2.64616e-05
61 *173:56 *681:22 0.000149822
62 *173:60 *681:22 0.00028607
63 *173:71 *681:22 0.000191439
64 *173:83 *681:22 2.21344e-05
65 *174:10 *681:22 7.67231e-05
66 *180:10 *681:22 4.60116e-05
67 *202:88 *681:32 1.32939e-05
68 *352:50 *681:44 0.000473495
69 *352:50 *681:52 9.5877e-05
70 *352:107 *681:58 6.07929e-05
71 *352:107 *681:77 3.4702e-05
72 *354:8 *3428:S 0.000261808
73 *355:14 *3428:S 0.000134473
74 *357:8 *681:52 0.000164282
75 *363:8 *3436:S 2.95526e-05
76 *363:18 *681:58 0
77 *363:18 *681:77 0
78 *375:10 *681:58 1.14452e-05
79 *375:10 *681:77 0.000151898
80 *376:8 *681:58 4.13358e-05
81 *382:10 *681:32 7.03663e-05
82 *383:14 *681:32 1.058e-05
83 *384:10 *681:44 5.44904e-05
84 *397:10 *681:77 0.000791172
85 *402:14 *681:58 0
86 *413:24 *681:44 4.21062e-05
87 *413:85 *3428:S 0.000274234
88 *461:26 *681:52 0
89 *461:26 *681:58 0.000185434
90 *461:88 *681:141 3.53698e-05
91 *461:98 *681:141 0.000790374
92 *464:10 *3436:S 4.15283e-06
93 *464:10 *681:141 8.07501e-05
94 *537:8 *3428:S 0.000251566
95 *537:8 *681:124 0.000161483
96 *544:22 *681:44 0.00014693
97 *544:32 *681:44 2.11157e-05
98 *544:32 *681:58 0.000149098
99 *544:38 *681:58 0.000404029
100 *562:347 *681:32 0.000163729
101 *577:25 *3436:S 8.65242e-05
102 *587:42 *3428:S 0
103 *599:59 *681:32 0.000180232
104 *610:12 *681:77 1.89075e-05
105 *618:47 *3451:A 2.93845e-05
106 *630:14 *3428:S 0.000160005
107 *642:45 *681:22 7.80354e-05
108 *652:10 *681:77 3.58553e-05
109 *662:82 *681:141 0
110 *674:12 *681:58 6.69016e-05
111 *675:10 *681:110 0.000543779
*RES
1 *4017:X *681:10 41.8321 
2 *681:10 *681:22 48.5779 
3 *681:22 *681:32 43.6996 
4 *681:32 *681:44 39.9919 
5 *681:44 *681:52 33.3557 
6 *681:52 *681:58 46.5479 
7 *681:58 *3451:A 38.6214 
8 *681:58 *681:77 32.4 
9 *681:77 *3475:A 23 
10 *681:44 *3431:A1 23 
11 *681:22 *3223:A 23 
12 *681:10 *3222:C 38.6214 
13 *4017:X *681:110 45.3639 
14 *681:110 *681:116 23.2688 
15 *681:116 *681:124 23.4659 
16 *681:124 *3436:S 39.2946 
17 *681:124 *681:141 31.3539 
18 *681:141 *3418:S 23 
19 *681:116 *3428:S 47.7254 
*END

*D_NET *682 0.000201562
*CONN
*I *3895:D I *D sky130_fd_sc_hd__dfrtp_2
*I *4071:X O *D sky130_fd_sc_hd__clkdlybuf4s25_1
*CAP
1 *3895:D 0
2 *4071:X 0.000100781
3 *682:8 0.000100781
4 *671:10 *682:8 0
*RES
1 *4071:X *682:8 39.9057 
2 *682:8 *3895:D 38 
*END

*D_NET *683 0.0196683
*CONN
*I *3468:S I *D sky130_fd_sc_hd__mux2_2
*I *3256:B1 I *D sky130_fd_sc_hd__a311o_2
*I *3471:A1 I *D sky130_fd_sc_hd__o21a_2
*I *3460:S I *D sky130_fd_sc_hd__mux2_2
*I *3444:S I *D sky130_fd_sc_hd__mux2_2
*I *3229:B I *D sky130_fd_sc_hd__nand4_4
*I *4018:X O *D sky130_fd_sc_hd__clkdlybuf4s25_1
*CAP
1 *3468:S 0.00134108
2 *3256:B1 0
3 *3471:A1 7.21124e-05
4 *3460:S 0
5 *3444:S 0.000181312
6 *3229:B 0.000313743
7 *4018:X 8.10871e-05
8 *683:104 0.00173253
9 *683:69 0.0010647
10 *683:59 0.00291804
11 *683:44 0.00234085
12 *683:38 0.00118808
13 *683:30 0.00144237
14 *683:8 0.000153683
15 *3229:B *3229:A 5.45644e-05
16 *3229:B *687:24 2.74181e-05
17 *683:8 *687:12 4.82347e-05
18 *683:30 *3228:C 1.35714e-05
19 *683:30 *687:24 5.58003e-05
20 *683:30 *715:12 9.12808e-05
21 *683:30 *729:20 0.000112422
22 *683:38 *715:29 0
23 *683:38 *726:23 0.00033469
24 *683:44 *3224:B 0.000222104
25 *683:44 *697:19 0.000150977
26 *683:44 *715:29 0
27 *683:44 *726:23 0.000128223
28 *683:59 *726:23 0.00018064
29 *683:59 *727:8 0.00119738
30 *683:104 *715:25 3.574e-05
31 *683:104 *726:12 0
32 *3229:D *683:30 2.95526e-05
33 *3229:D *683:38 9.86777e-06
34 *3250:A *683:104 0.000167452
35 *3250:B *683:104 0
36 *3258:A *3444:S 6.17437e-06
37 *3258:A *683:44 5.41385e-05
38 *3468:A0 *3468:S 7.43345e-05
39 *3468:A1 *3468:S 3.91683e-06
40 *3471:B1 *3471:A1 4.00259e-06
41 *3472:A1 *683:69 0
42 *3739:S *3468:S 5.41385e-05
43 *3740:A *3468:S 5.17574e-05
44 *170:10 *683:38 0.000151898
45 *170:10 *683:44 1.14452e-05
46 *171:8 *683:38 0.000171485
47 *173:10 *683:59 0.000550422
48 *173:83 *683:44 0
49 *177:6 *683:38 1.358e-05
50 *177:10 *683:104 0.000426005
51 *197:10 *683:44 0.000169665
52 *202:78 *3471:A1 2.11157e-05
53 *284:10 *683:8 2.94193e-05
54 *352:34 *3471:A1 9.64588e-05
55 *352:44 *683:69 0
56 *373:10 *683:59 4.83838e-05
57 *393:14 *3471:A1 2.00104e-05
58 *413:16 *683:69 0
59 *432:12 *683:59 0
60 *441:10 *683:59 0.000105232
61 *442:10 *683:59 0
62 *451:8 *3471:A1 4.5051e-05
63 *461:18 *683:59 0.000159576
64 *461:18 *683:69 0.000382716
65 *562:302 *683:59 8.39118e-05
66 *565:109 *3229:B 0.000141347
67 *565:109 *683:30 1.61385e-05
68 *599:59 *683:69 0.000352934
69 *632:25 *683:59 0.000246435
70 *635:28 *683:59 1.03597e-05
71 *642:64 *683:38 0.000467503
72 *642:64 *683:104 9.28078e-06
73 *675:10 *683:104 0
*RES
1 *4018:X *683:8 39.5536 
2 *683:8 *3229:B 40.4236 
3 *3229:B *683:30 28.075 
4 *683:30 *683:38 33.415 
5 *683:38 *683:44 23.6586 
6 *683:44 *3444:S 25.5271 
7 *683:44 *683:59 47.2621 
8 *683:59 *683:69 31.5041 
9 *683:69 *3460:S 23 
10 *683:59 *3471:A1 48.0662 
11 *683:38 *3256:B1 38 
12 *683:30 *683:104 38.5964 
13 *683:104 *3468:S 43.2171 
*END

*D_NET *684 0.0237909
*CONN
*I *3419:S1 I *D sky130_fd_sc_hd__mux4_2
*I *3420:S1 I *D sky130_fd_sc_hd__mux4_2
*I *3437:S1 I *D sky130_fd_sc_hd__mux4_2
*I *3454:S1 I *D sky130_fd_sc_hd__mux4_2
*I *3455:S1 I *D sky130_fd_sc_hd__mux4_2
*I *3438:S1 I *D sky130_fd_sc_hd__mux4_2
*I *3479:S1 I *D sky130_fd_sc_hd__mux4_2
*I *3429:S1 I *D sky130_fd_sc_hd__mux4_2
*I *4019:X O *D sky130_fd_sc_hd__clkdlybuf4s25_1
*CAP
1 *3419:S1 0
2 *3420:S1 0.000253649
3 *3437:S1 6.55878e-05
4 *3454:S1 0
5 *3455:S1 0.000183864
6 *3438:S1 0.000292635
7 *3479:S1 0.0002872
8 *3429:S1 0.000125251
9 *4019:X 6.62e-05
10 *684:119 0.000136244
11 *684:86 0.00040154
12 *684:71 0.00213884
13 *684:50 0.00230488
14 *684:48 0.00108344
15 *684:31 0.00156925
16 *684:27 0.00243272
17 *684:21 0.00286102
18 *684:8 0.00146017
19 *3420:S1 *3420:A0 1.24376e-05
20 *3420:S1 *3420:A1 9.91481e-05
21 *3429:S1 *3711:A1 1.14452e-05
22 *3429:S1 *845:10 0.000169665
23 *3437:S1 *3437:A3 2.93747e-05
24 *3455:S1 *3455:S0 0.000320642
25 *3455:S1 *3648:A0 9.28945e-05
26 *3455:S1 *725:39 3.81451e-05
27 *3455:S1 *816:10 4.6318e-06
28 *3479:S1 *719:68 0.000224649
29 *3479:S1 *747:14 8.6338e-05
30 *3479:S1 *803:27 9.5877e-05
31 *684:27 *689:52 3.68368e-05
32 *684:31 *3479:S0 0
33 *684:48 *719:68 0.000355029
34 *684:48 *843:12 3.69001e-05
35 *684:86 *3454:A2 8.62783e-05
36 *684:86 *3454:S0 4.83949e-05
37 *684:86 *3455:S0 0.000691771
38 *684:86 *3700:A0 0.000274553
39 *684:86 *725:39 7.1357e-05
40 *684:86 *725:59 3.64353e-05
41 *684:86 *848:8 0.000310647
42 *3422:A0 *684:21 8.21011e-05
43 *3422:A0 *684:27 9.77287e-05
44 *3424:A1 *684:27 0.000177433
45 *3424:S *684:27 2.42565e-05
46 *3644:S *3438:S1 0
47 *3713:A0 *684:48 1.50326e-05
48 *3865:D *684:21 1.64354e-05
49 *39:10 *684:27 0.000283897
50 *39:10 *684:31 0.000111148
51 *121:8 *684:50 0.000378492
52 *128:10 *3429:S1 6.78081e-05
53 *128:10 *684:8 3.3746e-05
54 *131:10 *684:86 3.25397e-05
55 *142:8 *684:31 0.000209913
56 *349:14 *684:27 0.000139352
57 *350:73 *684:27 1.5769e-05
58 *365:12 *3438:S1 0
59 *365:12 *684:50 0
60 *367:14 *684:27 0.000227208
61 *401:12 *684:31 0.000457321
62 *405:14 *684:27 0
63 *405:14 *684:31 0
64 *473:10 *3438:S1 0.000222123
65 *501:10 *684:50 0.000141879
66 *507:93 *3429:S1 8.33262e-05
67 *507:93 *684:21 0.000477495
68 *512:10 *684:86 6.07611e-06
69 *516:57 *684:50 5.65491e-05
70 *516:70 *684:48 0.000389522
71 *516:70 *684:50 0.000107548
72 *516:127 *684:119 3.26241e-05
73 *524:8 *684:31 0
74 *524:8 *684:48 0
75 *528:10 *684:48 0.000174515
76 *528:10 *684:50 0.000122304
77 *562:75 *684:119 0.000155417
78 *609:40 *684:27 0
79 *610:45 *684:119 0.000152951
80 *621:18 *684:50 0
81 *621:22 *3438:S1 0
82 *621:22 *684:50 0
83 *625:58 *684:27 0.000135753
84 *625:99 *684:21 0.000366658
85 *633:35 *3429:S1 0
86 *633:35 *684:8 0
*RES
1 *4019:X *684:8 39.2014 
2 *684:8 *3429:S1 42.0186 
3 *684:8 *684:21 34.2021 
4 *684:21 *684:27 40.0021 
5 *684:27 *684:31 31.6957 
6 *684:31 *3479:S1 29.5043 
7 *684:31 *684:48 30.37 
8 *684:48 *684:50 12.47 
9 *684:50 *3438:S1 43.7586 
10 *684:50 *684:71 49.6786 
11 *684:71 *3455:S1 42.3707 
12 *684:71 *684:86 28.2571 
13 *684:86 *3454:S1 23 
14 *684:48 *3437:S1 39.0979 
15 *684:27 *3420:S1 42.4536 
16 *684:21 *684:119 34.64 
17 *684:119 *3419:S1 23 
*END

*D_NET *685 0.029993
*CONN
*I *4019:A I *D sky130_fd_sc_hd__clkdlybuf4s25_1
*I *3469:S1 I *D sky130_fd_sc_hd__mux4_2
*I *3445:S1 I *D sky130_fd_sc_hd__mux4_2
*I *3446:S1 I *D sky130_fd_sc_hd__mux4_2
*I *3462:S1 I *D sky130_fd_sc_hd__mux4_2
*I *3461:S1 I *D sky130_fd_sc_hd__mux4_2
*I *3430:S1 I *D sky130_fd_sc_hd__mux4_2
*I *3478:S1 I *D sky130_fd_sc_hd__mux4_2
*I *4020:X O *D sky130_fd_sc_hd__clkdlybuf4s25_1
*CAP
1 *4019:A 0
2 *3469:S1 0.000109511
3 *3445:S1 0
4 *3446:S1 0.000452623
5 *3462:S1 0
6 *3461:S1 0
7 *3430:S1 0
8 *3478:S1 0
9 *4020:X 0.000842737
10 *685:138 0.000516681
11 *685:117 0.000546335
12 *685:93 0.000640041
13 *685:79 0.00186035
14 *685:73 0.00162241
15 *685:57 0.000273688
16 *685:40 0.00150584
17 *685:34 0.00248344
18 *685:32 0.00128227
19 *685:24 0.00108505
20 *685:18 0.00202815
21 *685:10 0.00164864
22 *3446:S1 *3446:A2 0.000182213
23 *3446:S1 *3446:A3 5.82853e-05
24 *3446:S1 *3446:S0 0.000495019
25 *3446:S1 *807:12 0.000189857
26 *3469:S1 *3469:A1 5.3304e-05
27 *685:10 *692:10 5.72077e-05
28 *685:18 *3469:A1 0.000220511
29 *685:18 *3652:A0 7.41334e-05
30 *685:18 *692:10 1.16455e-05
31 *685:18 *721:64 0
32 *685:18 *810:32 0.000151909
33 *685:18 *818:8 7.75329e-06
34 *685:18 *834:10 0.000159285
35 *685:24 *3461:A1 5.5792e-05
36 *685:24 *3461:S0 9.17737e-05
37 *685:32 *3461:A3 0.000191417
38 *685:40 *3625:A0 0.000195119
39 *685:40 *3723:A1 5.56203e-05
40 *685:40 *719:82 0.000447224
41 *685:40 *719:97 0.000403962
42 *685:57 *3430:A2 4.85126e-05
43 *685:57 *3642:A0 2.3853e-05
44 *685:93 *3462:A1 5.67058e-05
45 *685:93 *3462:A3 0.000102389
46 *685:93 *3462:S0 8.79516e-05
47 *685:117 *3445:A2 0.000140313
48 *685:117 *3445:A3 0.000117582
49 *685:117 *3445:S0 0.000530116
50 *3625:A1 *685:40 9.84794e-05
51 *3646:S *685:79 0.000119828
52 *3835:CLK *685:93 1.35999e-05
53 *3867:CLK *685:117 3.08966e-05
54 *3867:D *685:117 5.90084e-05
55 *3980:A *685:73 0.000190085
56 *3981:A *685:73 5.55911e-05
57 *3981:A *685:79 0.000201161
58 *4110:A *685:93 0.000157459
59 *106:8 *3446:S1 2.35118e-06
60 *114:10 *685:93 8.26478e-05
61 *138:8 *685:79 0.000166513
62 *148:10 *685:32 0.00024502
63 *173:37 *685:18 5.68297e-05
64 *350:57 *685:40 0
65 *352:44 *685:10 5.50049e-05
66 *386:8 *685:93 3.58055e-05
67 *472:12 *685:57 0.000376242
68 *486:10 *685:32 0
69 *488:65 *685:73 0
70 *488:65 *685:79 0.000185278
71 *492:10 *685:79 0.000125894
72 *507:46 *685:57 6.43005e-05
73 *507:65 *685:40 0.000144603
74 *525:29 *685:18 4.35681e-06
75 *525:115 *685:10 0.000136007
76 *525:115 *685:18 4.69488e-06
77 *525:115 *685:138 0.000141954
78 *529:8 *685:73 9.66585e-05
79 *544:32 *685:138 0.000661583
80 *582:8 *685:57 0.000401807
81 *598:14 *685:79 5.97612e-05
82 *598:24 *685:79 0
83 *665:12 *685:18 0
84 *665:14 *685:34 0.000343246
85 *665:14 *685:40 2.83509e-05
86 *665:26 *685:40 9.01193e-05
87 *665:56 *685:18 0.000242738
88 *672:22 *3446:S1 0.000231363
89 *672:22 *685:79 0.00047559
90 *674:8 *685:10 0.000261945
91 *674:8 *685:18 0.00170122
92 *674:12 *685:10 1.22822e-05
93 *674:12 *685:138 0.0015255
*RES
1 *4020:X *685:10 46.2857 
2 *685:10 *685:18 47.2521 
3 *685:18 *685:24 8.88643 
4 *685:24 *685:32 42.18 
5 *685:32 *685:34 10.6264 
6 *685:34 *685:40 38.1379 
7 *685:40 *3478:S1 38 
8 *685:34 *685:57 37.9543 
9 *685:57 *3430:S1 23 
10 *685:24 *3461:S1 23 
11 *685:18 *685:73 20.8414 
12 *685:73 *685:79 18.4668 
13 *685:79 *685:93 28.6611 
14 *685:93 *3462:S1 23 
15 *685:79 *3446:S1 49.3825 
16 *685:73 *685:117 27.6979 
17 *685:117 *3445:S1 23 
18 *685:10 *3469:S1 39.5743 
19 *4020:X *685:138 39.82 
20 *685:138 *4019:A 23 
*END

*D_NET *686 0.0278997
*CONN
*I *3427:S1 I *D sky130_fd_sc_hd__mux4_2
*I *3417:S1 I *D sky130_fd_sc_hd__mux4_2
*I *3416:S1 I *D sky130_fd_sc_hd__mux4_2
*I *3426:S1 I *D sky130_fd_sc_hd__mux4_2
*I *3474:S1 I *D sky130_fd_sc_hd__mux4_2
*I *3452:S1 I *D sky130_fd_sc_hd__mux4_2
*I *3450:S1 I *D sky130_fd_sc_hd__mux4_2
*I *3476:S1 I *D sky130_fd_sc_hd__mux4_2
*I *4021:X O *D sky130_fd_sc_hd__clkdlybuf4s25_1
*CAP
1 *3427:S1 0
2 *3417:S1 0
3 *3416:S1 0
4 *3426:S1 0
5 *3474:S1 0
6 *3452:S1 0.000111002
7 *3450:S1 0
8 *3476:S1 0
9 *4021:X 0.000501171
10 *686:152 0.000395377
11 *686:134 0.00104344
12 *686:122 0.00104344
13 *686:120 0.00122159
14 *686:110 0.00170362
15 *686:102 0.00104955
16 *686:83 0.00132817
17 *686:49 9.87681e-05
18 *686:41 0.00120705
19 *686:35 0.0020391
20 *686:33 0.00232751
21 *686:22 0.000381664
22 *686:16 0.00172608
23 *686:10 0.00185298
24 *686:10 *3426:S0 0.000557559
25 *686:10 *757:8 0.000171133
26 *686:10 *861:23 5.75756e-06
27 *686:16 *861:23 0.000213399
28 *686:35 *3452:A2 0
29 *686:35 *3562:A0 4.2812e-06
30 *686:35 *776:8 7.4059e-05
31 *686:41 *3452:A2 0
32 *686:41 *3562:A0 0.000229691
33 *686:41 *792:16 0
34 *686:41 *864:24 0.000139352
35 *686:83 *3474:A0 0.000354122
36 *686:83 *3474:S0 0.000295635
37 *686:83 *3603:A0 8.53029e-05
38 *686:83 *720:40 0.000402878
39 *686:83 *720:81 1.38615e-05
40 *686:120 *772:31 1.32939e-05
41 *686:134 *3417:A2 0.000225399
42 *686:134 *3417:A3 5.67058e-05
43 *686:134 *756:10 0.000110913
44 *686:152 *3426:S0 0
45 *686:152 *3427:A1 5.3304e-05
46 *686:152 *3591:A1 9.6077e-05
47 *686:152 *4077:A 0
48 *686:152 *773:10 0.000108681
49 *3451:A *686:41 2.93845e-05
50 *3536:S *686:152 0.000136738
51 *3537:A *686:120 0.000207024
52 *3562:A1 *686:41 0.00024576
53 *3597:S *686:41 6.82228e-06
54 *3603:S *686:83 0.000138214
55 *3604:A *686:83 0.0001021
56 *3791:CLK *686:35 0
57 *3791:CLK *686:83 2.93431e-05
58 *3791:D *686:83 1.64354e-05
59 *3799:CLK *686:22 7.41184e-05
60 *3799:CLK *686:33 0
61 *3800:D *686:134 1.74843e-05
62 *3801:D *686:120 5.34647e-06
63 *3971:A *686:10 1.35333e-05
64 *3992:A *686:49 2.64616e-05
65 *63:10 *686:120 2.94066e-05
66 *70:12 *686:35 5.73539e-05
67 *72:8 *686:152 1.22906e-05
68 *78:10 *686:22 0
69 *86:10 *686:83 2.19315e-05
70 *346:16 *686:120 0.000169665
71 *346:16 *686:134 5.3304e-05
72 *356:14 *686:10 0.000163287
73 *356:14 *686:16 0.000454966
74 *434:8 *686:152 0
75 *443:14 *686:120 0.000144501
76 *452:35 *686:16 5.56203e-05
77 *452:37 *686:16 0.00147171
78 *461:82 *686:33 0.000120258
79 *461:82 *686:35 6.15719e-05
80 *461:108 *686:120 7.75329e-06
81 *463:10 *686:110 8.4047e-05
82 *466:10 *686:41 0.000519294
83 *544:61 *686:49 0.000195248
84 *546:12 *686:10 3.04021e-05
85 *584:12 *686:134 0.000141144
86 *584:14 *686:134 0.000138569
87 *584:16 *686:134 0.000189291
88 *585:16 *686:120 9.60907e-05
89 *585:38 *686:120 0.000192077
90 *588:57 *686:110 4.16764e-05
91 *588:57 *686:152 0
92 *611:16 *686:33 7.61385e-05
93 *618:25 *686:49 0.00019747
94 *618:47 *686:41 0.000258469
95 *618:83 *686:35 0.000109352
96 *624:14 *686:110 3.97399e-05
97 *624:42 *686:152 0.000139647
98 *626:68 *686:120 9.03964e-06
99 *628:20 *686:134 5.561e-05
100 *630:14 *686:16 0
101 *630:16 *686:16 0
102 *662:46 *686:83 6.70361e-05
103 *666:49 *686:22 0
104 *666:49 *686:33 2.12347e-06
105 *666:49 *686:35 7.35144e-05
106 *666:72 *686:120 0.00012947
*RES
1 *4021:X *686:10 47.3421 
2 *686:10 *686:16 44.1657 
3 *686:16 *686:22 34.0186 
4 *686:22 *3476:S1 23 
5 *686:22 *686:33 18.48 
6 *686:33 *686:35 15.2871 
7 *686:35 *686:41 38.8007 
8 *686:41 *686:49 33.2314 
9 *686:49 *3450:S1 23 
10 *686:35 *3452:S1 39.5743 
11 *686:33 *686:83 41.0379 
12 *686:83 *3474:S1 23 
13 *686:10 *3426:S1 38 
14 *4021:X *686:102 25.0507 
15 *686:102 *686:110 37.4986 
16 *686:110 *686:120 35.9007 
17 *686:120 *686:122 15 
18 *686:122 *686:134 47.5864 
19 *686:134 *3416:S1 23 
20 *686:122 *3417:S1 23 
21 *686:102 *686:152 38.7621 
22 *686:152 *3427:S1 23 
*END

*D_NET *687 0.0194503
*CONN
*I *3229:A I *D sky130_fd_sc_hd__nand4_4
*I *3218:A I *D sky130_fd_sc_hd__inv_2
*I *3224:C I *D sky130_fd_sc_hd__nand4b_2
*I *3256:C1 I *D sky130_fd_sc_hd__a311o_2
*I *3217:B I *D sky130_fd_sc_hd__nand2_2
*I *3442:S1 I *D sky130_fd_sc_hd__mux4_2
*I *3459:S1 I *D sky130_fd_sc_hd__mux4_2
*I *3458:S1 I *D sky130_fd_sc_hd__mux4_2
*I *4022:X O *D sky130_fd_sc_hd__clkdlybuf4s25_1
*CAP
1 *3229:A 2.32723e-05
2 *3218:A 0
3 *3224:C 0
4 *3256:C1 1.34103e-05
5 *3217:B 2.66126e-05
6 *3442:S1 0
7 *3459:S1 0
8 *3458:S1 0.000284363
9 *4022:X 0.000140687
10 *687:135 0.000163668
11 *687:101 0.00121075
12 *687:78 0.0021336
13 *687:64 0.00100565
14 *687:54 0.00146897
15 *687:46 0.00149048
16 *687:32 0.000494954
17 *687:30 0.000401026
18 *687:24 0.000883668
19 *687:12 0.00138128
20 *687:8 0.000732898
21 *3217:B *697:46 2.07484e-05
22 *3229:A *729:20 5.00237e-05
23 *3256:C1 *3256:A3 0
24 *3256:C1 *697:8 4.00259e-06
25 *3458:S1 *865:12 5.79559e-05
26 *3458:S1 *865:28 0.000144501
27 *687:8 *4022:A 9.67842e-05
28 *687:8 *688:31 3.46673e-05
29 *687:12 *715:12 0
30 *687:12 *728:21 7.313e-05
31 *687:12 *731:38 0.000139657
32 *687:24 *3940:RESET_B 5.80679e-05
33 *687:24 *699:10 3.66557e-06
34 *687:24 *728:21 0.000281546
35 *687:24 *729:12 0
36 *687:24 *729:20 0.000230726
37 *687:24 *732:10 0.000463859
38 *687:30 *4078:A 4.08664e-05
39 *687:30 *697:8 0
40 *687:32 *4078:A 9.41704e-05
41 *687:32 *697:8 7.1349e-05
42 *687:32 *697:46 9.91701e-05
43 *687:46 *3256:A2 5.87886e-05
44 *687:46 *3256:A3 5.48957e-05
45 *687:46 *697:8 2.93845e-05
46 *687:46 *697:46 0.0002493
47 *687:54 *3442:A3 0.000808603
48 *687:54 *3524:A1 1.14452e-05
49 *687:54 *697:46 5.65587e-05
50 *687:54 *863:14 0
51 *687:78 *3517:A_N 0
52 *687:78 *3737:A1 5.50106e-05
53 *687:101 *3459:A0 5.72975e-05
54 *687:101 *3459:A1 0.000158228
55 *687:101 *724:115 0
56 *687:135 *3224:D 2.72055e-05
57 *3229:B *3229:A 5.45644e-05
58 *3229:B *687:24 2.74181e-05
59 *3255:B *687:24 0
60 *3571:A *687:78 2.93747e-05
61 *3738:A *687:78 0.000275687
62 *3875:CLK *687:54 7.22728e-06
63 *3875:CLK *687:64 0.000116118
64 *3875:D *687:78 0.000141352
65 *4003:A *687:54 0.000101925
66 *156:10 *687:78 5.50049e-05
67 *202:88 *687:78 2.18506e-05
68 *284:10 *687:12 0
69 *297:12 *687:12 4.71063e-05
70 *298:14 *687:12 0.000175459
71 *369:12 *687:54 0
72 *383:14 *687:101 0.000161594
73 *413:48 *687:64 4.96024e-05
74 *422:10 *687:64 0.000108129
75 *422:10 *687:78 5.61255e-06
76 *432:30 *687:101 1.00941e-05
77 *448:10 *687:101 0.000131538
78 *452:8 *687:78 0.000313053
79 *535:26 *687:64 9.2057e-05
80 *544:152 *687:54 0
81 *565:10 *687:12 0
82 *565:109 *687:24 2.67084e-05
83 *571:8 *687:54 0
84 *620:12 *687:54 0.000136462
85 *620:12 *687:64 5.18573e-05
86 *634:39 *3458:S1 4.89774e-05
87 *634:39 *687:101 0.000218062
88 *642:30 *687:135 7.55595e-05
89 *642:45 *687:135 0.000222104
90 *662:12 *687:78 0.000374186
91 *662:20 *687:78 0.000139352
92 *681:10 *687:24 8.26569e-05
93 *681:22 *687:24 0.000202179
94 *681:22 *687:135 0.000456486
95 *683:8 *687:12 4.82347e-05
96 *683:30 *687:24 5.58003e-05
*RES
1 *4022:X *687:8 40.5271 
2 *687:8 *687:12 26.0614 
3 *687:12 *687:24 49.9064 
4 *687:24 *687:30 2.175 
5 *687:30 *687:32 3.00357 
6 *687:32 *687:46 8.61714 
7 *687:46 *687:54 35.7557 
8 *687:54 *687:64 36.9186 
9 *687:64 *687:78 46.0743 
10 *687:78 *3458:S1 42.5779 
11 *687:78 *687:101 37.2471 
12 *687:101 *3459:S1 23 
13 *687:54 *3442:S1 38 
14 *687:46 *3217:B 24.1186 
15 *687:32 *3256:C1 23.4971 
16 *687:30 *687:135 36.1314 
17 *687:135 *3224:C 23 
18 *687:24 *3218:A 23 
19 *687:12 *3229:A 24.0979 
*END

*D_NET *688 0.0264293
*CONN
*I *3443:S1 I *D sky130_fd_sc_hd__mux4_2
*I *3467:S1 I *D sky130_fd_sc_hd__mux4_2
*I *3466:S1 I *D sky130_fd_sc_hd__mux4_2
*I *4021:A I *D sky130_fd_sc_hd__clkdlybuf4s25_1
*I *3435:S1 I *D sky130_fd_sc_hd__mux4_2
*I *3434:S1 I *D sky130_fd_sc_hd__mux4_2
*I *4022:A I *D sky130_fd_sc_hd__clkdlybuf4s25_1
*I *4023:X O *D sky130_fd_sc_hd__clkdlybuf4s25_1
*CAP
1 *3443:S1 0.000228489
2 *3467:S1 0
3 *3466:S1 0
4 *4021:A 0
5 *3435:S1 9.0958e-05
6 *3434:S1 0.000157163
7 *4022:A 9.80529e-05
8 *4023:X 8.55791e-05
9 *688:142 0.00113447
10 *688:131 0.000519612
11 *688:93 0.00147602
12 *688:85 0.00238645
13 *688:67 0.0021009
14 *688:51 0.00260388
15 *688:47 0.00172359
16 *688:37 0.000362783
17 *688:35 0.000934546
18 *688:31 0.00276426
19 *688:14 0.00233155
20 *688:8 0.000756923
21 *3434:S1 *3748:A0 0.000218886
22 *3434:S1 *758:10 0.00032481
23 *3434:S1 *862:10 5.75756e-06
24 *3435:S1 *3435:A3 6.68936e-05
25 *4022:A *731:38 5.3304e-05
26 *688:31 *3466:A1 0
27 *688:31 *866:6 6.17437e-06
28 *688:35 *3466:A1 0.000240929
29 *688:35 *866:6 3.78992e-05
30 *688:47 *3466:S0 0.000105175
31 *688:47 *722:18 8.09334e-05
32 *688:51 *722:18 0.000161849
33 *688:67 *3426:S0 0.000484273
34 *688:85 *699:93 4.16878e-06
35 *688:85 *774:6 1.94812e-05
36 *688:85 *774:16 0.000103948
37 *688:85 *782:27 5.60256e-05
38 *688:93 *699:93 1.94812e-05
39 *688:131 *3466:S0 6.48142e-05
40 *688:131 *722:16 0
41 *688:142 *775:10 6.51997e-06
42 *3362:A *688:14 2.71291e-05
43 *3436:A1 *688:93 0.000397846
44 *3468:A0 *688:47 6.17437e-06
45 *3531:A *688:51 3.52383e-05
46 *3777:CLK *688:67 9.13962e-05
47 *3777:D *688:67 9.24795e-06
48 *3777:D *688:85 5.50106e-05
49 *3794:CLK *688:85 5.56356e-05
50 *3794:D *688:85 0.000141707
51 *3886:CLK *688:31 7.45494e-05
52 *3940:CLK *688:8 3.32626e-05
53 *3971:A *688:67 0.000275473
54 *61:10 *688:51 8.26439e-06
55 *157:8 *688:142 0
56 *280:10 *688:14 2.60152e-05
57 *280:21 *688:14 0.00010044
58 *280:29 *688:14 0.000359755
59 *280:37 *4022:A 0.000141954
60 *280:37 *688:14 0.000224605
61 *284:10 *688:14 8.32902e-05
62 *284:21 *688:14 9.39159e-05
63 *284:34 *688:14 3.3123e-05
64 *284:43 *688:14 9.63815e-05
65 *301:12 *688:14 0.000374783
66 *389:8 *688:142 1.69668e-05
67 *390:10 *688:142 5.41369e-05
68 *391:10 *688:47 5.50106e-05
69 *436:10 *688:142 0.000164694
70 *442:37 *688:131 0
71 *442:37 *688:142 0
72 *461:98 *688:85 0
73 *461:181 *688:47 0.000108682
74 *461:181 *688:131 0
75 *544:169 *688:142 2.26497e-05
76 *565:70 *688:14 0.000311285
77 *565:72 *688:14 0.000102007
78 *565:74 *688:14 0.000113398
79 *577:25 *688:93 0.000165643
80 *580:25 *688:67 0.000206568
81 *602:21 *688:142 0
82 *602:32 *688:142 0
83 *602:62 *688:131 0
84 *614:37 *688:93 8.45065e-06
85 *620:80 *3443:S1 0.000100061
86 *620:80 *688:142 0.000131088
87 *622:82 *3435:S1 2.46906e-05
88 *622:82 *688:85 1.31414e-05
89 *622:82 *688:93 1.85903e-05
90 *628:20 *3434:S1 0.000104837
91 *628:22 *3434:S1 1.42282e-05
92 *687:8 *4022:A 9.67842e-05
93 *687:8 *688:31 3.46673e-05
*RES
1 *4023:X *688:8 39.0979 
2 *688:8 *688:14 33.3114 
3 *688:14 *4022:A 25.9 
4 *688:14 *688:31 21.0457 
5 *688:31 *688:35 5.40643 
6 *688:35 *688:37 1.57429 
7 *688:37 *688:47 35.9864 
8 *688:47 *688:51 19.4507 
9 *688:51 *688:67 49.0986 
10 *688:67 *688:85 33.6014 
11 *688:85 *688:93 47.545 
12 *688:93 *3434:S1 44.1314 
13 *688:85 *3435:S1 39.595 
14 *688:51 *4021:A 23 
15 *688:37 *3466:S1 23 
16 *688:35 *688:131 39.9221 
17 *688:131 *3467:S1 23 
18 *688:31 *688:142 47.4 
19 *688:142 *3443:S1 26.48 
*END

*D_NET *689 0.00873041
*CONN
*I *3479:S0 I *D sky130_fd_sc_hd__mux4_2
*I *3420:S0 I *D sky130_fd_sc_hd__mux4_2
*I *4075:A I *D sky130_fd_sc_hd__buf_4
*I *3419:S0 I *D sky130_fd_sc_hd__mux4_2
*I *3429:S0 I *D sky130_fd_sc_hd__mux4_2
*I *4024:X O *D sky130_fd_sc_hd__clkdlybuf4s25_1
*CAP
1 *3479:S0 0.000656125
2 *3420:S0 0.000656125
3 *4075:A 0
4 *3419:S0 0.0015296
5 *3429:S0 0.000249682
6 *4024:X 0.000117001
7 *689:52 0.00120561
8 *689:25 0.000573667
9 *689:10 0.000117001
10 *3419:S0 *3419:A1 0.000134169
11 *3419:S0 *690:10 9.84794e-05
12 *3479:S0 *3620:A1 0.000105154
13 *3479:S0 *719:12 0.00010403
14 *3479:S0 *747:27 0.000160072
15 *3479:S0 *803:27 0.000346215
16 *689:25 *3429:A2 0.000205514
17 *689:52 *3419:A2 4.99065e-05
18 *39:10 *3479:S0 0
19 *39:10 *689:52 0.000592064
20 *135:8 *689:52 0
21 *348:10 *3419:S0 2.93335e-05
22 *401:12 *3479:S0 0
23 *405:14 *689:52 9.69279e-05
24 *412:10 *3479:S0 0
25 *516:127 *3419:S0 0.000463746
26 *516:127 *689:25 9.49842e-05
27 *608:51 *3479:S0 9.88575e-05
28 *608:51 *689:52 9.01053e-05
29 *609:40 *689:52 9.41987e-05
30 *623:10 *689:10 7.03663e-05
31 *628:22 *3479:S0 0.000404047
32 *628:22 *689:52 0
33 *631:18 *689:52 0.000129592
34 *633:35 *689:10 0.000141869
35 *636:17 *3479:S0 0
36 *669:32 *3479:S0 7.91309e-05
37 *684:27 *689:52 3.68368e-05
38 *684:31 *3479:S0 0
*RES
1 *4024:X *689:10 40.5271 
2 *689:10 *3429:S0 15 
3 *3429:S0 *689:25 5.95536 
4 *689:25 *3419:S0 8.81393 
5 *689:25 *4075:A 23 
6 *3419:S0 *689:52 36.0561 
7 *689:52 *3420:S0 15 
8 *3420:S0 *3479:S0 47.0479 
*END

*D_NET *690 0.013335
*CONN
*I *3438:S0 I *D sky130_fd_sc_hd__mux4_2
*I *3437:S0 I *D sky130_fd_sc_hd__mux4_2
*I *3454:S0 I *D sky130_fd_sc_hd__mux4_2
*I *3455:S0 I *D sky130_fd_sc_hd__mux4_2
*I *4075:X O *D sky130_fd_sc_hd__buf_4
*CAP
1 *3438:S0 0.00130728
2 *3437:S0 0.00082947
3 *3454:S0 1.70407e-05
4 *3455:S0 0.00185925
5 *4075:X 0.000560224
6 *690:16 0.000665247
7 *690:14 0.00212034
8 *690:10 0.00175485
9 *3437:S0 *3437:A0 0.00022294
10 *3438:S0 *808:10 2.33476e-05
11 *3455:S0 *3455:A0 0
12 *3455:S0 *816:10 1.47133e-05
13 *3419:S0 *690:10 9.84794e-05
14 *3455:S1 *3455:S0 0.000320642
15 *3718:A *3437:S0 0.000102389
16 *131:10 *3454:S0 2.56175e-05
17 *131:10 *690:14 3.71217e-05
18 *131:10 *690:16 6.79006e-05
19 *136:8 *690:10 6.07008e-05
20 *364:10 *3437:S0 2.93845e-05
21 *380:10 *3455:S0 0
22 *380:22 *3455:S0 0
23 *475:8 *3455:S0 0.000118889
24 *481:10 *690:14 0.000669164
25 *488:44 *690:14 0
26 *490:10 *690:14 0
27 *503:10 *3455:S0 8.41012e-05
28 *512:10 *3455:S0 1.02387e-05
29 *512:10 *690:14 1.52362e-05
30 *512:10 *690:16 6.21538e-05
31 *516:127 *690:10 0.000100477
32 *525:58 *690:10 0
33 *525:58 *690:14 0
34 *525:86 *690:14 0.000109675
35 *525:92 *3437:S0 5.41288e-05
36 *525:92 *690:14 6.39615e-05
37 *581:16 *3455:S0 0
38 *590:6 *3437:S0 3.85021e-05
39 *590:12 *690:14 0.000135616
40 *590:25 *3455:S0 0
41 *590:25 *690:16 0
42 *594:10 *3438:S0 1.05658e-05
43 *621:41 *3438:S0 2.52012e-05
44 *625:99 *690:10 0
45 *664:42 *3438:S0 0.000147024
46 *665:26 *690:14 0.000832989
47 *684:86 *3454:S0 4.83949e-05
48 *684:86 *3455:S0 0.000691771
*RES
1 *4075:X *690:10 49.0511 
2 *690:10 *690:14 27.7054 
3 *690:14 *690:16 2.61 
4 *690:16 *3455:S0 29.5829 
5 *690:16 *3454:S0 15.5489 
6 *690:14 *3437:S0 30.7946 
7 *3455:S0 *3438:S0 49.36 
*END

*D_NET *691 0.0106226
*CONN
*I *3478:S0 I *D sky130_fd_sc_hd__mux4_2
*I *4076:A I *D sky130_fd_sc_hd__buf_4
*I *4024:A I *D sky130_fd_sc_hd__clkdlybuf4s25_1
*I *3430:S0 I *D sky130_fd_sc_hd__mux4_2
*I *4025:X O *D sky130_fd_sc_hd__clkdlybuf4s25_1
*CAP
1 *3478:S0 0.000135925
2 *4076:A 0
3 *4024:A 0.000200027
4 *3430:S0 0.00161276
5 *4025:X 5.88038e-05
6 *691:56 0.0012362
7 *691:16 0.00143456
8 *691:12 0.000780039
9 *691:8 0.000116795
10 *3430:S0 *3608:A0 0.000431852
11 *3430:S0 *741:23 0.000277705
12 *3430:S0 *821:16 0.000373027
13 *3478:S0 *3478:A0 8.9726e-05
14 *3478:S0 *3478:A1 0.000223031
15 *691:8 *727:34 0.000169683
16 *691:16 *3704:A0 9.58714e-05
17 *691:16 *3704:A1 5.50106e-05
18 *691:16 *692:10 5.50106e-05
19 *691:16 *821:10 0.000182832
20 *691:56 *3430:A2 0.000141699
21 *691:56 *3478:A0 1.3523e-05
22 *691:56 *3625:A0 2.76611e-06
23 *691:56 *719:97 2.8914e-05
24 *691:56 *813:8 0
25 *3625:A1 *691:56 0.000112322
26 *3642:S *691:56 6.07611e-06
27 *3825:CLK *691:56 3.49377e-05
28 *3825:D *691:56 0.000186794
29 *3841:D *691:16 0.000454399
30 *357:8 *4024:A 0.000166513
31 *358:14 *3430:S0 0.000466473
32 *358:14 *4024:A 3.82956e-05
33 *392:14 *691:8 8.51432e-05
34 *400:14 *3478:S0 0.000184125
35 *472:12 *691:56 0
36 *516:105 *691:12 8.34394e-05
37 *516:105 *691:16 0.000223434
38 *516:109 *691:16 0.0003777
39 *593:30 *691:56 3.70071e-06
40 *593:45 *691:56 0.000141879
41 *623:8 *4024:A 2.81066e-05
42 *623:10 *3430:S0 3.93962e-05
43 *623:10 *4024:A 7.90464e-05
44 *623:16 *3430:S0 0.000178085
45 *623:28 *691:56 1.69668e-05
46 *633:35 *4024:A 0
*RES
1 *4025:X *691:8 40.2579 
2 *691:8 *691:12 16.0979 
3 *691:12 *691:16 32.7729 
4 *691:16 *3430:S0 31.6957 
5 *691:16 *4024:A 42.4121 
6 *691:12 *4076:A 23 
7 *3430:S0 *691:56 49.9064 
8 *691:56 *3478:S0 4.36036 
*END

*D_NET *692 0.0144909
*CONN
*I *3461:S0 I *D sky130_fd_sc_hd__mux4_2
*I *3445:S0 I *D sky130_fd_sc_hd__mux4_2
*I *3462:S0 I *D sky130_fd_sc_hd__mux4_2
*I *3446:S0 I *D sky130_fd_sc_hd__mux4_2
*I *3469:S0 I *D sky130_fd_sc_hd__mux4_2
*I *4076:X O *D sky130_fd_sc_hd__buf_4
*CAP
1 *3461:S0 4.94168e-05
2 *3445:S0 0.000966763
3 *3462:S0 5.91929e-05
4 *3446:S0 0.000737078
5 *3469:S0 0.000901946
6 *4076:X 9.79157e-05
7 *692:38 0.00134715
8 *692:32 0.00162732
9 *692:30 0.00106104
10 *692:10 9.79157e-05
11 *3445:S0 *833:8 5.50106e-05
12 *3446:S0 *3462:A0 0.000138747
13 *3446:S0 *3494:A0 9.20101e-05
14 *3446:S0 *745:8 3.46302e-05
15 *692:10 *3469:A1 3.90213e-05
16 *692:30 *721:51 0.000574058
17 *692:30 *721:64 0.000405324
18 *692:30 *721:79 0.0002596
19 *692:30 *810:12 0.000197284
20 *692:32 *825:12 0.000184528
21 *692:38 *3462:A0 5.14824e-05
22 *692:38 *825:12 0.000246757
23 *3446:S1 *3446:S0 0.000495019
24 *3822:CLK *692:30 0.000239613
25 *3827:D *3446:S0 1.64354e-05
26 *3867:CLK *3445:S0 0.000136286
27 *3952:A *3445:S0 3.26035e-05
28 *350:20 *692:30 7.57281e-06
29 *385:8 *692:30 0.000143166
30 *386:16 *3446:S0 1.7403e-05
31 *386:16 *692:30 5.3603e-05
32 *386:16 *692:32 0.000130606
33 *386:16 *692:38 0.000675958
34 *387:8 *692:30 0.00147061
35 *516:105 *692:10 5.58003e-05
36 *525:115 *692:10 0.000192223
37 *562:248 *692:30 0
38 *597:8 *692:30 0.000168129
39 *597:12 *692:30 0.000101958
40 *597:12 *692:32 3.63581e-05
41 *634:27 *692:38 0.000459653
42 *685:10 *692:10 5.72077e-05
43 *685:18 *692:10 1.16455e-05
44 *685:24 *3461:S0 9.17737e-05
45 *685:93 *3462:S0 8.79516e-05
46 *685:117 *3445:S0 0.000530116
47 *691:16 *692:10 5.50106e-05
*RES
1 *4076:X *692:10 41.2314 
2 *692:10 *3469:S0 15 
3 *3469:S0 *692:30 47.3143 
4 *692:30 *692:32 3.66643 
5 *692:32 *692:38 17.4621 
6 *692:38 *3446:S0 31.3954 
7 *692:38 *3462:S0 16.0254 
8 *692:32 *3445:S0 31.9546 
9 *692:30 *3461:S0 16.0254 
*END

*D_NET *693 0.000599779
*CONN
*I *3896:D I *D sky130_fd_sc_hd__dfrtp_2
*I *4072:X O *D sky130_fd_sc_hd__clkdlybuf4s25_1
*CAP
1 *3896:D 0
2 *4072:X 0.000299889
3 *693:10 0.000299889
*RES
1 *4072:X *693:10 42.4329 
2 *693:10 *3896:D 38 
*END

*D_NET *694 0.00508634
*CONN
*I *3416:S0 I *D sky130_fd_sc_hd__mux4_2
*I *3417:S0 I *D sky130_fd_sc_hd__mux4_2
*I *3427:S0 I *D sky130_fd_sc_hd__mux4_2
*I *4077:A I *D sky130_fd_sc_hd__buf_4
*I *4026:X O *D sky130_fd_sc_hd__clkdlybuf4s25_1
*CAP
1 *3416:S0 0.000555662
2 *3417:S0 0.00119672
3 *3427:S0 0.000641055
4 *4077:A 0.000439323
5 *4026:X 0.000100492
6 *694:8 0.000539815
7 *3417:S0 *3417:A0 0.000349313
8 *4077:A *3556:A0 0
9 *4077:A *695:8 0.000344596
10 *4077:A *773:10 0.000141308
11 *694:8 *3556:A0 0
12 *3536:S *3417:S0 0.000270209
13 *345:10 *3416:S0 0.000292745
14 *346:16 *3417:S0 2.51824e-05
15 *434:8 *4077:A 0
16 *434:8 *694:8 0
17 *461:108 *3416:S0 7.98155e-05
18 *462:10 *3416:S0 0.000110106
19 *584:8 *3416:S0 0
20 *686:152 *4077:A 0
*RES
1 *4026:X *694:8 39.9057 
2 *694:8 *4077:A 46.3479 
3 *694:8 *3427:S0 15 
4 *3427:S0 *3417:S0 14.0029 
5 *3417:S0 *3416:S0 42.4389 
*END

*D_NET *695 0.0159426
*CONN
*I *3450:S0 I *D sky130_fd_sc_hd__mux4_2
*I *3474:S0 I *D sky130_fd_sc_hd__mux4_2
*I *3452:S0 I *D sky130_fd_sc_hd__mux4_2
*I *3476:S0 I *D sky130_fd_sc_hd__mux4_2
*I *3426:S0 I *D sky130_fd_sc_hd__mux4_2
*I *4077:X O *D sky130_fd_sc_hd__buf_4
*CAP
1 *3450:S0 0.000746352
2 *3474:S0 0.00117919
3 *3452:S0 0.0009637
4 *3476:S0 0.000922856
5 *3426:S0 0.0011149
6 *4077:X 0.00029006
7 *695:66 0.00111231
8 *695:44 0.00176969
9 *695:24 0.00146422
10 *695:8 0.000737087
11 *3450:S0 *752:25 2.40588e-05
12 *3450:S0 *867:8 0
13 *3452:S0 *720:48 0.000110184
14 *3452:S0 *792:8 5.31385e-05
15 *3452:S0 *795:12 2.04854e-05
16 *3476:S0 *3476:A0 4.79612e-05
17 *3476:S0 *3476:A1 9.18637e-05
18 *3476:S0 *3550:A0 4.51908e-05
19 *695:24 *699:52 0.000163256
20 *695:24 *699:68 1.0092e-05
21 *695:24 *749:10 0.00011169
22 *695:44 *3476:A3 3.75727e-06
23 *695:44 *3586:A0 0
24 *695:44 *720:48 7.77276e-05
25 *695:44 *795:6 3.05276e-05
26 *695:44 *795:12 2.24366e-06
27 *695:66 *720:36 4.08537e-05
28 *3520:S *695:24 3.15773e-05
29 *3550:S *3476:S0 2.7237e-05
30 *3813:CLK *695:24 0
31 *3813:D *3476:S0 1.13128e-05
32 *3815:D *695:66 0.000230553
33 *3971:A *3426:S0 7.78597e-05
34 *3992:A *3450:S0 1.67944e-05
35 *4077:A *695:8 0.000344596
36 *84:8 *695:24 0.000296017
37 *160:12 *695:24 0.000446443
38 *356:14 *695:24 0
39 *360:14 *695:24 0.000167443
40 *363:18 *695:66 0
41 *434:8 *3426:S0 0.000141879
42 *452:66 *695:66 2.90468e-05
43 *458:14 *695:24 2.04774e-05
44 *460:10 *695:66 0
45 *544:61 *3450:S0 0
46 *546:12 *3426:S0 0
47 *562:106 *3452:S0 0.000512148
48 *580:25 *3426:S0 0.000130984
49 *609:40 *3450:S0 0.000104133
50 *613:8 *3450:S0 6.10813e-05
51 *613:63 *695:66 3.7122e-06
52 *624:42 *3426:S0 0
53 *628:22 *3450:S0 0.000621727
54 *648:12 *3450:S0 0
55 *662:40 *695:66 6.16531e-05
56 *662:46 *3474:S0 0.000135037
57 *686:10 *3426:S0 0.000557559
58 *686:83 *3474:S0 0.000295635
59 *686:152 *3426:S0 0
60 *688:67 *3426:S0 0.000484273
*RES
1 *4077:X *695:8 42.9093 
2 *695:8 *3426:S0 28.8786 
3 *3426:S0 *695:24 46.3436 
4 *695:24 *3476:S0 11.0718 
5 *3476:S0 *695:44 17.7032 
6 *695:44 *3452:S0 33.7361 
7 *695:44 *695:66 39.7771 
8 *695:66 *3474:S0 22.2604 
9 *3474:S0 *3450:S0 47.5968 
*END

*D_NET *696 0.00278525
*CONN
*I *3249:B1 I *D sky130_fd_sc_hd__a21oi_2
*I *3220:C I *D sky130_fd_sc_hd__nand4_2
*I *4078:A I *D sky130_fd_sc_hd__clkbuf_4
*I *4027:X O *D sky130_fd_sc_hd__clkdlybuf4s25_1
*CAP
1 *3249:B1 0
2 *3220:C 0.000176261
3 *4078:A 0.000211637
4 *4027:X 0.000198304
5 *696:10 0.000387898
6 *696:8 0.000198304
7 *3220:C *3220:D 5.50106e-05
8 *3220:C *3222:D 5.3304e-05
9 *3220:C *698:18 1.03836e-05
10 *3220:C *699:10 2.60152e-05
11 *3220:C *715:27 0.000151907
12 *4078:A *699:10 6.07611e-06
13 *4078:A *715:27 3.70187e-05
14 *4078:A *715:29 0.000215791
15 *696:8 *4027:A 5.67058e-05
16 *3219:A *696:8 0
17 *3222:A *3220:C 7.38076e-05
18 *3249:A1 *696:8 0
19 *169:41 *3220:C 0.000265472
20 *192:8 *696:8 0.000161461
21 *642:45 *4078:A 0.000188926
22 *642:45 *696:8 5.3304e-05
23 *675:10 *3220:C 0.000110913
24 *681:22 *4078:A 1.17152e-05
25 *687:30 *4078:A 4.08664e-05
26 *687:32 *4078:A 9.41704e-05
*RES
1 *4027:X *696:8 27.4536 
2 *696:8 *696:10 15 
3 *696:10 *4078:A 42.8886 
4 *696:10 *3220:C 43.7586 
5 *696:8 *3249:B1 23 
*END

*D_NET *697 0.0143899
*CONN
*I *3458:S0 I *D sky130_fd_sc_hd__mux4_2
*I *3442:S0 I *D sky130_fd_sc_hd__mux4_2
*I *3459:S0 I *D sky130_fd_sc_hd__mux4_2
*I *3216:B I *D sky130_fd_sc_hd__nand3b_2
*I *3224:B I *D sky130_fd_sc_hd__nand4b_2
*I *3256:A2 I *D sky130_fd_sc_hd__a311o_2
*I *4078:X O *D sky130_fd_sc_hd__clkbuf_4
*CAP
1 *3458:S0 0.000122007
2 *3442:S0 0.000289745
3 *3459:S0 0.00170855
4 *3216:B 0
5 *3224:B 0.000324954
6 *3256:A2 5.74946e-05
7 *4078:X 0.00160717
8 *697:72 0.000824778
9 *697:46 0.00283672
10 *697:19 0.000428391
11 *697:8 0.000226905
12 *3256:A2 *3256:A3 0.000137651
13 *3458:S0 *761:16 0.000120008
14 *3459:S0 *3459:A1 0.000394333
15 *697:8 *3256:A3 0.000171296
16 *697:19 *715:31 0
17 *697:72 *3599:A0 0
18 *697:72 *724:49 0
19 *697:72 *785:10 0
20 *3217:B *697:46 2.07484e-05
21 *3224:A_N *3224:B 0
22 *3256:C1 *697:8 4.00259e-06
23 *3779:CLK *3459:S0 0.000138917
24 *3779:D *3459:S0 1.32939e-05
25 *3787:CLK *3442:S0 9.03784e-05
26 *4003:A *697:46 6.78027e-05
27 *173:83 *3224:B 7.31082e-05
28 *173:83 *697:19 1.19692e-05
29 *198:10 *3224:B 3.71251e-05
30 *388:16 *697:72 0.00034711
31 *413:54 *3442:S0 0.000373343
32 *448:10 *3459:S0 9.84851e-05
33 *535:26 *3442:S0 0.000911414
34 *601:8 *3442:S0 0.000141869
35 *601:23 *3442:S0 0.000271129
36 *620:33 *3442:S0 2.24151e-05
37 *630:16 *697:72 0.00150476
38 *642:30 *3224:B 7.4416e-05
39 *683:44 *3224:B 0.000222104
40 *683:44 *697:19 0.000150977
41 *687:30 *697:8 0
42 *687:32 *697:8 7.1349e-05
43 *687:32 *697:46 9.91701e-05
44 *687:46 *3256:A2 5.87886e-05
45 *687:46 *697:8 2.93845e-05
46 *687:46 *697:46 0.0002493
47 *687:54 *697:46 5.65587e-05
*RES
1 *4078:X *697:8 25.5479 
2 *697:8 *3256:A2 24.5743 
3 *697:8 *697:19 17.2579 
4 *697:19 *3224:B 45.4157 
5 *697:19 *3216:B 38 
6 *4078:X *697:46 43.155 
7 *697:46 *3459:S0 15.8361 
8 *697:46 *3442:S0 42.1179 
9 *3459:S0 *697:72 35.2171 
10 *697:72 *3458:S0 17.4546 
*END

*D_NET *698 0.00808989
*CONN
*I *3467:S0 I *D sky130_fd_sc_hd__mux4_2
*I *3466:S0 I *D sky130_fd_sc_hd__mux4_2
*I *3228:B I *D sky130_fd_sc_hd__and3b_4
*I *3443:S0 I *D sky130_fd_sc_hd__mux4_2
*I *3222:B I *D sky130_fd_sc_hd__nand4_2
*I *4028:X O *D sky130_fd_sc_hd__clkdlybuf4s25_1
*CAP
1 *3467:S0 0.000308408
2 *3466:S0 0.0009202
3 *3228:B 0
4 *3443:S0 0.00106375
5 *3222:B 0
6 *4028:X 9.93941e-05
7 *698:18 0.00059892
8 *698:10 0.00125361
9 *698:6 0.000302122
10 *3443:S0 *699:30 9.51286e-05
11 *3443:S0 *726:12 9.41704e-05
12 *3443:S0 *726:21 1.24376e-05
13 *3466:S0 *722:16 0
14 *3466:S0 *791:8 0.000143166
15 *3466:S0 *858:10 0
16 *698:10 *726:12 0.000115261
17 *698:10 *727:8 0.000101014
18 *698:18 *3222:D 7.4838e-05
19 *698:18 *726:23 0.000110853
20 *698:18 *727:8 0.000431927
21 *3220:C *698:18 1.03836e-05
22 *3222:A *698:18 0.000309746
23 *3739:S *3466:S0 0.000380973
24 *26:16 *3467:S0 4.02391e-05
25 *169:41 *698:18 2.47702e-05
26 *413:69 *3466:S0 0.000156336
27 *436:10 *3443:S0 0.000107128
28 *461:181 *3466:S0 0
29 *461:181 *3467:S0 0.000319628
30 *535:26 *3466:S0 6.43233e-05
31 *565:109 *698:6 3.14976e-05
32 *620:42 *3466:S0 3.673e-05
33 *620:70 *3466:S0 0.000221513
34 *620:80 *3443:S0 0.00049144
35 *642:64 *698:10 0
36 *688:47 *3466:S0 0.000105175
37 *688:131 *3466:S0 6.48142e-05
*RES
1 *4028:X *698:6 24.5743 
2 *698:6 *698:10 19.7229 
3 *698:10 *698:18 27.9671 
4 *698:18 *3222:B 23 
5 *698:10 *3443:S0 25.5746 
6 *698:6 *3228:B 23 
7 *3443:S0 *3466:S0 47.0479 
8 *3466:S0 *3467:S0 38.2443 
*END

*D_NET *699 0.0210966
*CONN
*I *3434:S0 I *D sky130_fd_sc_hd__mux4_2
*I *4028:A I *D sky130_fd_sc_hd__clkdlybuf4s25_1
*I *4026:A I *D sky130_fd_sc_hd__clkdlybuf4s25_1
*I *3435:S0 I *D sky130_fd_sc_hd__mux4_2
*I *4027:A I *D sky130_fd_sc_hd__clkdlybuf4s25_1
*I *4029:X O *D sky130_fd_sc_hd__clkdlybuf4s25_1
*CAP
1 *3434:S0 0.000548361
2 *4028:A 2.52923e-05
3 *4026:A 0
4 *3435:S0 0.00109122
5 *4027:A 1.08768e-05
6 *4029:X 0.00117268
7 *699:93 0.000878558
8 *699:72 0.000502349
9 *699:68 0.00117107
10 *699:52 0.00226736
11 *699:44 0.00292576
12 *699:34 0.00231795
13 *699:30 0.000826077
14 *699:10 0.000562003
15 *3434:S0 *3434:A0 0.000367267
16 *3435:S0 *3520:A1 3.06803e-05
17 *3435:S0 *766:14 1.24964e-05
18 *3435:S0 *766:31 8.15864e-05
19 *699:10 *732:10 9.24659e-05
20 *699:30 *726:12 0.000154133
21 *699:30 *726:21 4.44894e-05
22 *699:44 *853:19 1.85903e-05
23 *699:68 *3503:A0 6.70361e-05
24 *699:72 *3538:A0 0.000506685
25 *699:72 *765:10 0.00016206
26 *699:93 *782:27 6.33771e-05
27 *3220:C *699:10 2.60152e-05
28 *3443:S0 *699:30 9.51286e-05
29 *3504:A *3435:S0 0.000141347
30 *3520:A0 *3435:S0 2.95526e-05
31 *3520:S *699:52 0.000112396
32 *3543:A *699:44 0.000230048
33 *3731:S *3434:S0 9.79925e-05
34 *3873:D *699:44 0.000188844
35 *3971:A *699:52 5.3304e-05
36 *4078:A *699:10 6.07611e-06
37 *48:10 *3435:S0 1.59094e-05
38 *89:10 *699:93 8.08108e-05
39 *160:12 *699:68 0.000163885
40 *192:8 *4027:A 5.50049e-05
41 *356:8 *699:68 0.000305431
42 *361:10 *3434:S0 0.000190664
43 *363:18 *699:93 0.000353452
44 *413:85 *699:68 8.48502e-06
45 *422:45 *699:52 1.10658e-05
46 *445:10 *699:93 2.34364e-05
47 *464:10 *699:93 9.06886e-05
48 *535:36 *699:52 1.3523e-05
49 *565:109 *699:34 1.23293e-05
50 *577:25 *699:93 1.99587e-05
51 *580:8 *699:68 2.02872e-05
52 *580:25 *699:72 0.000168351
53 *587:36 *699:44 0.000192297
54 *587:42 *699:44 0.00016781
55 *588:42 *699:52 1.50326e-05
56 *588:42 *699:68 6.30678e-05
57 *588:57 *699:68 9.00646e-05
58 *622:82 *699:93 0
59 *624:42 *699:68 0.000139657
60 *624:73 *699:52 0.000429922
61 *630:14 *699:72 0.000491104
62 *667:27 *699:30 0
63 *675:10 *699:10 0.000495953
64 *681:10 *699:10 0.000155068
65 *681:22 *699:10 0.000184825
66 *687:24 *699:10 3.66557e-06
67 *688:85 *699:93 4.16878e-06
68 *688:93 *699:93 1.94812e-05
69 *695:24 *699:52 0.000163256
70 *695:24 *699:68 1.0092e-05
71 *696:8 *4027:A 5.67058e-05
*RES
1 *4029:X *699:10 48.5436 
2 *699:10 *4027:A 38.6214 
3 *4029:X *699:30 47.7564 
4 *699:30 *699:34 18.0036 
5 *699:34 *699:44 44.6214 
6 *699:44 *699:52 42.4079 
7 *699:52 *3435:S0 28.4125 
8 *699:52 *699:68 42.3457 
9 *699:68 *699:72 28.5264 
10 *699:72 *4026:A 23 
11 *699:34 *4028:A 23.4971 
12 *3435:S0 *699:93 38.5964 
13 *699:93 *3434:S0 12.0039 
*END

*D_NET *700 0.0104439
*CONN
*I *3743:C I *D sky130_fd_sc_hd__and4bb_2
*I *3656:A_N I *D sky130_fd_sc_hd__and3b_2
*I *3534:B I *D sky130_fd_sc_hd__and3_2
*I *3552:C I *D sky130_fd_sc_hd__and4b_2
*I *3500:C I *D sky130_fd_sc_hd__and4bb_2
*I *3517:B I *D sky130_fd_sc_hd__nand4b_1
*I *3570:C I *D sky130_fd_sc_hd__and4b_2
*I *3691:B_N I *D sky130_fd_sc_hd__and4bb_2
*I *4030:X O *D sky130_fd_sc_hd__clkdlybuf4s25_1
*CAP
1 *3743:C 0
2 *3656:A_N 0
3 *3534:B 0
4 *3552:C 0.000190686
5 *3500:C 2.39682e-05
6 *3517:B 0
7 *3570:C 0
8 *3691:B_N 0.000377998
9 *4030:X 0
10 *700:119 0.000621483
11 *700:105 0.00076197
12 *700:97 0.000331173
13 *700:79 0.000185531
14 *700:66 0.000141477
15 *700:48 0.000161371
16 *700:40 0.000427886
17 *700:12 0.000401016
18 *700:10 0.000707796
19 *700:6 0.000676015
20 *700:4 0.000277837
21 *3500:C *707:91 2.02872e-05
22 *3691:B_N *3691:D 9.41704e-05
23 *3691:B_N *703:98 8.85189e-05
24 *3691:B_N *703:107 7.869e-05
25 *3691:B_N *707:74 9.0236e-05
26 *700:12 *703:107 6.10781e-05
27 *700:40 *703:107 0.000581324
28 *700:48 *707:91 0.000119467
29 *700:48 *707:97 2.35393e-05
30 *700:66 *3725:B 7.19772e-05
31 *700:66 *701:84 0.000141975
32 *700:79 *705:86 3.76854e-05
33 *700:97 *3552:B 2.31591e-05
34 *700:97 *701:8 0.000135037
35 *700:97 *703:61 0.00017609
36 *700:97 *705:86 0.000135515
37 *700:105 *4033:A 1.24376e-05
38 *700:105 *703:6 2.18286e-05
39 *700:105 *703:12 4.05745e-05
40 *700:119 *3605:A 0.000227497
41 *700:119 *3743:A_N 5.50049e-05
42 *700:119 *703:12 5.3304e-05
43 *700:119 *869:31 0.000414748
44 *700:119 *869:40 0.000151607
45 *3500:D *3500:C 5.3304e-05
46 *3500:D *700:48 8.43466e-05
47 *3552:D *700:97 5.3304e-05
48 *3571:A *700:48 1.47563e-05
49 *3766:CLK *700:119 3.84694e-05
50 *4080:A *3691:B_N 8.92006e-06
51 *125:10 *3691:B_N 1.35999e-05
52 *202:65 *3691:B_N 0.000354453
53 *202:78 *3691:B_N 2.73792e-05
54 *202:78 *700:12 2.54221e-05
55 *202:78 *700:40 0.000274665
56 *202:88 *700:48 0.000363332
57 *352:34 *700:10 5.25144e-05
58 *352:34 *700:66 0
59 *404:8 *700:119 0.000114092
60 *404:14 *700:119 6.48049e-05
61 *413:48 *700:48 0.000113153
62 *507:24 *3691:B_N 3.03777e-05
63 *507:24 *700:119 2.08501e-05
64 *516:105 *3691:B_N 0.000108129
65 *562:302 *700:66 0
66 *600:10 *700:119 6.84507e-05
67 *600:58 *700:119 5.70142e-05
68 *600:73 *700:6 4.05745e-05
69 *600:73 *700:10 0.000190582
70 *600:73 *700:79 6.81466e-05
71 *635:28 *3691:B_N 2.60152e-05
72 *681:32 *700:48 3.53115e-05
*RES
1 *4030:X *700:4 23 
2 *700:4 *700:6 1.09786 
3 *700:6 *700:10 20.8621 
4 *700:10 *700:12 0.849286 
5 *700:12 *3691:B_N 49.0821 
6 *700:12 *3570:C 38 
7 *700:10 *700:40 22.8921 
8 *700:40 *700:48 35.7379 
9 *700:48 *3517:B 23 
10 *700:40 *3500:C 23.6214 
11 *700:6 *700:66 32.9621 
12 *700:66 *3552:C 23 
13 *700:4 *700:79 32.7757 
14 *700:79 *3534:B 23 
15 *3552:C *700:97 42.4536 
16 *700:97 *700:105 17.5686 
17 *700:105 *700:119 44.8521 
18 *700:119 *3656:A_N 23 
19 *700:105 *3743:C 23 
*END

*D_NET *701 0.00873522
*CONN
*I *3725:B I *D sky130_fd_sc_hd__and3b_2
*I *4030:A I *D sky130_fd_sc_hd__clkdlybuf4s25_1
*I *3674:B_N I *D sky130_fd_sc_hd__and4bb_2
*I *3483:B I *D sky130_fd_sc_hd__nor3b_4
*I *3708:A_N I *D sky130_fd_sc_hd__nand3b_2
*I *3605:C I *D sky130_fd_sc_hd__nor4b_4
*I *3622:C I *D sky130_fd_sc_hd__nor4b_4
*I *3639:B_N I *D sky130_fd_sc_hd__and4bb_2
*I *4031:X O *D sky130_fd_sc_hd__clkdlybuf4s25_1
*CAP
1 *3725:B 0.000173806
2 *4030:A 0.000205954
3 *3674:B_N 6.42493e-05
4 *3483:B 0
5 *3708:A_N 0
6 *3605:C 0
7 *3622:C 0
8 *3639:B_N 7.76425e-05
9 *4031:X 0.000169947
10 *701:84 0.000567663
11 *701:61 0.000270724
12 *701:44 0.000381152
13 *701:37 9.92619e-05
14 *701:20 0.000388391
15 *701:16 0.00061213
16 *701:12 0.000541685
17 *701:10 0.00051742
18 *701:8 0.000559552
19 *3639:B_N *3639:A_N 2.02653e-05
20 *3639:B_N *3639:D 1.20811e-05
21 *3674:B_N *703:22 5.3304e-05
22 *3725:B *703:82 0.000156777
23 *3725:B *705:86 9.93136e-05
24 *701:8 *703:61 1.21972e-05
25 *701:10 *3552:A_N 0
26 *701:10 *703:12 0.000110184
27 *701:10 *703:22 2.51382e-05
28 *701:10 *705:78 1.16551e-05
29 *701:12 *703:22 0.000407131
30 *701:12 *705:60 1.14452e-05
31 *701:12 *705:69 2.32089e-05
32 *701:12 *705:78 1.07299e-05
33 *701:12 *869:31 0
34 *701:12 *869:40 0
35 *701:16 *3605:A 0
36 *701:16 *705:60 0.000422369
37 *701:16 *869:31 0
38 *701:20 *3605:B 1.12349e-05
39 *701:20 *3639:A_N 7.00025e-05
40 *701:20 *705:36 2.47128e-05
41 *701:44 *705:36 5.50049e-05
42 *701:61 *3238:A3 0.000182081
43 *701:61 *3708:C 6.23756e-05
44 *701:61 *705:32 0
45 *701:84 *3552:A_N 0
46 *701:84 *703:82 0.000164282
47 *701:84 *705:86 1.70189e-05
48 *3252:A1 *701:61 0
49 *3552:D *701:10 0.000204292
50 *3552:D *701:84 5.58473e-05
51 *3766:CLK *701:37 0.000268221
52 *193:14 *3674:B_N 9.89901e-05
53 *193:18 *701:10 8.78864e-05
54 *218:16 *701:61 0.000213615
55 *352:34 *3725:B 0
56 *404:14 *701:37 0.000271382
57 *470:10 *3639:B_N 9.12699e-05
58 *470:10 *701:20 9.5877e-05
59 *498:16 *3674:B_N 4.34559e-05
60 *507:12 *701:12 6.10551e-06
61 *544:12 *701:10 0
62 *562:302 *701:84 0
63 *600:73 *4030:A 0.000357205
64 *700:66 *3725:B 7.19772e-05
65 *700:66 *701:84 0.000141975
66 *700:97 *701:8 0.000135037
*RES
1 *4031:X *701:8 40.0507 
2 *701:8 *701:10 4.37071 
3 *701:10 *701:12 6.13143 
4 *701:12 *701:16 20.7793 
5 *701:16 *701:20 4.45357 
6 *701:20 *3639:B_N 24.74 
7 *701:20 *701:37 33.6664 
8 *701:37 *3622:C 23 
9 *701:16 *701:44 2.05071 
10 *701:44 *3605:C 23 
11 *701:44 *701:61 36.1314 
12 *701:61 *3708:A_N 23 
13 *701:12 *3483:B 38 
14 *701:10 *3674:B_N 39.5743 
15 *701:8 *701:84 3.66643 
16 *701:84 *4030:A 41.9564 
17 *701:84 *3725:B 41.3557 
*END

*D_NET *702 0.0087086
*CONN
*I *3244:B1 I *D sky130_fd_sc_hd__a31o_2
*I *4031:A I *D sky130_fd_sc_hd__clkdlybuf4s25_1
*I *3243:C I *D sky130_fd_sc_hd__nand4_2
*I *3266:A I *D sky130_fd_sc_hd__xnor2_2
*I *4032:X O *D sky130_fd_sc_hd__clkdlybuf4s25_1
*CAP
1 *3244:B1 0
2 *4031:A 0
3 *3243:C 2.38883e-05
4 *3266:A 8.84087e-05
5 *4032:X 0.000613121
6 *702:66 0.00179006
7 *702:43 0.000198305
8 *702:33 0.00202895
9 *702:27 0.000204745
10 *702:14 0.0008418
11 *3243:C *3243:B 5.56279e-05
12 *702:14 *3267:B 8.85496e-05
13 *702:27 *3244:A1 4.72245e-05
14 *702:33 *3244:A1 2.36123e-05
15 *702:43 *3244:A1 2.39018e-05
16 *702:66 *3932:D 0.000189157
17 *702:66 *726:31 6.50913e-05
18 *702:66 *899:8 0.000105861
19 *702:66 *903:8 2.64616e-05
20 *702:66 *908:8 6.9989e-06
21 *702:66 *910:16 7.88926e-05
22 *3246:A *702:66 4.45704e-05
23 *3267:A *3266:A 3.13857e-05
24 *3267:A *702:14 0.000188431
25 *188:8 *702:43 0.000185364
26 *188:33 *702:33 0.000114248
27 *188:33 *702:66 0.000208817
28 *189:8 *3266:A 6.37035e-05
29 *189:50 *702:27 0.000277225
30 *189:50 *702:33 9.65021e-05
31 *189:50 *702:43 0.000138607
32 *190:10 *702:66 0
33 *202:44 *3266:A 0.000190219
34 *202:44 *702:14 8.9728e-05
35 *202:44 *702:27 1.35714e-05
36 *202:44 *702:43 0.000138607
37 *341:20 *702:43 0.000158796
38 *572:10 *702:33 5.86204e-05
39 *572:10 *702:43 3.11916e-05
40 *572:10 *702:66 0.000151891
41 *637:6 *3243:C 2.64616e-05
*RES
1 *4032:X *702:14 49.9729 
2 *702:14 *3266:A 40.61 
3 *702:14 *702:27 18.48 
4 *702:27 *702:33 16.9471 
5 *702:33 *702:43 49.8886 
6 *702:43 *3243:C 23.6214 
7 *702:33 *702:66 46.03 
8 *702:66 *4031:A 23 
9 *702:27 *3244:B1 23 
*END

*D_NET *703 0.0116356
*CONN
*I *3517:A_N I *D sky130_fd_sc_hd__nand4b_1
*I *3500:B_N I *D sky130_fd_sc_hd__and4bb_2
*I *3570:B I *D sky130_fd_sc_hd__and4b_2
*I *3534:A I *D sky130_fd_sc_hd__and3_2
*I *3552:B I *D sky130_fd_sc_hd__and4b_2
*I *3743:B_N I *D sky130_fd_sc_hd__and4bb_2
*I *3691:D I *D sky130_fd_sc_hd__and4bb_2
*I *3656:C I *D sky130_fd_sc_hd__and3b_2
*I *4033:X O *D sky130_fd_sc_hd__clkdlybuf4s25_1
*CAP
1 *3517:A_N 0.000227848
2 *3500:B_N 0.000103695
3 *3570:B 0
4 *3534:A 0
5 *3552:B 0.000425252
6 *3743:B_N 0
7 *3691:D 0.000566812
8 *3656:C 7.62376e-05
9 *4033:X 0
10 *703:107 0.000685064
11 *703:98 0.000729466
12 *703:82 0.000302496
13 *703:61 0.000611062
14 *703:30 0.000369902
15 *703:22 0.000520901
16 *703:12 0.000972796
17 *703:6 0.0002411
18 *703:4 0.000321613
19 *3500:B_N *707:91 9.03364e-06
20 *3552:B *726:31 0.000123271
21 *3656:C *707:33 0.000206054
22 *703:6 *4033:A 5.56279e-05
23 *703:22 *705:69 0.000371546
24 *703:30 *705:60 0.00012758
25 *703:30 *705:69 6.38342e-05
26 *703:30 *869:20 3.18322e-05
27 *703:61 *4033:A 2.21614e-05
28 *703:61 *705:78 5.1986e-06
29 *703:61 *705:86 3.96672e-05
30 *703:61 *726:31 4.50289e-05
31 *703:82 *705:86 0.000340951
32 *703:82 *726:31 1.14154e-05
33 *703:98 *707:74 2.82898e-05
34 *703:98 *726:31 0.000441053
35 *703:107 *707:74 2.08324e-05
36 *703:107 *707:91 0.00029765
37 *3500:D *3500:B_N 5.56356e-05
38 *3552:D *3552:B 5.3304e-05
39 *3656:B *3656:C 6.66035e-05
40 *3674:B_N *703:22 5.3304e-05
41 *3691:B_N *3691:D 9.41704e-05
42 *3691:B_N *703:98 8.85189e-05
43 *3691:B_N *703:107 7.869e-05
44 *3725:B *703:82 0.000156777
45 *3725:C *703:82 4.96303e-05
46 *3875:D *3517:A_N 0.000211016
47 *202:78 *703:107 6.7177e-06
48 *373:10 *703:82 0
49 *403:36 *703:61 0
50 *422:10 *3517:A_N 5.50049e-05
51 *431:10 *703:82 9.67842e-05
52 *441:10 *703:61 5.56279e-05
53 *461:18 *703:82 3.64407e-05
54 *497:10 *703:30 0
55 *498:16 *3691:D 0.000220972
56 *498:16 *703:22 9.64943e-05
57 *507:24 *3691:D 2.72475e-06
58 *516:8 *3691:D 2.43944e-05
59 *534:10 *703:82 2.8744e-05
60 *544:12 *703:12 9.5876e-06
61 *562:347 *703:107 0
62 *571:8 *3517:A_N 0
63 *635:28 *703:98 2.05503e-05
64 *662:12 *3517:A_N 2.35407e-06
65 *687:78 *3517:A_N 0
66 *700:12 *703:107 6.10781e-05
67 *700:40 *703:107 0.000581324
68 *700:97 *3552:B 2.31591e-05
69 *700:97 *703:61 0.00017609
70 *700:105 *703:6 2.18286e-05
71 *700:105 *703:12 4.05745e-05
72 *700:119 *703:12 5.3304e-05
73 *701:8 *703:61 1.21972e-05
74 *701:10 *703:12 0.000110184
75 *701:10 *703:22 2.51382e-05
76 *701:12 *703:22 0.000407131
77 *701:84 *703:82 0.000164282
*RES
1 *4033:X *703:4 23 
2 *703:4 *703:6 1.09786 
3 *703:6 *703:12 18.1279 
4 *703:12 *703:22 37.0221 
5 *703:22 *703:30 35.4686 
6 *703:30 *3656:C 40.2889 
7 *703:12 *3691:D 45.2914 
8 *703:6 *3743:B_N 23 
9 *703:4 *703:61 35.2407 
10 *703:61 *3552:B 24.5743 
11 *703:61 *703:82 38.1407 
12 *703:82 *3534:A 23 
13 *3552:B *703:98 44.1107 
14 *703:98 *3570:B 38 
15 *703:98 *703:107 10.3571 
16 *703:107 *3500:B_N 39.595 
17 *703:107 *3517:A_N 42.7229 
*END

*D_NET *704 0.000834481
*CONN
*I *3897:D I *D sky130_fd_sc_hd__dfrtp_2
*I *4073:X O *D sky130_fd_sc_hd__clkdlybuf4s25_1
*CAP
1 *3897:D 7.74168e-05
2 *4073:X 0.000266663
3 *704:10 0.00034408
4 *704:10 *3896:RESET_B 6.67555e-05
5 *596:62 *3897:D 7.9566e-05
*RES
1 *4073:X *704:10 42.9921 
2 *704:10 *3897:D 39.5743 
*END

*D_NET *705 0.00909655
*CONN
*I *4033:A I *D sky130_fd_sc_hd__clkdlybuf4s25_1
*I *3725:A_N I *D sky130_fd_sc_hd__and3b_2
*I *3674:D I *D sky130_fd_sc_hd__and4bb_2
*I *3483:A I *D sky130_fd_sc_hd__nor3b_4
*I *3605:B I *D sky130_fd_sc_hd__nor4b_4
*I *3639:A_N I *D sky130_fd_sc_hd__and4bb_2
*I *3708:C I *D sky130_fd_sc_hd__nand3b_2
*I *3622:B I *D sky130_fd_sc_hd__nor4b_4
*I *4034:X O *D sky130_fd_sc_hd__clkdlybuf4s25_1
*CAP
1 *4033:A 0.000303768
2 *3725:A_N 0
3 *3674:D 0
4 *3483:A 0
5 *3605:B 2.07933e-05
6 *3639:A_N 0.000653587
7 *3708:C 0.000164811
8 *3622:B 0.000145719
9 *4034:X 0.000152561
10 *705:86 0.000603419
11 *705:78 0.00102623
12 *705:69 0.000348668
13 *705:60 0.000496438
14 *705:36 0.00072077
15 *705:32 0.000537531
16 *705:12 0.000310531
17 *705:10 0.000376892
18 *3622:B *3238:A3 4.70543e-05
19 *3622:B *3622:A 5.47983e-06
20 *3622:B *707:41 5.68958e-05
21 *3639:A_N *3639:D 0.000120166
22 *3708:C *3238:A3 6.12208e-05
23 *3552:D *705:78 4.98774e-05
24 *3552:D *705:86 0.000214669
25 *3639:B_N *3639:A_N 2.02653e-05
26 *3725:B *705:86 9.93136e-05
27 *3725:C *705:86 0.000162185
28 *4085:A *3639:A_N 5.3304e-05
29 *193:18 *705:78 8.57577e-05
30 *218:16 *705:32 0
31 *218:16 *705:60 0
32 *373:10 *705:10 0
33 *373:10 *705:32 0
34 *403:36 *705:86 0
35 *404:14 *705:10 0
36 *404:14 *705:32 0
37 *404:14 *705:60 0
38 *404:27 *705:10 3.7122e-06
39 *431:10 *705:86 1.62431e-05
40 *470:10 *3639:A_N 0.000212558
41 *488:6 *3639:A_N 9.41704e-05
42 *700:79 *705:86 3.76854e-05
43 *700:97 *705:86 0.000135515
44 *700:105 *4033:A 1.24376e-05
45 *701:10 *705:78 1.16551e-05
46 *701:12 *705:60 1.14452e-05
47 *701:12 *705:69 2.32089e-05
48 *701:12 *705:78 1.07299e-05
49 *701:16 *705:60 0.000422369
50 *701:20 *3605:B 1.12349e-05
51 *701:20 *3639:A_N 7.00025e-05
52 *701:20 *705:36 2.47128e-05
53 *701:44 *705:36 5.50049e-05
54 *701:61 *3708:C 6.23756e-05
55 *701:61 *705:32 0
56 *701:84 *705:86 1.70189e-05
57 *703:6 *4033:A 5.56279e-05
58 *703:22 *705:69 0.000371546
59 *703:30 *705:60 0.00012758
60 *703:30 *705:69 6.38342e-05
61 *703:61 *4033:A 2.21614e-05
62 *703:61 *705:78 5.1986e-06
63 *703:61 *705:86 3.96672e-05
64 *703:82 *705:86 0.000340951
*RES
1 *4034:X *705:10 40.175 
2 *705:10 *705:12 15 
3 *705:12 *3622:B 26.0243 
4 *705:12 *3708:C 26.5007 
5 *705:10 *705:32 3.31429 
6 *705:32 *705:36 16.0979 
7 *705:36 *3639:A_N 33.44 
8 *705:36 *3605:B 23.4971 
9 *705:32 *705:60 6.75286 
10 *705:60 *3483:A 38 
11 *705:60 *705:69 5.77929 
12 *705:69 *3674:D 38 
13 *705:69 *705:78 2.43393 
14 *705:78 *705:86 28.2261 
15 *705:86 *3725:A_N 23 
16 *705:78 *4033:A 42.8989 
*END

*D_NET *706 0.00899127
*CONN
*I *3241:B1 I *D sky130_fd_sc_hd__a21oi_4
*I *3265:A I *D sky130_fd_sc_hd__xnor2_2
*I *3244:A2 I *D sky130_fd_sc_hd__a31o_2
*I *3243:B I *D sky130_fd_sc_hd__nand4_2
*I *3240:B I *D sky130_fd_sc_hd__and2_2
*I *4034:A I *D sky130_fd_sc_hd__clkdlybuf4s25_1
*I *4035:X O *D sky130_fd_sc_hd__clkdlybuf4s25_1
*CAP
1 *3241:B1 0.000151961
2 *3265:A 0
3 *3244:A2 0.000121138
4 *3243:B 0.000143512
5 *3240:B 0
6 *4034:A 0.00117241
7 *4035:X 8.51327e-05
8 *706:44 0.000587819
9 *706:38 0.000394435
10 *706:34 0.000371649
11 *706:14 0.00133507
12 *706:8 0.000396216
13 *4034:A *3263:B2 0.000220037
14 *4034:A *708:8 0.000677705
15 *4034:A *708:24 3.34247e-05
16 *4034:A *907:8 2.18286e-05
17 *706:14 *907:8 0.00023506
18 *3241:A2 *706:44 3.4937e-05
19 *3242:B1 *706:14 9.41704e-05
20 *3243:C *3243:B 5.56279e-05
21 *3243:D *3243:B 5.56279e-05
22 *3263:A2 *4034:A 3.19065e-05
23 *3987:A *3243:B 4.65192e-05
24 *183:23 *3243:B 0.000275739
25 *183:38 *3244:A2 5.44889e-06
26 *183:38 *706:44 7.69256e-06
27 *183:58 *3243:B 0.000129736
28 *183:58 *3244:A2 0.000134999
29 *183:76 *3241:B1 0.000137651
30 *185:12 *4034:A 4.96717e-05
31 *186:6 *706:14 9.72944e-05
32 *188:79 *3243:B 4.03448e-05
33 *188:83 *706:44 0.000343054
34 *189:8 *3241:B1 0.000181013
35 *189:8 *3244:A2 1.12487e-05
36 *189:8 *706:8 0.000191148
37 *189:8 *706:34 0.000394852
38 *189:8 *706:44 2.24973e-05
39 *200:10 *4034:A 5.50106e-05
40 *202:8 *3243:B 5.56279e-05
41 *202:10 *3241:B1 9.03979e-05
42 *202:10 *706:8 9.28739e-05
43 *202:10 *706:34 0.000201474
44 *216:8 *4034:A 1.94693e-05
45 *341:20 *3241:B1 2.89076e-05
46 *603:73 *3241:B1 6.70017e-05
47 *637:6 *3243:B 2.19845e-05
48 *643:6 *706:38 4.05745e-05
49 *643:6 *706:44 2.93747e-05
*RES
1 *4035:X *706:8 40.61 
2 *706:8 *706:14 19.4536 
3 *706:14 *4034:A 47.1529 
4 *706:14 *3240:B 23 
5 *706:8 *706:34 5.42714 
6 *706:34 *706:38 16.0979 
7 *706:38 *706:44 21.0486 
8 *706:44 *3243:B 42.93 
9 *706:44 *3244:A2 40.2579 
10 *706:38 *3265:A 23 
11 *706:34 *3241:B1 42.6607 
*END

*D_NET *707 0.0142659
*CONN
*I *3251:C I *D sky130_fd_sc_hd__and3_2
*I *3500:A_N I *D sky130_fd_sc_hd__and4bb_2
*I *3517:D I *D sky130_fd_sc_hd__nand4b_1
*I *3570:A_N I *D sky130_fd_sc_hd__and4b_2
*I *3639:D I *D sky130_fd_sc_hd__and4bb_2
*I *3238:A3 I *D sky130_fd_sc_hd__a31oi_2
*I *3622:A I *D sky130_fd_sc_hd__nor4b_4
*I *3482:B_N I *D sky130_fd_sc_hd__and4bb_2
*I *4036:X O *D sky130_fd_sc_hd__clkdlybuf4s25_1
*CAP
1 *3251:C 0
2 *3500:A_N 0
3 *3517:D 0
4 *3570:A_N 4.09526e-05
5 *3639:D 5.2997e-05
6 *3238:A3 0.000472097
7 *3622:A 2.13128e-05
8 *3482:B_N 9.54316e-05
9 *4036:X 2.05553e-05
10 *707:97 0.000139211
11 *707:91 0.0006526
12 *707:74 0.0010571
13 *707:41 0.000727218
14 *707:35 0.000391611
15 *707:33 0.0016033
16 *707:29 0.00104022
17 *707:25 0.000390315
18 *707:6 0.000461818
19 *3238:A3 *3252:B1 0.000113903
20 *3482:B_N *708:45 5.3304e-05
21 *707:6 *708:45 4.08664e-05
22 *707:25 *3252:B1 0.000201672
23 *707:25 *708:68 3.47781e-05
24 *707:25 *869:71 4.6318e-06
25 *3238:A2 *3238:A3 6.72929e-05
26 *3252:A1 *3238:A3 0.00015994
27 *3252:A2 *3238:A3 0.000181125
28 *3500:B_N *707:91 9.03364e-06
29 *3500:C *707:91 2.02872e-05
30 *3500:D *707:91 1.46286e-05
31 *3571:A *707:97 0
32 *3622:B *3238:A3 4.70543e-05
33 *3622:B *3622:A 5.47983e-06
34 *3622:B *707:41 5.68958e-05
35 *3639:A_N *3639:D 0.000120166
36 *3639:B_N *3639:D 1.20811e-05
37 *3656:B *707:33 4.10604e-05
38 *3656:C *707:33 0.000206054
39 *3691:B_N *707:74 9.0236e-05
40 *3708:C *3238:A3 6.12208e-05
41 *3766:CLK *707:35 0.000185755
42 *3766:CLK *707:41 0.000161121
43 *3766:CLK *707:74 0.000331074
44 *4080:A *707:74 0.000134865
45 *184:74 *3482:B_N 0.0002246
46 *184:74 *707:6 5.3304e-05
47 *200:26 *707:25 0.000200799
48 *202:78 *707:97 1.4471e-05
49 *218:16 *707:29 1.59094e-05
50 *218:16 *707:33 0.000153013
51 *352:34 *3570:A_N 5.3304e-05
52 *404:36 *707:33 2.9437e-05
53 *413:8 *707:97 6.07611e-06
54 *413:48 *707:97 0.000136486
55 *422:10 *707:97 3.3123e-05
56 *470:10 *3639:D 1.21972e-05
57 *498:22 *707:74 0.000211281
58 *525:8 *3238:A3 0.00035857
59 *525:8 *707:41 0.00018158
60 *562:302 *707:91 6.38944e-05
61 *562:329 *707:91 4.31304e-05
62 *562:347 *707:91 6.18295e-05
63 *600:10 *707:74 0.000236049
64 *600:58 *707:74 0.000327929
65 *600:73 *707:74 0.000394833
66 *600:73 *707:91 6.01083e-05
67 *635:28 *707:74 7.14436e-05
68 *637:20 *707:25 0.000102696
69 *663:12 *707:74 0.000189377
70 *663:16 *707:35 0.000184184
71 *663:16 *707:41 0.000163343
72 *663:16 *707:74 0.000139913
73 *681:32 *707:91 0.000349862
74 *700:48 *707:91 0.000119467
75 *700:48 *707:97 2.35393e-05
76 *701:61 *3238:A3 0.000182081
77 *703:98 *707:74 2.82898e-05
78 *703:107 *707:74 2.08324e-05
79 *703:107 *707:91 0.00029765
*RES
1 *4036:X *707:6 23.6214 
2 *707:6 *3482:B_N 25.5271 
3 *707:6 *707:25 35.563 
4 *707:25 *707:29 15.6214 
5 *707:29 *707:33 28.0086 
6 *707:33 *707:35 2.61 
7 *707:35 *707:41 21.2143 
8 *707:41 *3622:A 23.4971 
9 *707:41 *3238:A3 35.5943 
10 *707:35 *3639:D 39.4707 
11 *707:33 *707:74 17.4 
12 *707:74 *3570:A_N 38.6214 
13 *707:74 *707:91 28.05 
14 *707:91 *707:97 32.9621 
15 *707:97 *3517:D 23 
16 *707:91 *3500:A_N 23 
17 *707:29 *3251:C 23 
*END

*D_NET *708 0.0144425
*CONN
*I *3243:A I *D sky130_fd_sc_hd__nand4_2
*I *3244:A1 I *D sky130_fd_sc_hd__a31o_2
*I *3241:A1 I *D sky130_fd_sc_hd__a21oi_4
*I *4036:A I *D sky130_fd_sc_hd__clkdlybuf4s25_1
*I *3691:A_N I *D sky130_fd_sc_hd__and4bb_2
*I *3252:B1 I *D sky130_fd_sc_hd__a21oi_2
*I *3239:A1 I *D sky130_fd_sc_hd__a21oi_4
*I *3240:A I *D sky130_fd_sc_hd__and2_2
*I *4037:X O *D sky130_fd_sc_hd__clkdlybuf4s25_1
*CAP
1 *3243:A 0
2 *3244:A1 0.0007033
3 *3241:A1 0.000395796
4 *4036:A 2.34823e-05
5 *3691:A_N 0
6 *3252:B1 0.000396077
7 *3239:A1 0
8 *3240:A 0
9 *4037:X 0.00062806
10 *708:88 0.0010991
11 *708:86 0.000231964
12 *708:68 0.00138127
13 *708:45 0.00198181
14 *708:41 0.000434059
15 *708:39 0.000772347
16 *708:24 0.000517841
17 *708:8 0.000444482
18 *3241:A1 *885:10 0
19 *3244:A1 *885:10 0
20 *3252:B1 *868:25 2.09183e-05
21 *3252:B1 *869:71 0.00021039
22 *708:24 *3263:B2 5.50049e-05
23 *708:24 *3930:D 2.96154e-05
24 *708:24 *906:10 3.83778e-05
25 *708:39 *3930:D 8.67156e-05
26 *708:39 *884:14 0.000129707
27 *3238:A2 *3252:B1 7.07651e-05
28 *3238:A3 *3252:B1 0.000113903
29 *3241:A2 *3241:A1 5.56356e-05
30 *3482:B_N *708:45 5.3304e-05
31 *3482:C *3252:B1 0
32 *3482:C *708:68 0
33 *3986:A *3241:A1 5.40337e-05
34 *4034:A *708:8 0.000677705
35 *4034:A *708:24 3.34247e-05
36 *182:10 *708:39 0.000139647
37 *183:10 *3241:A1 5.26101e-05
38 *183:23 *708:86 0.000140259
39 *183:76 *3241:A1 2.73248e-05
40 *184:10 *708:41 6.53382e-05
41 *184:10 *708:45 2.93845e-05
42 *184:57 *3252:B1 0.000136486
43 *184:74 *708:41 2.32004e-05
44 *184:74 *708:45 0.000167268
45 *188:8 *3241:A1 0
46 *188:8 *3244:A1 6.07397e-05
47 *188:33 *3244:A1 0.000113455
48 *193:14 *708:68 9.8108e-05
49 *193:81 *3252:B1 7.17297e-05
50 *200:10 *3252:B1 4.18463e-05
51 *200:26 *3252:B1 9.91442e-06
52 *200:26 *708:68 8.77726e-05
53 *341:8 *3244:A1 0.000135037
54 *341:20 *3241:A1 3.21214e-05
55 *498:16 *708:68 0.000355221
56 *507:24 *708:68 2.64616e-05
57 *603:10 *708:39 1.70886e-05
58 *603:61 *708:39 6.38947e-05
59 *603:73 *3241:A1 0.000616676
60 *637:6 *708:41 6.343e-05
61 *637:6 *708:86 0.000219687
62 *643:16 *708:39 0.000192077
63 *643:24 *708:41 0.000139352
64 *676:10 *708:24 0.000138727
65 *676:10 *708:39 0.000166513
66 *702:27 *3244:A1 4.72245e-05
67 *702:33 *3244:A1 2.36123e-05
68 *702:43 *3244:A1 2.39018e-05
69 *707:6 *708:45 4.08664e-05
70 *707:25 *3252:B1 0.000201672
71 *707:25 *708:68 3.47781e-05
*RES
1 *4037:X *708:8 31.7414 
2 *708:8 *3240:A 23 
3 *4037:X *708:24 41.48 
4 *708:24 *3239:A1 38 
5 *708:24 *708:39 24.8393 
6 *708:39 *708:41 4.43286 
7 *708:41 *708:45 19.4329 
8 *708:45 *3252:B1 47.4871 
9 *708:45 *708:68 35.5071 
10 *708:68 *3691:A_N 23 
11 *708:41 *4036:A 23.4971 
12 *708:39 *708:86 5.55143 
13 *708:86 *708:88 15 
14 *708:88 *3241:A1 48.2743 
15 *708:88 *3244:A1 48.875 
16 *708:86 *3243:A 23 
*END

*D_NET *709 0.00878802
*CONN
*I *3349:C I *D sky130_fd_sc_hd__nand3_2
*I *3347:C I *D sky130_fd_sc_hd__nand3_2
*I *3356:B I *D sky130_fd_sc_hd__nor2_2
*I *3341:A I *D sky130_fd_sc_hd__inv_2
*I *3353:B I *D sky130_fd_sc_hd__or2_2
*I *3354:B I *D sky130_fd_sc_hd__nand2_2
*I *3403:B I *D sky130_fd_sc_hd__and2_2
*I *3402:A I *D sky130_fd_sc_hd__nor2_2
*I *4038:X O *D sky130_fd_sc_hd__clkdlybuf4s25_1
*CAP
1 *3349:C 0.000244138
2 *3347:C 4.25353e-05
3 *3356:B 0.000479945
4 *3341:A 3.51722e-05
5 *3353:B 0
6 *3354:B 7.07551e-05
7 *3403:B 2.11425e-05
8 *3402:A 0.000184183
9 *4038:X 7.50195e-05
10 *709:71 0.000916587
11 *709:60 0.000429279
12 *709:58 0.000549745
13 *709:47 0.000362662
14 *709:38 0.000606789
15 *709:12 0.000343005
16 *709:8 0.000691678
17 *3354:B *895:20 0.000139346
18 *3356:B *3345:A 0.00014525
19 *3356:B *3356:A 6.25845e-05
20 *3356:B *896:33 0.0002778
21 *3402:A *3403:A 0.00024212
22 *709:47 *895:16 4.95081e-05
23 *709:47 *895:20 4.2573e-05
24 *709:58 *895:16 9.90162e-05
25 *3344:A *3341:A 1.12796e-05
26 *3344:A *709:71 1.84917e-05
27 *3347:A *709:71 4.68426e-05
28 *3347:B *709:71 0.000100477
29 *3946:A *709:8 4.67488e-05
30 *273:24 *3349:C 7.33172e-05
31 *275:10 *709:58 0.000141552
32 *275:25 *3349:C 3.96108e-05
33 *275:25 *709:58 4.11274e-05
34 *275:42 *3349:C 9.66177e-05
35 *277:10 *3356:B 0.000189689
36 *277:47 *709:71 1.12268e-05
37 *279:6 *709:71 3.66663e-05
38 *288:10 *3356:B 0.000102551
39 *327:18 *709:38 0
40 *327:27 *709:58 0
41 *335:10 *3402:A 1.57659e-05
42 *335:10 *3403:B 5.58003e-05
43 *561:59 *709:38 0.000376504
44 *566:10 *709:38 0.000823515
45 *566:10 *709:58 0
46 *566:18 *709:12 0.000215949
47 *566:18 *709:38 0.000233453
*RES
1 *4038:X *709:8 39.0979 
2 *709:8 *709:12 17.9621 
3 *709:12 *3402:A 27.785 
4 *709:12 *3403:B 23.6214 
5 *709:8 *709:38 29.2307 
6 *709:38 *3354:B 24.5743 
7 *709:38 *709:47 1.57429 
8 *709:47 *3353:B 23 
9 *709:47 *709:58 22.1257 
10 *709:58 *709:60 15 
11 *709:60 *3341:A 23.8493 
12 *709:60 *709:71 20.3857 
13 *709:71 *3356:B 48.585 
14 *709:71 *3347:C 38.8493 
15 *709:58 *3349:C 42.0186 
*END

*D_NET *710 0.00645924
*CONN
*I *3908:RESET_B I *D sky130_fd_sc_hd__dfrtp_2
*I *3936:RESET_B I *D sky130_fd_sc_hd__dfrtp_2
*I *3907:RESET_B I *D sky130_fd_sc_hd__dfrtp_2
*I *3912:RESET_B I *D sky130_fd_sc_hd__dfrtp_2
*I *3910:RESET_B I *D sky130_fd_sc_hd__dfrtp_2
*I *3911:RESET_B I *D sky130_fd_sc_hd__dfrtp_2
*I *3905:RESET_B I *D sky130_fd_sc_hd__dfrtp_2
*I *3906:RESET_B I *D sky130_fd_sc_hd__dfrtp_2
*I *4039:X O *D sky130_fd_sc_hd__clkdlybuf4s25_1
*CAP
1 *3908:RESET_B 0.000218626
2 *3936:RESET_B 0.000223572
3 *3907:RESET_B 0.000154671
4 *3912:RESET_B 0.000461803
5 *3910:RESET_B 8.74824e-05
6 *3911:RESET_B 0.000244376
7 *3905:RESET_B 6.911e-05
8 *3906:RESET_B 0.000339007
9 *4039:X 0.000111436
10 *710:70 0.000378243
11 *710:68 0.000436053
12 *710:16 0.00065265
13 *710:14 0.000664056
14 *710:8 0.000618443
15 *3906:RESET_B *739:12 0
16 *3906:RESET_B *739:18 0
17 *3906:RESET_B *890:14 3.70094e-05
18 *3906:RESET_B *891:8 0
19 *3907:RESET_B *738:14 0
20 *3907:RESET_B *892:8 8.62783e-05
21 *3910:RESET_B *890:14 3.54728e-05
22 *3910:RESET_B *896:33 0
23 *3912:RESET_B *897:10 3.66903e-05
24 *3936:RESET_B *738:14 0
25 *3936:RESET_B *892:8 3.47781e-05
26 *710:8 *4039:A 2.18506e-05
27 *710:14 *3937:RESET_B 0
28 *710:14 *890:14 0.000704567
29 *710:14 *896:10 0
30 *710:14 *896:33 0
31 *710:16 *3937:RESET_B 0
32 *710:16 *739:12 0
33 *710:16 *890:14 0.000429444
34 empty *710:14 2.26497e-05
35 *3911:CLK *3912:RESET_B 0.00011572
36 *3912:CLK *3908:RESET_B 0.000177045
37 *4114:A *710:8 9.8203e-05
*RES
1 *4039:X *710:8 39.5743 
2 *710:8 *710:14 10.7714 
3 *710:14 *710:16 5.77929 
4 *710:16 *3906:RESET_B 21.5975 
5 *710:16 *3905:RESET_B 16.0254 
6 *710:14 *3911:RESET_B 15 
7 *710:8 *3910:RESET_B 16.5536 
8 *3911:RESET_B *3912:RESET_B 4.28786 
9 *3912:RESET_B *710:68 3.57321 
10 *710:68 *710:70 15 
11 *710:70 *3907:RESET_B 17.5789 
12 *710:70 *3936:RESET_B 19.0186 
13 *710:68 *3908:RESET_B 4.8575 
*END

*D_NET *711 0.00706538
*CONN
*I *3943:RESET_B I *D sky130_fd_sc_hd__dfrtp_2
*I *3913:RESET_B I *D sky130_fd_sc_hd__dfrtp_2
*I *4039:A I *D sky130_fd_sc_hd__clkdlybuf4s25_1
*I *3938:SET_B I *D sky130_fd_sc_hd__dfstp_2
*I *3937:RESET_B I *D sky130_fd_sc_hd__dfrtp_2
*I *4040:X O *D sky130_fd_sc_hd__clkdlybuf4s25_1
*CAP
1 *3943:RESET_B 0.000118678
2 *3913:RESET_B 0.00035855
3 *4039:A 0.000464592
4 *3938:SET_B 0.000215236
5 *3937:RESET_B 0.000343596
6 *4040:X 0.000112013
7 *711:16 0.00064593
8 *711:14 0.000667269
9 *711:12 0.00059494
10 *711:6 0.000351501
11 *3913:RESET_B *872:10 5.84961e-05
12 *3913:RESET_B *890:14 3.7122e-06
13 *3913:RESET_B *898:10 5.50106e-05
14 *3937:RESET_B *896:10 0.000298325
15 *3938:SET_B *3938:D 2.64616e-05
16 *3943:RESET_B *896:33 0.000191157
17 *4039:A *4038:A 5.3304e-05
18 *711:6 *712:14 8.88657e-05
19 *711:6 *712:24 0.000144501
20 *711:6 *730:16 7.75899e-05
21 *711:12 *712:24 9.41704e-05
22 *711:12 *896:33 0.000192087
23 *711:14 *896:10 3.47781e-05
24 *711:14 *896:33 0.000209739
25 *711:16 *896:10 0.000274206
26 *3910:CLK *3913:RESET_B 5.50106e-05
27 *4114:A *4039:A 0.000318782
28 *15:24 *3937:RESET_B 0.000239429
29 *15:24 *711:12 9.74655e-05
30 *15:24 *711:14 0.00013255
31 *15:24 *711:16 0.000145416
32 *374:16 *3937:RESET_B 7.58054e-05
33 *564:16 *3937:RESET_B 1.6374e-05
34 *642:20 *711:6 0.000238359
35 *642:20 *711:12 4.96303e-05
36 *710:8 *4039:A 2.18506e-05
37 *710:14 *3937:RESET_B 0
38 *710:16 *3937:RESET_B 0
*RES
1 *4040:X *711:6 27.9093 
2 *711:6 *711:12 18.7079 
3 *711:12 *711:14 3.31429 
4 *711:14 *711:16 3.66643 
5 *711:16 *3937:RESET_B 23.6896 
6 *711:16 *3938:SET_B 18.0968 
7 *711:14 *4039:A 46.8864 
8 *711:12 *3913:RESET_B 21.3282 
9 *711:6 *3943:RESET_B 32.61 
*END

*D_NET *712 0.00883065
*CONN
*I *3935:RESET_B I *D sky130_fd_sc_hd__dfrtp_2
*I *3934:RESET_B I *D sky130_fd_sc_hd__dfrtp_2
*I *4040:A I *D sky130_fd_sc_hd__clkdlybuf4s25_1
*I *3942:RESET_B I *D sky130_fd_sc_hd__dfrtp_2
*I *3904:RESET_B I *D sky130_fd_sc_hd__dfrtp_2
*I *3909:RESET_B I *D sky130_fd_sc_hd__dfrtp_2
*I *4041:X O *D sky130_fd_sc_hd__clkdlybuf4s25_1
*CAP
1 *3935:RESET_B 8.48355e-05
2 *3934:RESET_B 0.000337379
3 *4040:A 0
4 *3942:RESET_B 0
5 *3904:RESET_B 0.000422297
6 *3909:RESET_B 0.000479923
7 *4041:X 0.000254186
8 *712:24 0.0017315
9 *712:14 0.00144293
10 *712:10 0.000275786
11 *3904:RESET_B *3406:B 2.8818e-05
12 *3904:RESET_B *889:10 7.89616e-05
13 *3909:RESET_B *729:46 0
14 *3909:RESET_B *729:54 0
15 *3909:RESET_B *734:10 0
16 *3934:RESET_B *3934:D 0.000198447
17 *3934:RESET_B *736:8 4.83893e-05
18 *3934:RESET_B *873:8 5.52801e-05
19 *3934:RESET_B *874:12 0
20 *3935:RESET_B *736:8 4.70852e-05
21 *3935:RESET_B *899:14 0.000138708
22 *712:10 *895:10 0.000347408
23 *712:10 *896:33 0
24 *712:14 *730:16 5.40241e-05
25 *712:24 *3234:A 2.64616e-05
26 *712:24 *730:16 0.00030403
27 *712:24 *734:10 0
28 *712:24 *895:48 8.16279e-05
29 *175:22 *3909:RESET_B 0.000166522
30 *175:22 *712:24 0.000209739
31 *180:20 *3909:RESET_B 0
32 *336:10 *712:24 0.000143535
33 *563:10 *3909:RESET_B 0
34 *563:61 *3904:RESET_B 4.83954e-05
35 *642:20 *712:24 0.00135591
36 *681:22 *3935:RESET_B 0.000140949
37 *711:6 *712:14 8.88657e-05
38 *711:6 *712:24 0.000144501
39 *711:12 *712:24 9.41704e-05
*RES
1 *4041:X *712:10 43.3443 
2 *712:10 *712:14 16.0979 
3 *712:14 *712:24 48.1636 
4 *712:24 *3909:RESET_B 20.7793 
5 *3909:RESET_B *3904:RESET_B 33.48 
6 *712:24 *3942:RESET_B 15 
7 *712:14 *4040:A 23 
8 *3904:RESET_B *3934:RESET_B 35.9968 
9 *3934:RESET_B *3935:RESET_B 32.4546 
*END

*D_NET *713 0.0164399
*CONN
*I *3890:RESET_B I *D sky130_fd_sc_hd__dfrtp_2
*I *3939:RESET_B I *D sky130_fd_sc_hd__dfrtp_2
*I *3940:RESET_B I *D sky130_fd_sc_hd__dfrtp_2
*I *3889:RESET_B I *D sky130_fd_sc_hd__dfrtp_2
*I *3891:RESET_B I *D sky130_fd_sc_hd__dfrtp_2
*I *3888:SET_B I *D sky130_fd_sc_hd__dfstp_2
*I *4041:A I *D sky130_fd_sc_hd__clkdlybuf4s25_1
*I *3892:RESET_B I *D sky130_fd_sc_hd__dfrtp_2
*I *4042:X O *D sky130_fd_sc_hd__clkdlybuf4s25_1
*CAP
1 *3890:RESET_B 0.000116323
2 *3939:RESET_B 0.000108357
3 *3940:RESET_B 0.000762934
4 *3889:RESET_B 0.000263126
5 *3891:RESET_B 0.00232711
6 *3888:SET_B 0.00123348
7 *4041:A 0
8 *3892:RESET_B 0.000262357
9 *4042:X 6.27375e-05
10 *713:100 0.000959886
11 *713:98 0.000368528
12 *713:79 0.00143075
13 *713:27 0.0012075
14 *713:12 0.00193798
15 *713:8 0.000768469
16 *3888:SET_B *877:8 0
17 *3891:RESET_B *4042:A 2.13733e-05
18 *3891:RESET_B *878:14 8.30457e-05
19 *3940:RESET_B *715:12 0.00031007
20 *3940:RESET_B *727:55 0.000173507
21 *3940:RESET_B *729:20 6.12484e-05
22 *3940:RESET_B *729:37 0.000397013
23 *3940:RESET_B *731:12 0.00040943
24 *713:27 *3357:A 0
25 *713:27 *895:10 0
26 *713:98 *715:12 9.74481e-05
27 *713:100 *715:12 4.34173e-05
28 *3250:B *3940:RESET_B 0.000153308
29 *3367:A2 *3889:RESET_B 2.79603e-05
30 *3382:A *713:79 0.000352588
31 *3382:B *713:79 2.95526e-05
32 *3401:A1 *3891:RESET_B 0.000138593
33 *3888:CLK *3891:RESET_B 3.46216e-05
34 *3889:CLK *713:98 0
35 *3890:D *3890:RESET_B 4.65874e-05
36 *4069:A *713:12 2.5343e-05
37 *298:14 *3889:RESET_B 0.000115526
38 *299:14 *713:79 0.000507005
39 *300:6 *713:79 0.000493497
40 *314:8 *713:79 9.79925e-05
41 *315:8 *3891:RESET_B 9.45324e-06
42 *565:26 *3939:RESET_B 4.91889e-05
43 *565:26 *3940:RESET_B 0
44 *565:26 *713:98 0
45 *565:26 *713:100 0
46 *617:10 *713:12 0
47 *627:10 *3891:RESET_B 5.5792e-05
48 *640:8 *3888:SET_B 0.00024785
49 *640:8 *713:12 0.0001661
50 *649:10 *713:79 5.0518e-05
51 *660:10 *3892:RESET_B 0
52 *660:10 *713:12 9.63815e-05
53 *675:10 *3940:RESET_B 5.75798e-05
54 *680:8 *3888:SET_B 0.000107677
55 *680:8 *713:12 0.000112608
56 *687:24 *3940:RESET_B 5.80679e-05
*RES
1 *4042:X *713:8 38.6214 
2 *713:8 *713:12 11.2789 
3 *713:12 *3892:RESET_B 19.6089 
4 *713:12 *713:27 38.4796 
5 *713:27 *4041:A 23 
6 *713:8 *3888:SET_B 20.2925 
7 *3888:SET_B *3891:RESET_B 47.1514 
8 *3891:RESET_B *713:79 49.8029 
9 *713:79 *3889:RESET_B 32.1025 
10 *3889:RESET_B *713:98 19.0186 
11 *713:98 *713:100 1.90571 
12 *713:100 *3940:RESET_B 34.7925 
13 *713:100 *3939:RESET_B 16.9782 
14 *713:98 *3890:RESET_B 16.9782 
*END

*D_NET *714 0.00946475
*CONN
*I *3919:RESET_B I *D sky130_fd_sc_hd__dfrtp_2
*I *3927:RESET_B I *D sky130_fd_sc_hd__dfrtp_2
*I *3914:RESET_B I *D sky130_fd_sc_hd__dfrtp_2
*I *3915:RESET_B I *D sky130_fd_sc_hd__dfrtp_2
*I *3924:RESET_B I *D sky130_fd_sc_hd__dfrtp_2
*I *3920:RESET_B I *D sky130_fd_sc_hd__dfrtp_2
*I *3930:RESET_B I *D sky130_fd_sc_hd__dfrtp_2
*I *3931:RESET_B I *D sky130_fd_sc_hd__dfrtp_2
*I *4043:X O *D sky130_fd_sc_hd__clkdlybuf4s25_1
*CAP
1 *3919:RESET_B 0
2 *3927:RESET_B 0.000945124
3 *3914:RESET_B 0.00114174
4 *3915:RESET_B 0
5 *3924:RESET_B 0
6 *3920:RESET_B 0.000205614
7 *3930:RESET_B 6.14755e-05
8 *3931:RESET_B 0.000914994
9 *4043:X 9.81512e-05
10 *714:77 0.000282004
11 *714:70 0.000295051
12 *714:66 0.00026964
13 *714:52 0.000927843
14 *714:34 0.00156426
15 *714:8 0.000172613
16 *3914:RESET_B *899:14 0
17 *3930:RESET_B *868:50 3.08719e-06
18 *714:34 *3930:D 0
19 *714:34 *868:50 0.000122397
20 *714:34 *906:8 0.000141954
21 *714:52 *3920:D 0.000141877
22 *714:52 *910:16 7.07396e-05
23 *714:66 *3920:D 0.000113508
24 *714:70 *3920:D 0.000142183
25 *714:70 *879:10 0
26 *714:77 *3920:D 5.80963e-05
27 *714:77 *879:10 0
28 *714:77 *899:14 0
29 *3914:CLK *3927:RESET_B 1.94693e-05
30 *3927:CLK *3927:RESET_B 0.000196039
31 *3931:CLK *714:34 0.000401359
32 *184:18 *714:34 0
33 *184:18 *714:52 0
34 *185:21 *714:34 5.41385e-05
35 *185:31 *714:34 0.000137153
36 *185:31 *714:52 1.83667e-05
37 *187:8 *714:8 0.000166522
38 *191:16 *714:8 0
39 *193:14 *714:52 0
40 *216:72 *3931:RESET_B 0.000131432
41 *216:72 *714:34 0.000168921
42 *603:10 *714:52 4.73689e-05
43 *603:31 *3930:RESET_B 2.13733e-05
44 *603:61 *3920:RESET_B 0.000137533
45 *603:61 *714:52 1.52259e-05
46 *606:10 *3914:RESET_B 0
47 *606:10 *714:77 0
48 *606:39 *3914:RESET_B 0
49 *637:12 *714:52 6.38543e-05
50 *643:24 *714:52 0.000213648
*RES
1 *4043:X *714:8 40.2579 
2 *714:8 *3931:RESET_B 16.5018 
3 *3931:RESET_B *714:34 33.7154 
4 *714:34 *3930:RESET_B 16.0254 
5 *714:34 *714:52 13.775 
6 *714:52 *3920:RESET_B 18.0968 
7 *714:52 *714:66 1.55357 
8 *714:66 *714:70 4.64 
9 *714:70 *3924:RESET_B 15 
10 *714:70 *714:77 1.90571 
11 *714:77 *3915:RESET_B 15 
12 *714:77 *3914:RESET_B 19.0186 
13 *3914:RESET_B *3927:RESET_B 14.6243 
14 *714:66 *3919:RESET_B 15 
*END

*D_NET *715 0.0110964
*CONN
*I *3222:D I *D sky130_fd_sc_hd__nand4_2
*I *3220:D I *D sky130_fd_sc_hd__nand4_2
*I *3249:A2 I *D sky130_fd_sc_hd__a21oi_2
*I *3256:A3 I *D sky130_fd_sc_hd__a311o_2
*I *3216:C I *D sky130_fd_sc_hd__nand3b_2
*I *3224:D I *D sky130_fd_sc_hd__nand4b_2
*I *3228:C I *D sky130_fd_sc_hd__and3b_4
*I *4074:X O *D sky130_fd_sc_hd__clkdlybuf4s25_1
*CAP
1 *3222:D 0.000180022
2 *3220:D 0.00012875
3 *3249:A2 9.22105e-05
4 *3256:A3 0.000299709
5 *3216:C 0
6 *3224:D 8.00636e-05
7 *3228:C 0.000164027
8 *4074:X 0
9 *715:31 0.000161984
10 *715:29 0.000583522
11 *715:27 0.000408222
12 *715:25 0.000846358
13 *715:12 0.00170356
14 *715:6 0.00111607
15 *715:12 *728:21 8.54986e-05
16 *715:12 *731:12 0.000203929
17 *3219:A *3249:A2 9.67842e-05
18 *3220:C *3220:D 5.50106e-05
19 *3220:C *3222:D 5.3304e-05
20 *3220:C *715:27 0.000151907
21 *3222:A *3220:D 5.50106e-05
22 *3222:A *3222:D 2.41378e-06
23 *3222:C *3222:D 5.50106e-05
24 *3229:D *3228:C 9.66668e-05
25 *3249:A1 *3249:A2 5.12254e-05
26 *3256:A2 *3256:A3 0.000137651
27 *3256:C1 *3256:A3 0
28 *3940:RESET_B *715:12 0.00031007
29 *4078:A *715:27 3.70187e-05
30 *4078:A *715:29 0.000215791
31 *169:41 *3222:D 0.000235203
32 *172:6 *3222:D 5.37348e-06
33 *173:83 *3224:D 0.000248989
34 *173:83 *715:31 2.55642e-05
35 *177:6 *3228:C 0.000100477
36 *192:8 *3249:A2 6.17437e-06
37 *298:14 *715:12 0.000391087
38 *565:109 *3228:C 0.00040564
39 *565:109 *715:12 0.00026528
40 *642:30 *3224:D 0.000168754
41 *642:30 *715:31 1.14452e-05
42 *642:45 *3249:A2 0.000140259
43 *642:45 *715:29 2.35393e-05
44 *642:45 *715:31 6.42902e-05
45 *642:64 *715:25 0.000224039
46 *642:64 *715:27 6.08043e-05
47 *642:64 *715:29 9.48381e-06
48 *675:10 *715:25 0.000173472
49 *675:10 *715:27 1.12487e-05
50 *681:110 *715:25 0.000543779
51 *683:30 *3228:C 1.35714e-05
52 *683:30 *715:12 9.12808e-05
53 *683:38 *715:29 0
54 *683:44 *715:29 0
55 *683:104 *715:25 3.574e-05
56 *687:12 *715:12 0
57 *687:46 *3256:A3 5.48957e-05
58 *687:135 *3224:D 2.72055e-05
59 *697:8 *3256:A3 0.000171296
60 *697:19 *715:31 0
61 *698:18 *3222:D 7.4838e-05
62 *713:98 *715:12 9.74481e-05
63 *713:100 *715:12 4.34173e-05
*RES
1 *4074:X *715:6 38 
2 *715:6 *715:12 42.4464 
3 *715:12 *3228:C 28.2821 
4 *715:12 *715:25 27.1179 
5 *715:25 *715:27 2.96214 
6 *715:27 *715:29 3.66643 
7 *715:29 *715:31 1.90571 
8 *715:31 *3224:D 41.3143 
9 *715:31 *3216:C 38 
10 *715:29 *3256:A3 42.8057 
11 *715:27 *3249:A2 40.5271 
12 *715:25 *3220:D 39.7193 
13 *715:25 *3222:D 42.6193 
*END

*D_NET *716 0.00661148
*CONN
*I *3917:RESET_B I *D sky130_fd_sc_hd__dfrtp_2
*I *3916:RESET_B I *D sky130_fd_sc_hd__dfrtp_2
*I *3921:RESET_B I *D sky130_fd_sc_hd__dfrtp_2
*I *3925:RESET_B I *D sky130_fd_sc_hd__dfrtp_2
*I *3928:RESET_B I *D sky130_fd_sc_hd__dfrtp_2
*I *3922:RESET_B I *D sky130_fd_sc_hd__dfrtp_2
*I *3918:RESET_B I *D sky130_fd_sc_hd__dfrtp_2
*I *3923:RESET_B I *D sky130_fd_sc_hd__dfrtp_2
*I *4044:X O *D sky130_fd_sc_hd__clkdlybuf4s25_1
*CAP
1 *3917:RESET_B 0.000185407
2 *3916:RESET_B 0.000166573
3 *3921:RESET_B 5.97812e-05
4 *3925:RESET_B 0.000130751
5 *3928:RESET_B 0.000179046
6 *3922:RESET_B 0.000488321
7 *3918:RESET_B 9.48124e-05
8 *3923:RESET_B 0
9 *4044:X 0.000324572
10 *716:68 0.000383213
11 *716:58 0.00034285
12 *716:56 0.000501077
13 *716:40 0.000545582
14 *716:17 0.000787764
15 *716:10 0.000635308
16 *3916:RESET_B *730:37 0.000427363
17 *3916:RESET_B *739:18 0
18 *3916:RESET_B *881:10 0.000101536
19 *3917:RESET_B *739:18 3.26241e-05
20 *3918:RESET_B *883:10 6.17437e-06
21 *3922:RESET_B *883:10 0
22 *3928:RESET_B *730:37 3.88504e-05
23 *716:10 *717:59 0.000232401
24 *716:10 *888:34 0
25 *716:17 *717:59 0
26 *716:17 *883:10 0
27 *716:40 *887:8 5.50106e-05
28 *716:56 *730:37 0.000131733
29 *716:68 *730:37 0.000298172
30 *716:68 *881:10 2.35118e-06
31 *3917:CLK *3925:RESET_B 9.41704e-05
32 *3917:CLK *716:58 5.58003e-05
33 *3922:CLK *3922:RESET_B 0
34 *3923:CLK *3922:RESET_B 0
35 *344:14 *3922:RESET_B 0
36 *344:14 *716:17 0
37 *604:25 *3928:RESET_B 4.73712e-05
38 *607:30 *3921:RESET_B 8.79516e-05
39 *643:45 *3928:RESET_B 0.000174906
40 *677:8 *3922:RESET_B 0
*RES
1 *4044:X *716:10 43.8621 
2 *716:10 *3923:RESET_B 15 
3 *716:10 *716:17 5.77929 
4 *716:17 *3918:RESET_B 16.5018 
5 *716:17 *3922:RESET_B 20.7793 
6 *3922:RESET_B *716:40 16.9782 
7 *716:40 *3928:RESET_B 18.8839 
8 *716:40 *716:56 20.9243 
9 *716:56 *716:58 1.09786 
10 *716:58 *3925:RESET_B 1.97821 
11 *716:58 *716:68 19.0186 
12 *716:68 *3921:RESET_B 16.0254 
13 *716:68 *3916:RESET_B 20.7793 
14 *716:56 *3917:RESET_B 3.4075 
*END

*D_NET *717 0.00946483
*CONN
*I *3933:RESET_B I *D sky130_fd_sc_hd__dfrtp_2
*I *4044:A I *D sky130_fd_sc_hd__clkdlybuf4s25_1
*I *3926:RESET_B I *D sky130_fd_sc_hd__dfrtp_2
*I *3932:RESET_B I *D sky130_fd_sc_hd__dfrtp_2
*I *4043:A I *D sky130_fd_sc_hd__clkdlybuf4s25_1
*I *4045:X O *D sky130_fd_sc_hd__clkdlybuf4s25_1
*CAP
1 *3933:RESET_B 0.00032183
2 *4044:A 0
3 *3926:RESET_B 0.000480068
4 *3932:RESET_B 0.000607753
5 *4043:A 3.80122e-05
6 *4045:X 0
7 *717:59 0.000414812
8 *717:29 0.00118638
9 *717:14 0.000514464
10 *717:10 0.00111605
11 *717:4 0.0014748
12 *3932:RESET_B *871:10 5.5792e-05
13 *3933:RESET_B *3267:B 0
14 *3933:RESET_B *903:8 3.08719e-06
15 *3933:RESET_B *903:21 0
16 *3933:RESET_B *909:14 1.01436e-05
17 *4043:A *911:8 5.3304e-05
18 *717:10 *3413:B 0.000111138
19 *717:10 *3925:D 1.58805e-05
20 *717:29 *3925:D 0.00053823
21 *717:59 *718:21 0.000380342
22 *717:59 *883:10 0.000169674
23 *3414:A *717:10 9.67842e-05
24 *3414:B *717:10 0.000137383
25 *3926:CLK *3926:RESET_B 1.84917e-05
26 *191:10 *3933:RESET_B 0
27 *191:16 *3933:RESET_B 0
28 *191:16 *717:10 8.51167e-05
29 *191:16 *717:29 0.000934579
30 *342:8 *717:10 0.000382574
31 *344:14 *717:10 4.06849e-05
32 *643:6 *717:14 4.5051e-05
33 *716:10 *717:59 0.000232401
34 *716:17 *717:59 0
*RES
1 *4045:X *717:4 23 
2 *717:4 *717:10 36.3979 
3 *717:10 *717:14 16.0979 
4 *717:14 *4043:A 23.6214 
5 *717:14 *717:29 43.3193 
6 *717:29 *3932:RESET_B 4.52607 
7 *717:29 *3926:RESET_B 6.90821 
8 *717:4 *717:59 40.1293 
9 *717:59 *4044:A 23 
10 *3932:RESET_B *3933:RESET_B 35.6446 
*END

*D_NET *718 0.0182597
*CONN
*I *3929:RESET_B I *D sky130_fd_sc_hd__dfrtp_2
*I *3894:RESET_B I *D sky130_fd_sc_hd__dfrtp_2
*I *3895:RESET_B I *D sky130_fd_sc_hd__dfrtp_2
*I *3896:RESET_B I *D sky130_fd_sc_hd__dfrtp_2
*I *3897:RESET_B I *D sky130_fd_sc_hd__dfrtp_2
*I *4045:A I *D sky130_fd_sc_hd__clkdlybuf4s25_1
*I *3893:RESET_B I *D sky130_fd_sc_hd__dfrtp_2
*I *4046:X O *D sky130_fd_sc_hd__clkdlybuf4s25_1
*CAP
1 *3929:RESET_B 0
2 *3894:RESET_B 0
3 *3895:RESET_B 6.4202e-05
4 *3896:RESET_B 0.00170912
5 *3897:RESET_B 0.00105017
6 *4045:A 5.145e-05
7 *3893:RESET_B 0.000759598
8 *4046:X 7.69607e-05
9 *718:114 0.00219271
10 *718:91 0.00237649
11 *718:81 0.00180036
12 *718:42 0.0014419
13 *718:21 0.00118176
14 *718:6 0.0014184
15 *718:21 *883:10 2.84912e-05
16 *718:42 *914:8 0.000384737
17 *718:42 *915:10 0.000327903
18 *3294:B1 *718:114 4.72619e-05
19 *3308:A2_N *718:81 9.98726e-05
20 *3308:B2 *718:81 2.19403e-05
21 *3326:B1 *718:91 0.000119599
22 *3326:B1 *718:114 2.36804e-05
23 *3898:D *3897:RESET_B 5.58003e-05
24 *3898:RESET_B *3897:RESET_B 9.2585e-05
25 *3900:RESET_B *718:42 5.3603e-05
26 *3923:CLK *718:21 0.000225265
27 *4091:A *718:6 5.40241e-05
28 *4091:A *718:21 9.44958e-05
29 *8:10 *718:21 0
30 *195:10 *718:114 4.52371e-05
31 *218:39 *718:114 0.000197958
32 *226:10 *718:114 0.000371546
33 *241:8 *718:81 0.00103202
34 *255:10 *718:91 0.000140328
35 *255:10 *718:114 2.14123e-05
36 *558:10 *718:81 5.82853e-05
37 *558:10 *718:91 8.07381e-05
38 *596:62 *3897:RESET_B 9.3372e-05
39 *639:10 *718:42 1.51481e-05
40 *679:8 *3893:RESET_B 4.21594e-06
41 *679:8 *718:21 0
42 *704:10 *3896:RESET_B 6.67555e-05
43 *717:59 *718:21 0.000380342
*RES
1 *4046:X *718:6 24.0979 
2 *718:6 *3893:RESET_B 34.0186 
3 *718:6 *718:21 39.0286 
4 *718:21 *4045:A 38.6214 
5 *3893:RESET_B *718:42 43.2675 
6 *718:42 *3897:RESET_B 12.6254 
7 *3897:RESET_B *3896:RESET_B 32.9311 
8 *3896:RESET_B *718:81 24.2254 
9 *718:81 *3895:RESET_B 1.02536 
10 *718:81 *718:91 20.7793 
11 *718:91 *3894:RESET_B 15 
12 *718:91 *718:114 43.0426 
13 *718:114 *3929:RESET_B 15 
*END

*D_NET *719 0.0105226
*CONN
*I *3672:A1 I *D sky130_fd_sc_hd__mux2_2
*I *3689:A1 I *D sky130_fd_sc_hd__mux2_2
*I *3723:A0 I *D sky130_fd_sc_hd__mux2_2
*I *3706:A1 I *D sky130_fd_sc_hd__mux2_2
*I *3620:A1 I *D sky130_fd_sc_hd__mux2_2
*I *3498:A1 I *D sky130_fd_sc_hd__mux2_2
*I *3654:A1 I *D sky130_fd_sc_hd__mux2_2
*I *3637:A1 I *D sky130_fd_sc_hd__mux2_2
*I *4047:X O *D sky130_fd_sc_hd__clkdlybuf4s25_1
*CAP
1 *3672:A1 0
2 *3689:A1 0
3 *3723:A0 0
4 *3706:A1 0
5 *3620:A1 0.000317957
6 *3498:A1 0
7 *3654:A1 0
8 *3637:A1 5.33703e-05
9 *4047:X 3.7647e-05
10 *719:97 0.000240532
11 *719:82 0.000488815
12 *719:75 0.000514348
13 *719:68 0.000767492
14 *719:37 0.000533541
15 *719:18 0.000871763
16 *719:12 0.000694773
17 *719:10 0.000884645
18 *719:6 0.000695841
19 *3620:A1 *803:12 0
20 *3637:A1 *3637:A0 0.000100061
21 *719:10 *803:27 0.000137651
22 *719:12 *3479:A2 0
23 *719:12 *3479:A3 0
24 *719:12 *747:14 8.4047e-05
25 *719:12 *747:27 0.000341725
26 *719:18 *3637:A0 4.08664e-05
27 *719:37 *3479:A2 2.4306e-05
28 *719:37 *3479:A3 0.000184734
29 *719:37 *3654:A0 0.000295495
30 *719:37 *811:8 0.00016401
31 *719:68 *747:14 5.56356e-05
32 *719:68 *803:27 0.000321581
33 *719:82 *3689:A0 0.000102389
34 *719:82 *3723:A1 5.67058e-05
35 *719:97 *3689:A0 8.29713e-05
36 *3479:S0 *3620:A1 0.000105154
37 *3479:S0 *719:12 0.00010403
38 *3479:S1 *719:68 0.000224649
39 *401:12 *719:68 5.19048e-05
40 *412:10 *719:68 7.8128e-05
41 *488:138 *719:37 5.53196e-05
42 *507:65 *719:97 0.000172834
43 *507:73 *719:82 0.000111784
44 *525:58 *719:97 2.40392e-05
45 *533:10 *719:75 1.84831e-05
46 *605:6 *719:6 2.93431e-05
47 *605:6 *719:10 2.02872e-05
48 *636:17 *3620:A1 4.3407e-05
49 *664:61 *719:18 4.05745e-05
50 *664:61 *719:37 3.72639e-05
51 *669:32 *3620:A1 7.73389e-05
52 *684:48 *719:68 0.000355029
53 *685:40 *719:82 0.000447224
54 *685:40 *719:97 0.000403962
55 *691:56 *719:97 2.8914e-05
*RES
1 *4047:X *719:6 23.6214 
2 *719:6 *719:10 17.0507 
3 *719:10 *719:12 8.59643 
4 *719:12 *719:18 19.5571 
5 *719:18 *3637:A1 24.0979 
6 *719:18 *719:37 41.8693 
7 *719:37 *3654:A1 23 
8 *719:12 *3498:A1 38 
9 *719:10 *3620:A1 43.4893 
10 *719:6 *719:68 41.1857 
11 *719:68 *3706:A1 23 
12 *719:68 *719:75 3.95643 
13 *719:75 *3723:A0 23 
14 *719:75 *719:82 7.29143 
15 *719:82 *3689:A1 23 
16 *719:82 *719:97 36.6079 
17 *719:97 *3672:A1 23 
*END

*D_NET *720 0.0108103
*CONN
*I *3550:A1 I *D sky130_fd_sc_hd__mux2_2
*I *3568:A1 I *D sky130_fd_sc_hd__mux2_2
*I *3532:A0 I *D sky130_fd_sc_hd__mux2_2
*I *3741:A1 I *D sky130_fd_sc_hd__mux2_2
*I *3603:A0 I *D sky130_fd_sc_hd__mux2_2
*I *3586:A1 I *D sky130_fd_sc_hd__mux2_2
*I *3758:A1 I *D sky130_fd_sc_hd__mux2_2
*I *3515:A1 I *D sky130_fd_sc_hd__mux2_2
*I *4048:X O *D sky130_fd_sc_hd__clkdlybuf4s25_1
*CAP
1 *3550:A1 0
2 *3568:A1 0
3 *3532:A0 0
4 *3741:A1 0
5 *3603:A0 0.000608022
6 *3586:A1 0
7 *3758:A1 0
8 *3515:A1 0
9 *4048:X 0.000576608
10 *720:100 0.000532185
11 *720:87 0.000106038
12 *720:81 0.00118617
13 *720:48 0.000259196
14 *720:40 0.000708735
15 *720:36 0.00122448
16 *720:23 0.0011953
17 *720:16 0.000587554
18 *720:10 0.000803877
19 *720:16 *3515:A0 4.4859e-06
20 *720:23 *3515:A0 4.76188e-05
21 *720:23 *3758:A0 4.67488e-05
22 *720:36 *3758:A0 0.000190762
23 *720:48 *3586:A0 4.84129e-06
24 *720:87 *3568:A0 0.000132749
25 *3452:S0 *720:48 0.000110184
26 *3515:S *720:23 7.59041e-05
27 *3544:S *720:100 6.25829e-05
28 *3603:S *720:81 0.000172122
29 *3604:A *720:40 9.75779e-05
30 *398:8 *720:87 1.80419e-05
31 *413:112 *720:10 0
32 *413:112 *720:16 0
33 *413:120 *720:16 0
34 *421:10 *720:16 5.7607e-05
35 *430:10 *720:16 0
36 *432:34 *720:100 2.64616e-05
37 *432:47 *720:100 0.000166522
38 *452:48 *720:48 5.56356e-05
39 *452:66 *720:36 8.62783e-05
40 *461:57 *720:81 6.16164e-05
41 *461:57 *720:100 0.000149289
42 *544:61 *720:36 2.03764e-06
43 *562:106 *720:48 0.000215867
44 *611:47 *720:100 1.01436e-05
45 *613:63 *720:36 0.000200533
46 *636:6 *720:10 0.000121017
47 *636:15 *720:10 4.5051e-05
48 *645:8 *720:100 0
49 *666:24 *720:87 1.14452e-05
50 *666:49 *720:87 8.65472e-05
51 *668:51 *720:10 0.000141888
52 *686:83 *3603:A0 8.53029e-05
53 *686:83 *720:40 0.000402878
54 *686:83 *720:81 1.38615e-05
55 *695:44 *720:48 7.77276e-05
56 *695:66 *720:36 4.08537e-05
*RES
1 *4048:X *720:10 46.12 
2 *720:10 *720:16 19.2879 
3 *720:16 *3515:A1 23 
4 *720:16 *720:23 4.43286 
5 *720:23 *3758:A1 23 
6 *720:23 *720:36 41.8279 
7 *720:36 *720:40 7.78857 
8 *720:40 *720:48 36.4007 
9 *720:48 *3586:A1 23 
10 *720:40 *3603:A0 24.0979 
11 *720:36 *3741:A1 23 
12 *720:10 *3532:A0 38 
13 *3603:A0 *720:81 30.6643 
14 *720:81 *720:87 32.61 
15 *720:87 *3568:A1 23 
16 *720:81 *720:100 38.3479 
17 *720:100 *3550:A1 23 
*END

*D_NET *721 0.0153003
*CONN
*I *3670:A1 I *D sky130_fd_sc_hd__mux2_2
*I *3496:A1 I *D sky130_fd_sc_hd__mux2_2
*I *3618:A1 I *D sky130_fd_sc_hd__mux2_2
*I *3721:A0 I *D sky130_fd_sc_hd__mux2_2
*I *3704:A1 I *D sky130_fd_sc_hd__mux2_2
*I *3687:A1 I *D sky130_fd_sc_hd__mux2_2
*I *3652:A1 I *D sky130_fd_sc_hd__mux2_2
*I *3635:A1 I *D sky130_fd_sc_hd__mux2_2
*I *4049:X O *D sky130_fd_sc_hd__clkdlybuf4s25_1
*CAP
1 *3670:A1 8.34481e-05
2 *3496:A1 0.000292126
3 *3618:A1 0
4 *3721:A0 0.000137181
5 *3704:A1 1.50553e-05
6 *3687:A1 0.000226863
7 *3652:A1 0
8 *3635:A1 0
9 *4049:X 0.000385507
10 *721:79 0.000402892
11 *721:64 0.000801301
12 *721:51 0.000666883
13 *721:42 0.000399042
14 *721:26 0.00134824
15 *721:18 0.00086362
16 *721:12 0.000973471
17 *721:10 0.000892782
18 *3496:A1 *3496:A0 0.000563199
19 *3721:A0 *850:16 0.000163065
20 *721:10 *726:31 2.38288e-05
21 *721:26 *3618:A0 5.29205e-05
22 *721:42 *3635:A0 5.77458e-05
23 *721:51 *810:12 0.000141888
24 *721:79 *3704:A0 4.16051e-06
25 *721:79 *842:8 9.20722e-05
26 *721:79 *850:16 6.80491e-05
27 *3622:D_N *721:12 0.000148412
28 *3766:D *3496:A1 1.64354e-05
29 *125:10 *721:10 0.000108227
30 *202:54 *721:10 2.44754e-05
31 *202:56 *721:10 0.0001432
32 *202:65 *721:10 0.000333088
33 *202:104 *721:10 6.09348e-05
34 *202:104 *721:12 0.000238021
35 *387:8 *3721:A0 0.00042579
36 *387:8 *721:42 0.000270476
37 *387:8 *721:79 0.000166133
38 *393:14 *721:10 0.000251352
39 *393:14 *721:12 0.000251756
40 *404:14 *3496:A1 0.000218158
41 *470:25 *721:12 0.000326924
42 *470:25 *721:18 0.000222193
43 *479:8 *721:12 5.21127e-05
44 *479:8 *721:18 0.000152838
45 *507:30 *3687:A1 4.21921e-05
46 *507:42 *3687:A1 0.000275411
47 *516:109 *3704:A1 5.58003e-05
48 *525:14 *721:12 1.52259e-05
49 *525:29 *721:64 0
50 *525:115 *721:64 0
51 *562:214 *721:42 3.49466e-05
52 *570:16 *3670:A1 5.14826e-05
53 *599:59 *3721:A0 0.000114083
54 *634:35 *721:42 0.000271859
55 *665:12 *721:51 0.000381669
56 *665:12 *721:64 6.93449e-05
57 *665:14 *721:26 8.17328e-05
58 *665:14 *721:42 0.000175903
59 *665:56 *721:26 0.000232049
60 *672:14 *721:18 0.000138727
61 *685:18 *721:64 0
62 *691:16 *3704:A1 5.50106e-05
63 *692:30 *721:51 0.000574058
64 *692:30 *721:64 0.000405324
65 *692:30 *721:79 0.0002596
*RES
1 *4049:X *721:10 47.6943 
2 *721:10 *721:12 12.8221 
3 *721:12 *721:18 22.3536 
4 *721:18 *721:26 11.165 
5 *721:26 *721:42 38.9071 
6 *721:42 *3635:A1 23 
7 *721:26 *721:51 26.7657 
8 *721:51 *3652:A1 38 
9 *721:51 *721:64 7.95429 
10 *721:64 *3687:A1 41.48 
11 *721:64 *721:79 6.89786 
12 *721:79 *3704:A1 38.6214 
13 *721:79 *3721:A0 43.7793 
14 *721:18 *3618:A1 23 
15 *721:12 *3496:A1 46.4307 
16 *721:10 *3670:A1 39.0979 
*END

*D_NET *722 0.00954046
*CONN
*I *3548:A1 I *D sky130_fd_sc_hd__mux2_2
*I *3566:A1 I *D sky130_fd_sc_hd__mux2_2
*I *3756:A1 I *D sky130_fd_sc_hd__mux2_2
*I *3739:A1 I *D sky130_fd_sc_hd__mux2_2
*I *3530:A0 I *D sky130_fd_sc_hd__mux2_2
*I *3601:A0 I *D sky130_fd_sc_hd__mux2_2
*I *3584:A1 I *D sky130_fd_sc_hd__mux2_2
*I *3513:A1 I *D sky130_fd_sc_hd__mux2_2
*I *4050:X O *D sky130_fd_sc_hd__clkdlybuf4s25_1
*CAP
1 *3548:A1 0.000118216
2 *3566:A1 0
3 *3756:A1 0
4 *3739:A1 0
5 *3530:A0 0
6 *3601:A0 6.53552e-05
7 *3584:A1 0.000295954
8 *3513:A1 0.000265692
9 *4050:X 0.000243498
10 *722:76 0.000459052
11 *722:33 0.000898138
12 *722:20 0.00080252
13 *722:18 0.000514831
14 *722:16 0.000913122
15 *722:8 0.000442798
16 *722:6 0.00062884
17 *3513:A1 *754:10 4.43717e-05
18 *3513:A1 *754:27 0.000119818
19 *3548:A1 *3467:A0 8.67876e-05
20 *3548:A1 *3548:A0 0.000144501
21 *3584:A1 *3584:A0 1.63061e-05
22 *722:16 *3466:A0 0.000100778
23 *722:16 *858:10 1.01436e-05
24 *722:18 *3530:A1 0.000228909
25 *722:33 *754:27 7.03869e-05
26 *722:33 *762:8 0
27 *722:33 *786:8 0.00017164
28 *722:76 *3467:A0 0.000404977
29 *3466:S0 *722:16 0
30 *3468:A0 *722:18 0.000313255
31 *3468:A1 *722:18 0.000227208
32 *3814:CLK *3584:A1 7.46417e-05
33 *3814:D *3584:A1 8.15899e-06
34 *4050:A *722:6 9.84851e-05
35 *77:10 *722:76 4.73155e-05
36 *93:10 *3601:A0 0.000103306
37 *93:10 *722:33 6.2088e-05
38 *165:12 *722:6 9.30751e-05
39 *165:12 *722:8 8.06804e-06
40 *165:12 *722:16 3.99649e-05
41 *390:10 *722:76 0.00032159
42 *413:85 *3513:A1 9.67842e-05
43 *442:37 *722:16 0.000157082
44 *449:10 *722:76 0.000177295
45 *452:117 *3513:A1 0
46 *452:117 *722:33 0
47 *452:138 *722:33 0
48 *635:10 *722:76 0.000422723
49 *651:10 *722:33 0
50 *688:47 *722:18 8.09334e-05
51 *688:51 *722:18 0.000161849
52 *688:131 *722:16 0
*RES
1 *4050:X *722:6 27.9093 
2 *722:6 *722:8 0.621429 
3 *722:8 *722:16 37.83 
4 *722:16 *722:18 12.5321 
5 *722:18 *722:20 15 
6 *722:20 *3513:A1 43.4686 
7 *722:20 *722:33 11.7657 
8 *722:33 *3584:A1 41.9771 
9 *722:33 *3601:A0 39.5536 
10 *722:18 *3530:A0 23 
11 *722:16 *3739:A1 23 
12 *722:8 *3756:A1 23 
13 *722:6 *722:76 40.2121 
14 *722:76 *3566:A1 23 
15 *722:76 *3548:A1 25.5271 
*END

*D_NET *723 0.00990189
*CONN
*I *3633:A1 I *D sky130_fd_sc_hd__mux2_2
*I *3719:A0 I *D sky130_fd_sc_hd__mux2_2
*I *3702:A1 I *D sky130_fd_sc_hd__mux2_2
*I *3668:A1 I *D sky130_fd_sc_hd__mux2_2
*I *3685:A1 I *D sky130_fd_sc_hd__mux2_2
*I *3616:A1 I *D sky130_fd_sc_hd__mux2_2
*I *3650:A1 I *D sky130_fd_sc_hd__mux2_2
*I *3494:A1 I *D sky130_fd_sc_hd__mux2_2
*I *4051:X O *D sky130_fd_sc_hd__clkdlybuf4s25_1
*CAP
1 *3633:A1 0
2 *3719:A0 0
3 *3702:A1 8.50016e-05
4 *3668:A1 0
5 *3685:A1 0
6 *3616:A1 0
7 *3650:A1 0
8 *3494:A1 0
9 *4051:X 0.000361725
10 *723:107 0.000224944
11 *723:90 0.000670939
12 *723:79 0.000510633
13 *723:66 0.000598828
14 *723:62 0.000686076
15 *723:47 0.000606463
16 *723:38 0.00121311
17 *723:24 0.000907041
18 *723:10 0.00029822
19 *723:10 *809:14 5.82853e-05
20 *723:24 *809:14 0.000143421
21 *723:38 *3650:A0 0.000100069
22 *723:38 *809:14 4.93812e-05
23 *723:38 *817:32 0.000300098
24 *723:62 *3616:A0 1.14452e-05
25 *3845:D *723:90 0.000235424
26 *4051:A *723:10 5.3304e-05
27 *108:8 *723:38 0.00022052
28 *124:10 *723:62 0.000222104
29 *124:10 *723:90 8.4047e-05
30 *132:8 *723:107 3.83059e-05
31 *476:14 *723:38 0
32 *485:8 *723:38 7.43923e-05
33 *488:88 *723:47 0.000138711
34 *488:88 *723:62 3.48643e-05
35 *488:100 *723:38 0.000281349
36 *488:100 *723:47 3.22051e-05
37 *516:41 *723:66 9.41704e-05
38 *516:41 *723:79 0.00059732
39 *516:86 *723:107 3.64337e-05
40 *525:92 *723:107 2.07484e-05
41 *597:24 *723:107 0.000169674
42 *598:14 *723:79 2.5415e-05
43 *633:23 *723:38 0
44 *634:27 *723:62 1.69668e-05
45 *663:43 *3702:A1 4.96207e-05
46 *663:43 *723:90 8.78068e-05
47 *664:16 *723:10 0.000434246
48 *664:16 *723:24 0.000100231
49 *664:32 *723:38 1.59071e-05
50 *670:44 *723:62 1.24376e-05
*RES
1 *4051:X *723:10 30.8093 
2 *723:10 *3494:A1 23 
3 *4051:X *723:24 25.0714 
4 *723:24 *723:38 47.3379 
5 *723:38 *3650:A1 23 
6 *723:38 *723:47 5.40643 
7 *723:47 *3616:A1 23 
8 *723:47 *723:62 20.2821 
9 *723:62 *723:66 16.0979 
10 *723:66 *3685:A1 23 
11 *723:66 *723:79 38.0164 
12 *723:79 *3668:A1 23 
13 *723:62 *723:90 20.6343 
14 *723:90 *3702:A1 24.0979 
15 *723:90 *723:107 34.9093 
16 *723:107 *3719:A0 23 
17 *723:24 *3633:A1 23 
*END

*D_NET *724 0.0130948
*CONN
*I *3564:A1 I *D sky130_fd_sc_hd__mux2_2
*I *3546:A1 I *D sky130_fd_sc_hd__mux2_2
*I *3511:A1 I *D sky130_fd_sc_hd__mux2_2
*I *3754:A1 I *D sky130_fd_sc_hd__mux2_2
*I *3599:A0 I *D sky130_fd_sc_hd__mux2_2
*I *3582:A1 I *D sky130_fd_sc_hd__mux2_2
*I *3528:A0 I *D sky130_fd_sc_hd__mux2_2
*I *3737:A1 I *D sky130_fd_sc_hd__mux2_2
*I *4052:X O *D sky130_fd_sc_hd__clkdlybuf4s25_1
*CAP
1 *3564:A1 0
2 *3546:A1 0
3 *3511:A1 0
4 *3754:A1 0
5 *3599:A0 0.000417585
6 *3582:A1 5.54152e-05
7 *3528:A0 9.8281e-05
8 *3737:A1 1.08631e-05
9 *4052:X 0.000918913
10 *724:128 0.000391157
11 *724:115 0.00106474
12 *724:87 0.000430124
13 *724:73 0.000860594
14 *724:49 0.00060907
15 *724:36 0.000294158
16 *724:32 0.000824998
17 *724:26 0.00142737
18 *724:10 0.000510708
19 *3528:A0 *3528:A1 5.5792e-05
20 *3528:A0 *761:10 0.000101014
21 *3528:A0 *761:16 3.46013e-05
22 *3582:A1 *729:80 5.27215e-06
23 *3599:A0 *729:114 9.78571e-05
24 *3599:A0 *785:10 8.62876e-05
25 *3599:A0 *793:22 4.48671e-05
26 *724:10 *729:76 3.7122e-06
27 *724:10 *857:19 1.14452e-05
28 *724:36 *761:10 2.64616e-05
29 *724:49 *785:10 9.26005e-05
30 *724:73 *753:12 8.26416e-05
31 *724:73 *761:10 0.000111106
32 *724:73 *761:16 0.000424809
33 *724:115 *3546:A0 0.000102389
34 *724:115 *785:28 0
35 *724:128 *3546:A0 0.000208184
36 *3432:A2 *724:87 5.50049e-05
37 *3565:A *724:115 0.000113678
38 *3754:S *724:87 0.000109352
39 *3755:A *724:26 0.000144501
40 *3781:CLK *724:32 5.56279e-05
41 *3781:D *724:32 0.000148848
42 *26:22 *724:10 0.000209704
43 *68:10 *724:115 1.01436e-05
44 *388:16 *724:49 2.271e-05
45 *388:16 *724:73 0.000900951
46 *388:16 *724:87 3.47879e-05
47 *388:18 *724:32 1.59094e-05
48 *388:18 *724:36 3.20631e-05
49 *413:24 *724:87 0.000188927
50 *452:8 *3737:A1 5.67058e-05
51 *452:14 *724:10 0
52 *452:27 *724:115 0.000260811
53 *461:53 *724:73 0
54 *461:53 *724:87 0
55 *461:139 *3599:A0 5.31444e-05
56 *576:25 *3528:A0 9.04798e-05
57 *576:25 *3599:A0 0.000182086
58 *576:25 *724:49 0.000145457
59 *630:16 *3599:A0 0
60 *630:16 *724:87 0
61 *630:16 *724:115 0
62 *662:20 *724:10 0.000350168
63 *666:16 *724:128 8.62876e-05
64 *668:12 *3528:A0 2.10502e-05
65 *681:44 *724:87 0.000325164
66 *681:52 *724:87 2.32101e-05
67 *687:78 *3737:A1 5.50106e-05
68 *687:101 *724:115 0
69 *697:72 *3599:A0 0
70 *697:72 *724:49 0
*RES
1 *4052:X *724:10 47.3836 
2 *724:10 *3737:A1 38.6214 
3 *4052:X *724:26 30.7679 
4 *724:26 *724:32 6.50429 
5 *724:32 *724:36 16.0979 
6 *724:36 *3528:A0 41.2314 
7 *724:36 *724:49 4.01857 
8 *724:49 *3582:A1 38.6214 
9 *724:49 *3599:A0 48.3571 
10 *724:32 *724:73 27.7393 
11 *724:73 *724:87 38.7829 
12 *724:87 *3754:A1 38 
13 *724:73 *3511:A1 38 
14 *724:26 *724:115 42.7393 
15 *724:115 *3546:A1 23 
16 *724:115 *724:128 35.6343 
17 *724:128 *3564:A1 23 
*END

*D_NET *725 0.0118904
*CONN
*I *3614:A1 I *D sky130_fd_sc_hd__mux2_2
*I *3648:A1 I *D sky130_fd_sc_hd__mux2_2
*I *3683:A1 I *D sky130_fd_sc_hd__mux2_2
*I *3717:A0 I *D sky130_fd_sc_hd__mux2_2
*I *3666:A1 I *D sky130_fd_sc_hd__mux2_2
*I *3700:A1 I *D sky130_fd_sc_hd__mux2_2
*I *3631:A1 I *D sky130_fd_sc_hd__mux2_2
*I *3492:A1 I *D sky130_fd_sc_hd__mux2_2
*I *4053:X O *D sky130_fd_sc_hd__clkdlybuf4s25_1
*CAP
1 *3614:A1 0.000312434
2 *3648:A1 0
3 *3683:A1 0.00063669
4 *3717:A0 0
5 *3666:A1 0.000518438
6 *3700:A1 0
7 *3631:A1 0
8 *3492:A1 0
9 *4053:X 0.000692445
10 *725:85 0.000356125
11 *725:59 0.00112426
12 *725:41 0.000518438
13 *725:39 0.00075908
14 *725:35 0.000812841
15 *725:22 0.00107802
16 *725:6 0.000112069
17 *3683:A1 *3683:A0 4.48474e-05
18 *725:39 *3648:A0 8.9458e-05
19 *725:59 *3454:A2 3.72639e-05
20 *725:59 *3700:A0 0.000137163
21 *725:59 *848:24 0.000295459
22 *3455:S1 *725:39 3.81451e-05
23 *3488:S *725:6 0.000752921
24 *3493:A *725:6 0.000274078
25 *3610:S *3614:A1 2.18506e-05
26 *3610:S *725:35 0.000284605
27 *3610:S *725:85 2.64616e-05
28 *3648:S *3614:A1 0.000396689
29 *350:26 *3683:A1 8.38067e-05
30 *350:26 *725:59 4.41821e-06
31 *484:12 *725:22 0.000155322
32 *493:10 *725:22 0
33 *493:10 *725:35 0
34 *512:10 *3683:A1 0.000404493
35 *512:10 *725:59 7.56282e-05
36 *516:51 *3666:A1 0.000685171
37 *516:57 *3666:A1 5.50106e-05
38 *525:86 *3683:A1 4.53082e-05
39 *594:10 *725:39 0
40 *594:10 *725:59 0.000118908
41 *633:6 *725:22 7.53384e-06
42 *633:21 *725:6 0.000214953
43 *633:21 *725:22 0.000180454
44 *664:32 *725:22 0.000431799
45 *684:86 *725:39 7.1357e-05
46 *684:86 *725:59 3.64353e-05
*RES
1 *4053:X *725:6 31.2443 
2 *725:6 *3492:A1 23 
3 *4053:X *725:22 49.7243 
4 *725:22 *3631:A1 38 
5 *725:22 *725:35 22.4157 
6 *725:35 *725:39 20.7793 
7 *725:39 *725:41 15 
8 *725:41 *3700:A1 23 
9 *725:41 *3666:A1 31.2443 
10 *725:39 *725:59 12.5321 
11 *725:59 *3717:A0 38 
12 *725:59 *3683:A1 49.2686 
13 *725:35 *725:85 0.621429 
14 *725:85 *3648:A1 23 
15 *725:85 *3614:A1 27.9093 
*END

*D_NET *726 0.0152294
*CONN
*I *4025:A I *D sky130_fd_sc_hd__clkdlybuf4s25_1
*I *3470:S0 I *D sky130_fd_sc_hd__mux4_2
*I *4029:A I *D sky130_fd_sc_hd__clkdlybuf4s25_1
*I *3939:Q O *D sky130_fd_sc_hd__dfrtp_2
*CAP
1 *4025:A 2.34823e-05
2 *3470:S0 0
3 *4029:A 0
4 *3939:Q 0
5 *726:37 0.000974488
6 *726:31 0.00207963
7 *726:23 0.00271323
8 *726:21 0.00170513
9 *726:12 0.00107342
10 *726:6 0.000999866
11 *726:12 *727:8 0.000162263
12 *726:23 *727:8 0
13 *726:23 *737:10 0
14 *726:23 *879:10 0
15 *726:23 *899:14 0
16 *726:37 *3670:A0 3.40838e-05
17 *726:37 *727:34 0
18 *726:37 *826:8 8.52094e-06
19 *3250:A *726:12 0
20 *3443:S0 *726:12 9.41704e-05
21 *3443:S0 *726:21 1.24376e-05
22 *3552:B *726:31 0.000123271
23 *3982:A *726:37 5.3304e-05
24 *170:10 *726:23 0.000160182
25 *170:39 *726:23 0.000140949
26 *173:60 *726:23 0
27 *173:71 *726:23 0
28 *173:83 *726:23 0
29 *177:10 *726:12 0
30 *179:12 *726:23 0.000170807
31 *196:8 *726:23 0.000110228
32 *197:10 *726:23 0.000169665
33 *198:10 *726:23 0
34 *392:14 *726:37 0.000198511
35 *441:10 *726:31 0.000315092
36 *488:65 *726:37 7.04982e-05
37 *507:30 *726:37 8.27077e-05
38 *514:10 *726:37 0.000131383
39 *562:200 *726:37 0
40 *565:109 *726:12 3.68285e-05
41 *570:10 *726:37 2.46345e-05
42 *570:16 *726:37 0.000667949
43 *600:46 *726:37 1.07299e-05
44 *632:25 *726:23 0.00122727
45 *667:27 *726:12 0
46 *681:22 *726:23 0
47 *683:38 *726:23 0.00033469
48 *683:44 *726:23 0.000128223
49 *683:59 *726:23 0.00018064
50 *683:104 *726:12 0
51 *698:10 *726:12 0.000115261
52 *698:18 *726:23 0.000110853
53 *699:30 *726:12 0.000154133
54 *699:30 *726:21 4.44894e-05
55 *702:66 *726:31 6.50913e-05
56 *703:61 *726:31 4.50289e-05
57 *703:82 *726:31 1.14154e-05
58 *703:98 *726:31 0.000441053
59 *721:10 *726:31 2.38288e-05
*RES
1 *3939:Q *726:6 38 
2 *726:6 *726:12 35.2586 
3 *726:12 *4029:A 23 
4 *726:12 *726:21 16.5743 
5 *726:21 *726:23 41.3457 
6 *726:23 *726:31 32.9386 
7 *726:31 *726:37 36.7914 
8 *726:37 *3470:S0 15 
9 *726:31 *4025:A 23.4971 
*END

*D_NET *727 0.0156413
*CONN
*I *4023:A I *D sky130_fd_sc_hd__clkdlybuf4s25_1
*I *4020:A I *D sky130_fd_sc_hd__clkdlybuf4s25_1
*I *3470:S1 I *D sky130_fd_sc_hd__mux4_2
*I *3940:Q O *D sky130_fd_sc_hd__dfrtp_2
*CAP
1 *4023:A 0
2 *4020:A 0
3 *3470:S1 0
4 *3940:Q 0.000823241
5 *727:55 0.000823241
6 *727:34 0.000824724
7 *727:28 0.00106402
8 *727:22 0.00110137
9 *727:8 0.00196192
10 *727:6 0.00109984
11 *727:34 *3670:A0 0.000121698
12 *727:34 *826:8 4.93525e-05
13 *727:55 *732:27 3.73205e-05
14 *3448:A1 *727:22 2.56886e-05
15 *3940:CLK *727:55 1.84917e-05
16 *3940:RESET_B *727:55 0.000173507
17 *3953:A *727:22 2.12721e-05
18 *167:12 *727:8 8.16459e-05
19 *168:8 *727:8 0.000650565
20 *170:39 *727:8 4.48568e-05
21 *196:8 *727:8 0.000353858
22 *352:14 *727:22 0.000197774
23 *352:34 *727:22 4.16038e-05
24 *352:44 *727:28 0.000127821
25 *352:44 *727:34 9.84851e-05
26 *374:6 *727:22 0.000268748
27 *392:14 *727:28 4.77568e-05
28 *392:14 *727:34 9.7043e-05
29 *394:10 *727:28 0.000334561
30 *413:16 *727:22 0.000190816
31 *442:10 *727:8 0.000474193
32 *461:6 *727:22 2.47815e-05
33 *488:65 *727:34 0
34 *507:30 *727:34 1.223e-05
35 *570:10 *727:22 0.000269775
36 *570:10 *727:28 0.00041652
37 *674:8 *727:34 0.00170029
38 *683:59 *727:8 0.00119738
39 *691:8 *727:34 0.000169683
40 *698:10 *727:8 0.000101014
41 *698:18 *727:8 0.000431927
42 *726:12 *727:8 0.000162263
43 *726:23 *727:8 0
44 *726:37 *727:34 0
*RES
1 *3940:Q *727:6 38 
2 *727:6 *727:8 35.3593 
3 *727:8 *727:22 48.1043 
4 *727:22 *727:28 22.3536 
5 *727:28 *727:34 38.78 
6 *727:34 *3470:S1 38 
7 *727:28 *4020:A 23 
8 *3940:Q *727:55 33.5229 
9 *727:55 *4023:A 23 
*END

*D_NET *728 0.00195978
*CONN
*I *4017:A I *D sky130_fd_sc_hd__clkdlybuf4s25_1
*I *4018:A I *D sky130_fd_sc_hd__clkdlybuf4s25_1
*I *3941:Q O *D sky130_fd_sc_hd__dfrtp_2
*CAP
1 *4017:A 0
2 *4018:A 0
3 *3941:Q 5.18633e-05
4 *728:21 0.000573952
5 *728:8 0.000625816
6 *728:8 *3941:D 5.5228e-05
7 *728:21 *3941:D 2.98648e-05
8 *3941:RESET_B *728:8 8.60951e-05
9 *3941:RESET_B *728:21 9.67842e-05
10 *687:12 *728:21 7.313e-05
11 *687:24 *728:21 0.000281546
12 *715:12 *728:21 8.54986e-05
*RES
1 *3941:Q *728:8 24.595 
2 *728:8 *4018:A 23 
3 *728:8 *728:21 42.5114 
4 *728:21 *4017:A 23 
*END

*D_NET *729 0.026725
*CONN
*I *3260:A I *D sky130_fd_sc_hd__xor2_2
*I *3230:A I *D sky130_fd_sc_hd__inv_2
*I *3433:A1 I *D sky130_fd_sc_hd__a21bo_2
*I *3477:B1 I *D sky130_fd_sc_hd__o21a_2
*I *3453:B1 I *D sky130_fd_sc_hd__o21a_2
*I *3473:A1 I *D sky130_fd_sc_hd__a21bo_2
*I *3229:C I *D sky130_fd_sc_hd__nand4_4
*I *3942:Q O *D sky130_fd_sc_hd__dfrtp_2
*CAP
1 *3260:A 4.47995e-05
2 *3230:A 0
3 *3433:A1 0
4 *3477:B1 0
5 *3453:B1 0
6 *3473:A1 0
7 *3229:C 0
8 *3942:Q 7.51409e-05
9 *729:114 0.000431422
10 *729:94 0.00051853
11 *729:86 0.00166101
12 *729:80 0.00303374
13 *729:76 0.00303607
14 *729:54 0.00241456
15 *729:46 0.00098807
16 *729:37 0.00169245
17 *729:20 0.00211374
18 *729:12 0.00148208
19 *729:6 0.00124088
20 *3260:A *874:21 1.59094e-05
21 *729:12 *873:8 0.000277705
22 *729:37 *858:10 4.06849e-05
23 *729:46 *873:8 0.000153528
24 *729:54 *873:8 0.0001357
25 *729:76 *3442:A0 0.000125234
26 *729:76 *3442:A2 0.000164032
27 *729:86 *3544:A0 3.90213e-05
28 *729:94 *3544:A0 0.000475502
29 *729:94 *3562:A0 0.000201474
30 *729:94 *768:10 0.000221193
31 *729:94 *776:8 8.11557e-05
32 *3229:A *729:20 5.00237e-05
33 *3231:A1 *729:54 4.98398e-05
34 *3231:A2 *729:54 5.45541e-05
35 *3231:B1 *729:54 2.67084e-05
36 *3231:B1 *729:76 5.82853e-05
37 *3255:B *729:12 0
38 *3366:A1_N *729:37 0.000141308
39 *3369:A1 *729:12 0.000212479
40 *3473:B1_N *729:37 5.50049e-05
41 *3582:A1 *729:80 5.27215e-06
42 *3582:S *729:80 0.000220014
43 *3599:A0 *729:114 9.78571e-05
44 *3751:A *729:76 0.000100477
45 *3878:CLK *729:37 9.91024e-05
46 *3878:D *729:37 5.99823e-05
47 *3909:RESET_B *729:46 0
48 *3909:RESET_B *729:54 0
49 *3940:RESET_B *729:20 6.12484e-05
50 *3940:RESET_B *729:37 0.000397013
51 *26:22 *729:76 7.2567e-05
52 *162:10 *729:76 2.95526e-05
53 *169:8 *729:12 0
54 *169:35 *729:12 0.000300098
55 *169:48 *729:12 8.24662e-05
56 *174:10 *729:12 0
57 *175:22 *729:46 0
58 *178:6 *729:20 1.24298e-05
59 *179:12 *729:76 0.000100486
60 *301:12 *729:12 0.000265059
61 *352:58 *729:94 3.79407e-05
62 *356:14 *729:114 9.75779e-05
63 *368:10 *729:76 5.25626e-05
64 *377:10 *729:94 0.000153585
65 *398:8 *729:86 2.88827e-05
66 *413:75 *729:37 6.53382e-05
67 *452:14 *729:80 0.00026044
68 *452:37 *729:114 4.36915e-05
69 *458:10 *729:86 1.94693e-05
70 *458:14 *729:114 6.07929e-05
71 *461:34 *729:94 5.50106e-05
72 *461:53 *729:114 0.000509855
73 *461:139 *729:114 0.000392717
74 *467:10 *729:114 4.96717e-05
75 *563:61 *729:54 2.95526e-05
76 *563:69 *729:54 0.00015118
77 *565:80 *729:6 5.37348e-06
78 *565:80 *729:12 0
79 *565:109 *729:20 2.75275e-06
80 *576:25 *729:114 0.000512087
81 *618:83 *729:94 2.51913e-05
82 *642:24 *729:6 8.85299e-06
83 *642:24 *729:12 6.74969e-06
84 *662:20 *729:76 0.000141252
85 *675:10 *729:20 6.33771e-05
86 *675:10 *729:37 0.000388792
87 *683:30 *729:20 0.000112422
88 *687:24 *729:12 0
89 *687:24 *729:20 0.000230726
90 *724:10 *729:76 3.7122e-06
*RES
1 *3942:Q *729:6 24.0979 
2 *729:6 *729:12 38.78 
3 *729:12 *729:20 36.7114 
4 *729:20 *3229:C 38 
5 *729:20 *729:37 45.9886 
6 *729:37 *3473:A1 23 
7 *729:6 *729:46 17.2579 
8 *729:46 *729:54 27.7807 
9 *729:54 *729:76 43.3786 
10 *729:76 *729:80 34.6786 
11 *729:80 *729:86 29.79 
12 *729:86 *729:94 29.645 
13 *729:94 *3453:B1 23 
14 *729:86 *3477:B1 38 
15 *729:80 *729:114 44.1686 
16 *729:114 *3433:A1 23 
17 *729:54 *3230:A 23 
18 *729:46 *3260:A 38.6214 
*END

*D_NET *730 0.0103778
*CONN
*I *3261:A I *D sky130_fd_sc_hd__xor2_2
*I *3918:D I *D sky130_fd_sc_hd__dfrtp_2
*I *3234:A I *D sky130_fd_sc_hd__xnor2_4
*I *3943:Q O *D sky130_fd_sc_hd__dfrtp_2
*CAP
1 *3261:A 0
2 *3918:D 2.08295e-05
3 *3234:A 3.8186e-05
4 *3943:Q 0.000224803
5 *730:37 0.00126673
6 *730:31 0.00169282
7 *730:16 0.0013253
8 *730:10 0.001065
9 *730:10 *895:10 0
10 *730:31 *3938:D 0.000189256
11 *730:31 *897:10 6.25038e-05
12 *730:31 *897:19 0.000352591
13 *730:31 *898:10 7.81176e-05
14 *730:37 *3937:D 0
15 *730:37 *738:14 0
16 *730:37 *739:18 0
17 *730:37 *886:10 2.20542e-05
18 *730:37 *887:10 2.60152e-05
19 *730:37 *897:10 2.42155e-05
20 *730:37 *900:12 0.001183
21 *3906:CLK *730:37 0.000168443
22 *3916:RESET_B *730:37 0.000427363
23 *3917:CLK *730:37 0.000162445
24 *3918:CLK *3918:D 7.53384e-06
25 *3918:CLK *730:37 0.000139647
26 *3928:RESET_B *730:37 3.88504e-05
27 *3943:CLK *730:31 4.39444e-06
28 *343:14 *3918:D 5.67058e-05
29 *344:14 *730:37 0
30 *564:10 *730:31 6.25038e-05
31 *564:10 *730:37 7.43934e-05
32 *564:16 *730:37 0.000123748
33 *564:18 *730:37 4.06408e-05
34 *564:71 *730:31 2.96909e-05
35 *604:8 *730:37 0.000543025
36 *642:20 *730:16 3.49714e-05
37 *711:6 *730:16 7.75899e-05
38 *712:14 *730:16 5.40241e-05
39 *712:24 *3234:A 2.64616e-05
40 *712:24 *730:16 0.00030403
41 *716:56 *730:37 0.000131733
42 *716:68 *730:37 0.000298172
*RES
1 *3943:Q *730:10 40.7757 
2 *730:10 *730:16 26.9521 
3 *730:16 *3234:A 23.6214 
4 *730:16 *730:31 28.0086 
5 *730:31 *730:37 37.8864 
6 *730:37 *3918:D 38.6214 
7 *730:31 *3261:A 38 
*END

*D_NET *731 0.00302077
*CONN
*I *3362:B I *D sky130_fd_sc_hd__nand3_2
*I *3371:D I *D sky130_fd_sc_hd__nand4_2
*I *3361:A1 I *D sky130_fd_sc_hd__a32o_2
*I *3365:B I *D sky130_fd_sc_hd__nand2_2
*I *3939:D I *D sky130_fd_sc_hd__dfrtp_2
*I *3250:Y O *D sky130_fd_sc_hd__nor2_8
*CAP
1 *3362:B 0.00022417
2 *3371:D 4.71424e-05
3 *3361:A1 0
4 *3365:B 0
5 *3939:D 0.00022417
6 *3250:Y 0
7 *731:38 0.000199219
8 *731:28 0.000407611
9 *731:19 0.000252745
10 *731:12 0.000182638
11 *731:4 0.000274133
12 *3361:A3 *731:38 9.58714e-05
13 *3361:B1 *731:38 4.00259e-06
14 *3362:A *3362:B 0
15 *3365:A *3371:D 2.35625e-05
16 *3365:A *731:28 2.34838e-05
17 *3940:RESET_B *731:12 0.00040943
18 *4022:A *731:38 5.3304e-05
19 *280:37 *731:38 1.56762e-05
20 *294:10 *3362:B 4.00259e-06
21 *297:12 *731:38 0.000139657
22 *565:18 *3362:B 6.50913e-05
23 *565:26 *3362:B 3.12704e-05
24 *687:12 *731:38 0.000139657
25 *715:12 *731:12 0.000203929
*RES
1 *3250:Y *731:4 23 
2 *731:4 *731:12 36.0486 
3 *731:12 *3939:D 23 
4 *731:4 *731:19 1.57429 
5 *731:19 *3365:B 23 
6 *731:19 *731:28 2.54786 
7 *731:28 *731:38 34.4536 
8 *731:38 *3361:A1 23 
9 *731:28 *3371:D 24.1186 
10 *3939:D *3362:B 49.9771 
*END

*D_NET *732 0.00427532
*CONN
*I *3360:B1 I *D sky130_fd_sc_hd__a21o_4
*I *3359:A I *D sky130_fd_sc_hd__nand3_2
*I *3940:D I *D sky130_fd_sc_hd__dfrtp_2
*I *3221:Y O *D sky130_fd_sc_hd__nand2_4
*CAP
1 *3360:B1 8.25089e-05
2 *3359:A 0
3 *3940:D 0
4 *3221:Y 0.000336236
5 *732:33 0.000108269
6 *732:27 0.000895163
7 *732:12 0.000704385
8 *732:10 0.000336236
9 *3940:CLK *732:27 0.000492529
10 *178:27 *732:33 1.26098e-05
11 *281:31 *732:33 1.12863e-05
12 *283:10 *732:33 0.000164851
13 *292:8 *732:27 0.000322162
14 *675:10 *732:10 7.87022e-05
15 *681:10 *732:10 0.000136738
16 *687:24 *732:10 0.000463859
17 *699:10 *732:10 9.24659e-05
18 *727:55 *732:27 3.73205e-05
*RES
1 *3221:Y *732:10 47.135 
2 *732:10 *732:12 15 
3 *732:12 *3940:D 23 
4 *732:12 *732:27 14.645 
5 *732:27 *732:33 32.61 
6 *732:33 *3359:A 23 
7 *732:27 *3360:B1 24.0979 
*END

*D_NET *733 0.0070454
*CONN
*I *3374:A I *D sky130_fd_sc_hd__and3_2
*I *3386:B1 I *D sky130_fd_sc_hd__a21o_2
*I *3941:D I *D sky130_fd_sc_hd__dfrtp_2
*I *3227:Y O *D sky130_fd_sc_hd__inv_2
*CAP
1 *3374:A 0
2 *3386:B1 0.000138723
3 *3941:D 0.00114848
4 *3227:Y 0.000300155
5 *733:54 7.17297e-05
6 *733:37 0.000430025
7 *733:12 0.00136805
8 *733:10 0.000300155
9 *3374:B *733:54 0.000141888
10 *3386:A1 *3386:B1 8.25681e-05
11 *3386:A1 *733:37 5.3304e-05
12 *3386:A2 *3386:B1 9.84794e-05
13 *3941:RESET_B *3941:D 0.000859164
14 *3941:RESET_B *733:37 0.000179618
15 *176:27 *733:37 0.000363092
16 *281:38 *733:54 3.47781e-05
17 *282:14 *3386:B1 0.000267173
18 *282:14 *733:37 5.62507e-05
19 *282:31 *3386:B1 4.00259e-06
20 *282:31 *733:37 0.000319905
21 *282:39 *733:37 9.77405e-05
22 *302:12 *3941:D 0.000224977
23 *302:12 *733:37 4.40995e-05
24 *303:10 *733:10 0.000160672
25 *304:14 *733:37 4.87617e-05
26 *305:14 *733:54 0.000166522
27 *318:8 *3386:B1 0
28 *629:10 *733:10 0
29 *728:8 *3941:D 5.5228e-05
30 *728:21 *3941:D 2.98648e-05
*RES
1 *3227:Y *733:10 43.4686 
2 *733:10 *733:12 15 
3 *733:12 *3941:D 44.7086 
4 *733:12 *733:37 8.41 
5 *733:37 *3386:B1 27.4743 
6 *733:37 *733:54 32.2579 
7 *733:54 *3374:A 23 
*END

*D_NET *734 0.00152366
*CONN
*I *3942:D I *D sky130_fd_sc_hd__dfrtp_2
*I *3233:Y O *D sky130_fd_sc_hd__inv_2
*CAP
1 *3942:D 0.000102792
2 *3233:Y 0.000385964
3 *734:10 0.000488755
4 *3232:B *734:10 5.56279e-05
5 *3233:A *734:10 3.18142e-05
6 *3909:RESET_B *734:10 0
7 *175:22 *734:10 0
8 *180:20 *734:10 0.000388786
9 *565:80 *3942:D 6.99175e-05
10 *712:24 *734:10 0
*RES
1 *3233:Y *734:10 45.4779 
2 *734:10 *3942:D 39.5743 
*END

*D_NET *735 0.0016035
*CONN
*I *3395:B I *D sky130_fd_sc_hd__xor2_2
*I *3943:D I *D sky130_fd_sc_hd__dfrtp_2
*I *3234:Y O *D sky130_fd_sc_hd__xnor2_4
*CAP
1 *3395:B 1.93927e-05
2 *3943:D 0
3 *3234:Y 0.00024786
4 *735:24 0.000180956
5 *735:8 8.62972e-05
6 *3395:B *3395:A 0.000183727
7 *735:8 *898:10 0.000107651
8 *735:24 *896:33 0.000407199
9 *735:24 *898:10 0
10 *3943:CLK *735:8 0.000221184
11 *15:24 *735:24 0.000149232
*RES
1 *3234:Y *735:8 40.9621 
2 *735:8 *3943:D 38 
3 *3234:Y *735:24 43.4271 
4 *735:24 *3395:B 16.0254 
*END

*D_NET *736 0.00191355
*CONN
*I *3914:D I *D sky130_fd_sc_hd__dfrtp_2
*I *3934:Q O *D sky130_fd_sc_hd__dfrtp_2
*CAP
1 *3914:D 0.000417343
2 *3934:Q 0.000473875
3 *736:8 0.000891218
4 *3914:D *874:12 3.56433e-05
5 *3914:D *899:14 0
6 *3934:RESET_B *736:8 4.83893e-05
7 *3935:RESET_B *736:8 4.70852e-05
*RES
1 *3934:Q *736:8 43.8621 
2 *736:8 *3914:D 45.1879 
*END

*D_NET *737 0.00195517
*CONN
*I *3915:D I *D sky130_fd_sc_hd__dfrtp_2
*I *3935:Q O *D sky130_fd_sc_hd__dfrtp_2
*CAP
1 *3915:D 0
2 *3935:Q 0.000557245
3 *737:10 0.000557245
4 *737:10 *879:10 7.03663e-05
5 *737:10 *899:14 0.00056765
6 *681:22 *737:10 0.000202663
7 *726:23 *737:10 0
*RES
1 *3935:Q *737:10 49.9729 
2 *737:10 *3915:D 38 
*END

*D_NET *738 0.00246041
*CONN
*I *3916:D I *D sky130_fd_sc_hd__dfrtp_2
*I *3936:Q O *D sky130_fd_sc_hd__dfrtp_2
*CAP
1 *3916:D 0
2 *3936:Q 0.000125597
3 *738:14 0.000782709
4 *738:8 0.000908307
5 *738:14 *3937:D 0.000160424
6 *738:14 *892:8 0
7 *738:14 *900:12 0
8 *3907:RESET_B *738:14 0
9 *3936:RESET_B *738:14 0
10 *191:10 *738:14 0
11 *374:16 *738:14 0.000136486
12 *607:10 *738:14 0.000169665
13 *607:18 *738:14 0.000177217
14 *607:22 *738:14 0
15 *730:37 *738:14 0
*RES
1 *3936:Q *738:8 39.5743 
2 *738:8 *738:14 31.965 
3 *738:14 *3916:D 23 
*END

*D_NET *739 0.00258133
*CONN
*I *3917:D I *D sky130_fd_sc_hd__dfrtp_2
*I *3937:Q O *D sky130_fd_sc_hd__dfrtp_2
*CAP
1 *3917:D 0
2 *3937:Q 0.000475457
3 *739:18 0.000526957
4 *739:12 0.00100241
5 *739:18 *881:10 0.000160191
6 *739:18 *901:8 0.000326973
7 *3906:CLK *739:12 0
8 *3906:CLK *739:18 2.73376e-05
9 *3906:RESET_B *739:12 0
10 *3906:RESET_B *739:18 0
11 *3916:RESET_B *739:18 0
12 *3917:RESET_B *739:18 3.26241e-05
13 *374:16 *739:12 2.93747e-05
14 *564:18 *739:12 0
15 *710:16 *739:12 0
16 *730:37 *739:18 0
*RES
1 *3937:Q *739:12 46.6068 
2 *739:12 *739:18 27.2111 
3 *739:18 *3917:D 23 
*END

*D_NET *740 0.00193776
*CONN
*I *3420:A0 I *D sky130_fd_sc_hd__mux4_2
*I *3484:A0 I *D sky130_fd_sc_hd__mux2_2
*I *3760:Q O *D sky130_fd_sc_hd__dfxtp_2
*CAP
1 *3420:A0 0.00027839
2 *3484:A0 0.000165937
3 *3760:Q 0
4 *740:6 0.000444327
5 *3420:S1 *3420:A0 1.24376e-05
6 *3484:A1 *3484:A0 0.000108681
7 *349:8 *3420:A0 0.000354116
8 *366:18 *3420:A0 9.98891e-05
9 *366:18 *3484:A0 0.000137797
10 *404:77 *3484:A0 1.14452e-05
11 *405:14 *3484:A0 0
12 *625:50 *3420:A0 0.000185095
13 *625:50 *3484:A0 0.000139647
*RES
1 *3760:Q *740:6 38 
2 *740:6 *3484:A0 42.0186 
3 *740:6 *3420:A0 45.5193 
*END

*D_NET *741 0.0016124
*CONN
*I *3430:A0 I *D sky130_fd_sc_hd__mux4_2
*I *3486:A0 I *D sky130_fd_sc_hd__mux2_2
*I *3761:Q O *D sky130_fd_sc_hd__dfxtp_2
*CAP
1 *3430:A0 0
2 *3486:A0 0.000152408
3 *3761:Q 0.00016794
4 *741:23 0.000111165
5 *741:6 0.000431514
6 *741:23 *3608:A0 1.22906e-05
7 *741:23 *797:10 4.6318e-06
8 *3430:S0 *741:23 0.000277705
9 *358:14 *741:23 0.000218952
10 *406:10 *741:23 2.8241e-05
11 *488:27 *3486:A0 6.99492e-05
12 *488:27 *741:6 0.000117759
13 *582:27 *741:23 1.9847e-05
*RES
1 *3761:Q *741:6 25.5271 
2 *741:6 *3486:A0 25.0714 
3 *741:6 *741:23 34.2361 
4 *741:23 *3430:A0 23 
*END

*D_NET *742 0.00237861
*CONN
*I *3438:A0 I *D sky130_fd_sc_hd__mux4_2
*I *3488:A0 I *D sky130_fd_sc_hd__mux2_2
*I *3762:Q O *D sky130_fd_sc_hd__dfxtp_2
*CAP
1 *3438:A0 0.000200395
2 *3488:A0 0.000205074
3 *3762:Q 0.000252247
4 *742:8 0.000657716
5 *3438:A0 *3438:A1 0.000139346
6 *3438:A0 *798:8 1.22803e-05
7 *3488:A1 *3488:A0 0
8 *3644:A1 *742:8 0.000100477
9 *31:9 *3488:A0 0
10 *365:12 *3438:A0 8.57393e-05
11 *407:10 *3438:A0 0.000299641
12 *407:10 *3488:A0 0.000298548
13 *664:42 *3438:A0 0.000106178
14 *664:48 *742:8 2.0964e-05
*RES
1 *3762:Q *742:8 41.48 
2 *742:8 *3488:A0 43.075 
3 *742:8 *3438:A0 43.945 
*END

*D_NET *743 0.0030978
*CONN
*I *3446:A0 I *D sky130_fd_sc_hd__mux4_2
*I *3490:A0 I *D sky130_fd_sc_hd__mux2_2
*I *3763:Q O *D sky130_fd_sc_hd__dfxtp_2
*CAP
1 *3446:A0 0
2 *3490:A0 0.000322495
3 *3763:Q 0.000231343
4 *743:21 0.000354419
5 *743:8 0.000908258
6 *743:21 *799:8 0.000381017
7 *3490:A1 *3490:A0 0.000228903
8 *3763:CLK *3490:A0 0.000148698
9 *42:14 *3490:A0 8.94508e-05
10 *42:14 *743:21 0
11 *372:12 *743:21 0
12 *619:21 *743:21 0
13 *619:94 *743:21 0.000433219
*RES
1 *3763:Q *743:8 26.9771 
2 *743:8 *3490:A0 29.815 
3 *743:8 *743:21 39.6529 
4 *743:21 *3446:A0 23 
*END

*D_NET *744 0.00184416
*CONN
*I *3455:A0 I *D sky130_fd_sc_hd__mux4_2
*I *3492:A0 I *D sky130_fd_sc_hd__mux2_2
*I *3764:Q O *D sky130_fd_sc_hd__dfxtp_2
*CAP
1 *3455:A0 0.00013902
2 *3492:A0 0.000315735
3 *3764:Q 0.000315756
4 *744:8 0.000770511
5 *3455:A0 *3455:A1 5.50049e-05
6 *3455:A0 *800:8 4.70975e-05
7 *3492:A0 *800:8 0.000108703
8 *3455:S0 *3455:A0 0
9 *43:8 *3492:A0 0
10 *380:10 *3455:A0 9.23357e-05
11 *475:8 *3455:A0 0
*RES
1 *3764:Q *744:8 41.9564 
2 *744:8 *3492:A0 44.4836 
3 *744:8 *3455:A0 41.2314 
*END

*D_NET *745 0.0012275
*CONN
*I *3462:A0 I *D sky130_fd_sc_hd__mux4_2
*I *3494:A0 I *D sky130_fd_sc_hd__mux2_2
*I *3765:Q O *D sky130_fd_sc_hd__dfxtp_2
*CAP
1 *3462:A0 8.8044e-05
2 *3494:A0 0.000202267
3 *3765:Q 0.00012333
4 *745:8 0.000413641
5 *3446:S0 *3462:A0 0.000138747
6 *3446:S0 *3494:A0 9.20101e-05
7 *3446:S0 *745:8 3.46302e-05
8 *634:27 *3462:A0 7.75952e-05
9 *672:30 *3494:A0 5.75756e-06
10 *692:38 *3462:A0 5.14824e-05
*RES
1 *3765:Q *745:8 39.5743 
2 *745:8 *3494:A0 42.0186 
3 *745:8 *3462:A0 40.61 
*END

*D_NET *746 0.00260448
*CONN
*I *3496:A0 I *D sky130_fd_sc_hd__mux2_2
*I *3470:A0 I *D sky130_fd_sc_hd__mux4_2
*I *3766:Q O *D sky130_fd_sc_hd__dfxtp_2
*CAP
1 *3496:A0 0.000696619
2 *3470:A0 0
3 *3766:Q 0.000105604
4 *746:14 0.000103481
5 *746:6 0.000905704
6 *746:14 *3470:A1 0.000111852
7 *3496:A1 *3496:A0 0.000563199
8 *3619:A *746:6 6.17437e-06
9 *488:65 *746:14 0.000111852
*RES
1 *3766:Q *746:6 24.0979 
2 *746:6 *746:14 32.175 
3 *746:14 *3470:A0 23 
4 *746:6 *3496:A0 32.6943 
*END

*D_NET *747 0.00215481
*CONN
*I *3498:A0 I *D sky130_fd_sc_hd__mux2_2
*I *3479:A0 I *D sky130_fd_sc_hd__mux4_2
*I *3767:Q O *D sky130_fd_sc_hd__dfxtp_2
*CAP
1 *3498:A0 0
2 *3479:A0 0
3 *3767:Q 0
4 *747:27 0.000215177
5 *747:14 0.000384117
6 *747:4 0.000599294
7 *747:14 *803:27 9.41704e-05
8 *3479:S0 *747:27 0.000160072
9 *3479:S1 *747:14 8.6338e-05
10 *46:8 *747:14 9.41704e-05
11 *404:77 *747:27 1.35999e-05
12 *412:10 *747:27 2.64616e-05
13 *719:12 *747:14 8.4047e-05
14 *719:12 *747:27 0.000341725
15 *719:68 *747:14 5.56356e-05
*RES
1 *3767:Q *747:4 23 
2 *747:4 *747:14 35.3029 
3 *747:14 *3479:A0 23 
4 *747:4 *747:27 35.3443 
5 *747:27 *3498:A0 23 
*END

*D_NET *748 0.00143601
*CONN
*I *3416:A2 I *D sky130_fd_sc_hd__mux4_2
*I *3501:A0 I *D sky130_fd_sc_hd__mux2_2
*I *3768:Q O *D sky130_fd_sc_hd__dfxtp_2
*CAP
1 *3416:A2 0.000105086
2 *3501:A0 0.000293042
3 *3768:Q 3.75247e-05
4 *748:8 0.000435652
5 *3501:A1 *3501:A0 0.000100069
6 *3518:A0 *3416:A2 0
7 *544:89 *3416:A2 0.000225275
8 *544:89 *3501:A0 0.000219891
9 *626:18 *748:8 1.94693e-05
10 *668:72 *3501:A0 0
*RES
1 *3768:Q *748:8 38.6214 
2 *748:8 *3501:A0 43.9657 
3 *748:8 *3416:A2 40.9621 
*END

*D_NET *749 0.0032871
*CONN
*I *3503:A0 I *D sky130_fd_sc_hd__mux2_2
*I *3426:A2 I *D sky130_fd_sc_hd__mux4_2
*I *3769:Q O *D sky130_fd_sc_hd__dfxtp_2
*CAP
1 *3503:A0 0.000244045
2 *3426:A2 0
3 *3769:Q 0.000296551
4 *749:10 0.000540596
5 *160:12 *3503:A0 0.000501792
6 *160:12 *749:10 0.000364515
7 *356:14 *749:10 0.00015131
8 *413:85 *3503:A0 0.000135037
9 *413:91 *3503:A0 5.50049e-05
10 *546:12 *3503:A0 0.000514013
11 *546:12 *749:10 0.000287017
12 *562:162 *749:10 1.84917e-05
13 *695:24 *749:10 0.00011169
14 *699:68 *3503:A0 6.70361e-05
*RES
1 *3769:Q *749:10 46.8657 
2 *749:10 *3426:A2 38 
3 *749:10 *3503:A0 46.8864 
*END

*D_NET *750 0.00202257
*CONN
*I *3434:A2 I *D sky130_fd_sc_hd__mux4_2
*I *3505:A0 I *D sky130_fd_sc_hd__mux2_2
*I *3770:Q O *D sky130_fd_sc_hd__dfxtp_2
*CAP
1 *3434:A2 0.000432423
2 *3505:A0 0
3 *3770:Q 0.000357043
4 *750:12 0.000432423
5 *750:10 0.000357043
6 *3505:S *3434:A2 0.000229793
7 *3506:A *750:10 7.58527e-05
8 *416:8 *750:10 2.8653e-05
9 *668:51 *750:10 0.000109343
*RES
1 *3770:Q *750:10 43.0336 
2 *750:10 *750:12 15 
3 *750:12 *3505:A0 23 
4 *750:12 *3434:A2 28.8829 
*END

*D_NET *751 0.0025096
*CONN
*I *3507:A0 I *D sky130_fd_sc_hd__mux2_2
*I *3442:A2 I *D sky130_fd_sc_hd__mux4_2
*I *3771:Q O *D sky130_fd_sc_hd__dfxtp_2
*CAP
1 *3507:A0 2.22923e-05
2 *3442:A2 0.000377646
3 *3771:Q 0.000227102
4 *751:10 0.000627041
5 *3507:A1 *3507:A0 1.57571e-05
6 *3507:S *3507:A0 6.17437e-06
7 *3771:CLK *751:10 9.41704e-05
8 *162:10 *3442:A2 0.000164078
9 *395:8 *3442:A2 0
10 *395:8 *751:10 0
11 *413:48 *3442:A2 5.36496e-06
12 *413:54 *3442:A2 0.000350353
13 *413:69 *3507:A0 2.93747e-05
14 *413:69 *751:10 0.000109377
15 *539:10 *3442:A2 3.90213e-05
16 *548:10 *3442:A2 3.09516e-05
17 *620:33 *3442:A2 8.72173e-05
18 *620:33 *751:10 0.000159651
19 *729:76 *3442:A2 0.000164032
*RES
1 *3771:Q *751:10 42.3086 
2 *751:10 *3442:A2 47.3007 
3 *751:10 *3507:A0 38.6214 
*END

*D_NET *752 0.00185502
*CONN
*I *3450:A2 I *D sky130_fd_sc_hd__mux4_2
*I *3509:A0 I *D sky130_fd_sc_hd__mux2_2
*I *3772:Q O *D sky130_fd_sc_hd__dfxtp_2
*CAP
1 *3450:A2 0
2 *3509:A0 0
3 *3772:Q 0
4 *752:25 0.000487091
5 *752:12 0.000128586
6 *752:4 0.000615677
7 *3450:S0 *752:25 2.40588e-05
8 *3876:D *752:25 8.06804e-06
9 *609:25 *752:12 1.73399e-05
10 *609:25 *752:25 8.14473e-05
11 *609:40 *752:25 0.000179651
12 *636:17 *752:12 6.68378e-05
13 *648:12 *752:25 0.000246267
*RES
1 *3772:Q *752:4 23 
2 *752:4 *752:12 32.5271 
3 *752:12 *3509:A0 23 
4 *752:4 *752:25 38.2236 
5 *752:25 *3450:A2 23 
*END

*D_NET *753 0.00237438
*CONN
*I *3458:A2 I *D sky130_fd_sc_hd__mux4_2
*I *3511:A0 I *D sky130_fd_sc_hd__mux2_2
*I *3773:Q O *D sky130_fd_sc_hd__dfxtp_2
*CAP
1 *3458:A2 0
2 *3511:A0 0
3 *3773:Q 0
4 *753:27 0.000393039
5 *753:12 0.000192587
6 *753:4 0.000585627
7 *753:12 *761:16 1.37246e-05
8 *3995:A *753:27 9.84794e-05
9 *461:53 *753:12 1.37246e-05
10 *562:37 *753:12 4.42793e-05
11 *576:12 *753:12 0.000326983
12 *612:16 *753:12 8.62876e-05
13 *612:16 *753:27 0.000522326
14 *612:51 *753:27 1.46784e-05
15 *630:16 *753:27 0
16 *724:73 *753:12 8.26416e-05
*RES
1 *3773:Q *753:4 23 
2 *753:4 *753:12 35.3443 
3 *753:12 *3511:A0 23 
4 *753:4 *753:27 38.3893 
5 *753:27 *3458:A2 23 
*END

*D_NET *754 0.00255965
*CONN
*I *3466:A2 I *D sky130_fd_sc_hd__mux4_2
*I *3513:A0 I *D sky130_fd_sc_hd__mux2_2
*I *3774:Q O *D sky130_fd_sc_hd__dfxtp_2
*CAP
1 *3466:A2 0
2 *3513:A0 0
3 *3774:Q 0.000155712
4 *754:27 0.000621295
5 *754:10 0.000777007
6 *754:27 *3466:A3 0.000354122
7 *754:27 *3530:A1 0
8 *3513:A1 *754:10 4.43717e-05
9 *3513:A1 *754:27 0.000119818
10 *3530:S *754:10 0.000163352
11 *3530:S *754:27 0.00019654
12 *452:117 *754:10 0
13 *579:27 *754:10 5.70419e-05
14 *651:10 *754:27 0
15 *722:33 *754:27 7.03869e-05
*RES
1 *3774:Q *754:10 41.3557 
2 *754:10 *3513:A0 38 
3 *754:10 *754:27 27.0557 
4 *754:27 *3466:A2 23 
*END

*D_NET *755 0.00229003
*CONN
*I *3515:A0 I *D sky130_fd_sc_hd__mux2_2
*I *3474:A2 I *D sky130_fd_sc_hd__mux4_2
*I *3775:Q O *D sky130_fd_sc_hd__dfxtp_2
*CAP
1 *3515:A0 0.000239834
2 *3474:A2 4.99221e-05
3 *3775:Q 0.000203215
4 *755:10 0.000492972
5 *3474:A2 *3474:A3 5.3304e-05
6 *3515:A0 *3758:A0 5.3304e-05
7 *3515:S *3515:A0 0.000144494
8 *552:10 *3515:A0 0.000337024
9 *552:10 *755:10 0.000219873
10 *613:12 *755:10 6.99589e-05
11 *668:41 *3515:A0 0.000151907
12 *668:41 *755:10 0.000222113
13 *720:16 *3515:A0 4.4859e-06
14 *720:23 *3515:A0 4.76188e-05
*RES
1 *3775:Q *755:10 42.5364 
2 *755:10 *3474:A2 38.6214 
3 *755:10 *3515:A0 44.2143 
*END

*D_NET *756 0.00126924
*CONN
*I *3518:A1 I *D sky130_fd_sc_hd__mux2_2
*I *3416:A3 I *D sky130_fd_sc_hd__mux4_2
*I *3776:Q O *D sky130_fd_sc_hd__dfxtp_2
*CAP
1 *3518:A1 0.000344551
2 *3416:A3 0
3 *3776:Q 0.000173779
4 *756:12 0.000344551
5 *756:10 0.000173779
6 *544:89 *756:10 5.21024e-05
7 *584:16 *756:10 5.12254e-05
8 *668:72 *3518:A1 1.83408e-05
9 *686:134 *756:10 0.000110913
*RES
1 *3776:Q *756:10 40.6514 
2 *756:10 *756:12 15 
3 *756:12 *3416:A3 23 
4 *756:12 *3518:A1 27.4536 
*END

*D_NET *757 0.00125995
*CONN
*I *3426:A3 I *D sky130_fd_sc_hd__mux4_2
*I *3520:A1 I *D sky130_fd_sc_hd__mux2_2
*I *3777:Q O *D sky130_fd_sc_hd__dfxtp_2
*CAP
1 *3426:A3 0
2 *3520:A1 0.000387129
3 *3777:Q 5.74928e-05
4 *757:10 0.000387129
5 *757:8 5.74928e-05
6 *3435:S0 *3520:A1 3.06803e-05
7 *356:14 *757:8 0.000168892
8 *686:10 *757:8 0.000171133
*RES
1 *3777:Q *757:8 40.2579 
2 *757:8 *757:10 15 
3 *757:10 *3520:A1 28.0957 
4 *757:10 *3426:A3 23 
*END

*D_NET *758 0.00207537
*CONN
*I *3522:A1 I *D sky130_fd_sc_hd__mux2_2
*I *3434:A3 I *D sky130_fd_sc_hd__mux4_2
*I *3778:Q O *D sky130_fd_sc_hd__dfxtp_2
*CAP
1 *3522:A1 0.00011534
2 *3434:A3 0
3 *3778:Q 0.000479773
4 *758:28 0.00021407
5 *758:10 0.000381043
6 *3434:S1 *758:10 0.00032481
7 *3778:CLK *758:10 3.33939e-05
8 *413:108 *758:28 8.78864e-05
9 *614:6 *758:10 3.62229e-05
10 *622:23 *3522:A1 7.80231e-05
11 *628:22 *758:10 0.00032481
*RES
1 *3778:Q *758:10 45.8507 
2 *758:10 *3434:A3 38 
3 *3778:Q *758:28 39.8229 
4 *758:28 *3522:A1 39.5743 
*END

*D_NET *759 0.00281007
*CONN
*I *3524:A1 I *D sky130_fd_sc_hd__mux2_2
*I *3442:A3 I *D sky130_fd_sc_hd__mux4_2
*I *3779:Q O *D sky130_fd_sc_hd__dfxtp_2
*CAP
1 *3524:A1 0.000330371
2 *3442:A3 0.000269088
3 *3779:Q 0
4 *759:6 0.000599459
5 *3875:CLK *3442:A3 0.000271479
6 *369:12 *3524:A1 0
7 *422:29 *3442:A3 0.000141656
8 *422:29 *3524:A1 0.000149381
9 *422:39 *3524:A1 5.50049e-05
10 *442:24 *3524:A1 1.19692e-05
11 *601:52 *3442:A3 0.000114092
12 *666:6 *3524:A1 4.75206e-05
13 *687:54 *3442:A3 0.000808603
14 *687:54 *3524:A1 1.14452e-05
*RES
1 *3779:Q *759:6 38 
2 *759:6 *3442:A3 48.7093 
3 *759:6 *3524:A1 44.8979 
*END

*D_NET *760 0.00389272
*CONN
*I *3450:A3 I *D sky130_fd_sc_hd__mux4_2
*I *3526:A1 I *D sky130_fd_sc_hd__mux2_2
*I *3780:Q O *D sky130_fd_sc_hd__dfxtp_2
*CAP
1 *3450:A3 0.000119755
2 *3526:A1 0.000617353
3 *3780:Q 0.000615989
4 *760:8 0.0013531
5 *3526:A0 *3450:A3 8.62876e-05
6 *3526:A0 *3526:A1 0.00044614
7 *367:8 *3526:A1 0
8 *544:38 *3526:A1 2.84809e-05
9 *609:40 *3526:A1 0
10 *618:25 *3450:A3 0.000299438
11 *648:6 *760:8 2.38288e-05
12 *648:12 *3450:A3 0.000188049
13 *648:12 *3526:A1 6.01596e-05
14 *668:26 *3526:A1 5.41385e-05
*RES
1 *3780:Q *760:8 45.2914 
2 *760:8 *3526:A1 49.0614 
3 *760:8 *3450:A3 43.075 
*END

*D_NET *761 0.00298761
*CONN
*I *3528:A1 I *D sky130_fd_sc_hd__mux2_2
*I *3458:A3 I *D sky130_fd_sc_hd__mux4_2
*I *3781:Q O *D sky130_fd_sc_hd__dfxtp_2
*CAP
1 *3528:A1 0.00013752
2 *3458:A3 0
3 *3781:Q 0.000182387
4 *761:16 0.000629073
5 *761:10 0.00094898
6 *3458:S0 *761:16 0.000120008
7 *3528:A0 *3528:A1 5.5792e-05
8 *3528:A0 *761:10 0.000101014
9 *3528:A0 *761:16 3.46013e-05
10 *388:18 *761:10 6.89359e-06
11 *576:12 *761:16 1.7992e-05
12 *576:25 *761:16 6.69513e-05
13 *612:16 *761:16 8.4047e-05
14 *668:12 *3528:A1 2.62486e-05
15 *724:36 *761:10 2.64616e-05
16 *724:73 *761:10 0.000111106
17 *724:73 *761:16 0.000424809
18 *753:12 *761:16 1.37246e-05
*RES
1 *3781:Q *761:10 41.1279 
2 *761:10 *761:16 27.5943 
3 *761:16 *3458:A3 23 
4 *761:10 *3528:A1 40.0507 
*END

*D_NET *762 0.00205435
*CONN
*I *3466:A3 I *D sky130_fd_sc_hd__mux4_2
*I *3530:A1 I *D sky130_fd_sc_hd__mux2_2
*I *3782:Q O *D sky130_fd_sc_hd__dfxtp_2
*CAP
1 *3466:A3 0.000257136
2 *3530:A1 0.000234259
3 *3782:Q 9.11856e-05
4 *762:8 0.000582581
5 *762:8 *786:8 0
6 *651:10 *3530:A1 0.000108681
7 *651:10 *762:8 0.000197479
8 *722:18 *3530:A1 0.000228909
9 *722:33 *762:8 0
10 *754:27 *3466:A3 0.000354122
11 *754:27 *3530:A1 0
*RES
1 *3782:Q *762:8 40.61 
2 *762:8 *3530:A1 42.0807 
3 *762:8 *3466:A3 43.3857 
*END

*D_NET *763 0.0023871
*CONN
*I *3532:A1 I *D sky130_fd_sc_hd__mux2_2
*I *3474:A3 I *D sky130_fd_sc_hd__mux4_2
*I *3783:Q O *D sky130_fd_sc_hd__dfxtp_2
*CAP
1 *3532:A1 0
2 *3474:A3 0.000291227
3 *3783:Q 0
4 *763:21 0.000280332
5 *763:4 0.000571559
6 *763:21 *862:10 9.64943e-05
7 *3474:A2 *3474:A3 5.3304e-05
8 *413:112 *763:21 0.000269151
9 *413:120 *763:21 0.000138718
10 *636:17 *763:21 0.000400886
11 *668:41 *763:21 0.000229793
12 *668:51 *763:21 5.56356e-05
*RES
1 *3783:Q *763:4 23 
2 *763:4 *3474:A3 26.9771 
3 *763:4 *763:21 38.4307 
4 *763:21 *3532:A1 23 
*END

*D_NET *764 0.00100039
*CONN
*I *3417:A0 I *D sky130_fd_sc_hd__mux4_2
*I *3536:A0 I *D sky130_fd_sc_hd__mux2_2
*I *3784:Q O *D sky130_fd_sc_hd__dfxtp_2
*CAP
1 *3417:A0 0.000128158
2 *3536:A0 0.000128158
3 *3784:Q 0.000130899
4 *764:8 0.000130899
5 *764:8 *772:10 0
6 *3417:S0 *3417:A0 0.000349313
7 *346:16 *3417:A0 8.84696e-05
8 *433:10 *3417:A0 4.44949e-05
*RES
1 *3784:Q *764:8 39.9057 
2 *764:8 *3536:A0 38 
3 *3536:A0 *3417:A0 49.8321 
*END

*D_NET *765 0.00332275
*CONN
*I *3427:A0 I *D sky130_fd_sc_hd__mux4_2
*I *3538:A0 I *D sky130_fd_sc_hd__mux2_2
*I *3785:Q O *D sky130_fd_sc_hd__dfxtp_2
*CAP
1 *3427:A0 0.000222844
2 *3538:A0 0.000204799
3 *3785:Q 0.00045799
4 *765:10 0.000885632
5 *3536:S *3427:A0 9.9336e-05
6 *3538:A1 *3538:A0 5.50049e-05
7 *434:8 *3538:A0 1.22803e-05
8 *434:8 *765:10 0.000130404
9 *442:53 *765:10 3.10706e-05
10 *580:25 *3427:A0 3.91386e-05
11 *580:25 *3538:A0 0.000483343
12 *630:10 *765:10 3.21627e-05
13 *699:72 *3538:A0 0.000506685
14 *699:72 *765:10 0.00016206
*RES
1 *3785:Q *765:10 45.975 
2 *765:10 *3538:A0 45.4571 
3 *765:10 *3427:A0 42.3707 
*END

*D_NET *766 0.00262206
*CONN
*I *3540:A0 I *D sky130_fd_sc_hd__mux2_2
*I *3435:A0 I *D sky130_fd_sc_hd__mux4_2
*I *3786:Q O *D sky130_fd_sc_hd__dfxtp_2
*CAP
1 *3540:A0 0
2 *3435:A0 0
3 *3786:Q 0.000104715
4 *766:31 0.000387036
5 *766:14 0.000671859
6 *766:8 0.000389538
7 *766:14 *774:16 4.91147e-05
8 *3435:S0 *766:14 1.24964e-05
9 *3435:S0 *766:31 8.15864e-05
10 *3540:A1 *766:31 0
11 *73:10 *766:31 0
12 *362:10 *766:31 5.54294e-05
13 *413:91 *766:31 5.56279e-05
14 *435:10 *766:31 0.000502066
15 *445:10 *766:8 0
16 *578:10 *766:8 0.000181928
17 *622:82 *766:8 0.000130659
*RES
1 *3786:Q *766:8 40.61 
2 *766:8 *766:14 18.5007 
3 *766:14 *3435:A0 23 
4 *766:14 *766:31 38.8243 
5 *766:31 *3540:A0 23 
*END

*D_NET *767 0.00155487
*CONN
*I *3542:A0 I *D sky130_fd_sc_hd__mux2_2
*I *3443:A0 I *D sky130_fd_sc_hd__mux4_2
*I *3787:Q O *D sky130_fd_sc_hd__dfxtp_2
*CAP
1 *3542:A0 0
2 *3443:A0 0.000176385
3 *3787:Q 0.000254067
4 *767:12 0.000176385
5 *767:10 0.000254067
6 *369:12 *767:10 0
7 *602:21 *767:10 0.000326388
8 *620:80 *3443:A0 0.000367578
*RES
1 *3787:Q *767:10 43.4686 
2 *767:10 *767:12 15 
3 *767:12 *3443:A0 26.9564 
4 *767:12 *3542:A0 23 
*END

*D_NET *768 0.00423652
*CONN
*I *3544:A0 I *D sky130_fd_sc_hd__mux2_2
*I *3452:A0 I *D sky130_fd_sc_hd__mux4_2
*I *3788:Q O *D sky130_fd_sc_hd__dfxtp_2
*CAP
1 *3544:A0 0.00034756
2 *3452:A0 0
3 *3788:Q 0.000867253
4 *768:10 0.000421369
5 *768:8 0.000941062
6 *3477:A2 *3544:A0 5.82853e-05
7 *3788:CLK *768:8 2.6081e-05
8 *3788:D *768:8 3.14001e-05
9 *75:10 *3544:A0 0
10 *377:10 *3544:A0 1.14452e-05
11 *377:10 *768:10 0.000218962
12 *388:18 *3544:A0 0.000146999
13 *562:56 *768:8 1.40958e-05
14 *610:6 *768:8 9.5877e-05
15 *612:20 *768:8 5.36725e-05
16 *618:83 *3544:A0 2.97185e-05
17 *674:54 *3544:A0 0.000237027
18 *729:86 *3544:A0 3.90213e-05
19 *729:94 *3544:A0 0.000475502
20 *729:94 *768:10 0.000221193
*RES
1 *3788:Q *768:8 49.1029 
2 *768:8 *768:10 2.96214 
3 *768:10 *3452:A0 38 
4 *768:10 *3544:A0 48.3157 
*END

*D_NET *769 0.0020549
*CONN
*I *3459:A0 I *D sky130_fd_sc_hd__mux4_2
*I *3546:A0 I *D sky130_fd_sc_hd__mux2_2
*I *3789:Q O *D sky130_fd_sc_hd__dfxtp_2
*CAP
1 *3459:A0 9.39588e-05
2 *3546:A0 0.00020914
3 *3789:Q 0.000123241
4 *769:8 0.000426339
5 *3459:A0 *3459:A1 0.000272315
6 *769:8 *777:10 8.16356e-05
7 *3565:A *3546:A0 0.00018536
8 *383:8 *3459:A0 0.000137651
9 *383:14 *3546:A0 0.000108681
10 *432:30 *3546:A0 2.18409e-05
11 *448:10 *3546:A0 6.7177e-06
12 *448:10 *769:8 2.01531e-05
13 *666:16 *3546:A0 0
14 *687:101 *3459:A0 5.72975e-05
15 *724:115 *3546:A0 0.000102389
16 *724:128 *3546:A0 0.000208184
*RES
1 *3789:Q *769:8 40.61 
2 *769:8 *3546:A0 43.3857 
3 *769:8 *3459:A0 41.0036 
*END

*D_NET *770 0.00196911
*CONN
*I *3548:A0 I *D sky130_fd_sc_hd__mux2_2
*I *3467:A0 I *D sky130_fd_sc_hd__mux4_2
*I *3790:Q O *D sky130_fd_sc_hd__dfxtp_2
*CAP
1 *3548:A0 8.24018e-05
2 *3467:A0 0.00016671
3 *3790:Q 0.000119952
4 *770:10 0.000249112
5 *770:8 0.000119952
6 *3467:A0 *3467:A1 0.000443382
7 *3467:A0 *778:14 5.79559e-05
8 *3548:A1 *3467:A0 8.67876e-05
9 *3548:A1 *3548:A0 0.000144501
10 *442:70 *3467:A0 2.1819e-05
11 *449:10 *3467:A0 7.1556e-05
12 *722:76 *3467:A0 0.000404977
*RES
1 *3790:Q *770:8 39.9057 
2 *770:8 *770:10 15 
3 *770:10 *3467:A0 29.9807 
4 *770:10 *3548:A0 25.0714 
*END

*D_NET *771 0.000933638
*CONN
*I *3550:A0 I *D sky130_fd_sc_hd__mux2_2
*I *3476:A0 I *D sky130_fd_sc_hd__mux4_2
*I *3791:Q O *D sky130_fd_sc_hd__dfxtp_2
*CAP
1 *3550:A0 0.000123248
2 *3476:A0 0.000141625
3 *3791:Q 5.68754e-05
4 *771:10 0.000264873
5 *771:8 5.68754e-05
6 *3476:A0 *3476:A1 5.50049e-05
7 *771:8 *3568:A0 0
8 *3476:S0 *3476:A0 4.79612e-05
9 *3476:S0 *3550:A0 4.51908e-05
10 *398:8 *771:8 2.79004e-05
11 *440:8 *771:8 0.000114083
*RES
1 *3791:Q *771:8 39.5536 
2 *771:8 *771:10 15 
3 *771:10 *3476:A0 25.5271 
4 *771:10 *3550:A0 25.0507 
*END

*D_NET *772 0.00256736
*CONN
*I *3417:A1 I *D sky130_fd_sc_hd__mux4_2
*I *3554:A0 I *D sky130_fd_sc_hd__mux2_2
*I *3792:Q O *D sky130_fd_sc_hd__dfxtp_2
*CAP
1 *3417:A1 5.12958e-05
2 *3554:A0 2.87276e-05
3 *3792:Q 0.000552701
4 *772:31 0.00028714
5 *772:10 0.000817273
6 *3537:A *772:31 0.000188927
7 *63:10 *772:10 0.000118947
8 *63:10 *772:31 0.000174487
9 *346:16 *3417:A1 6.99133e-05
10 *433:10 *3554:A0 3.47781e-05
11 *433:10 *772:10 0.000101708
12 *443:14 *3554:A0 0
13 *443:14 *772:31 5.32175e-05
14 *626:55 *3554:A0 6.48049e-05
15 *626:55 *772:10 1.01436e-05
16 *626:68 *772:10 0
17 *686:120 *772:31 1.32939e-05
18 *764:8 *772:10 0
*RES
1 *3792:Q *772:10 47.2386 
2 *772:10 *3554:A0 38.8493 
3 *772:10 *772:31 35.5514 
4 *772:31 *3417:A1 39.0979 
*END

*D_NET *773 0.00296079
*CONN
*I *3556:A0 I *D sky130_fd_sc_hd__mux2_2
*I *3427:A1 I *D sky130_fd_sc_hd__mux4_2
*I *3793:Q O *D sky130_fd_sc_hd__dfxtp_2
*CAP
1 *3556:A0 0.00034307
2 *3427:A1 5.09165e-05
3 *3793:Q 0.000489486
4 *773:10 0.000883473
5 *3536:S *3427:A1 2.32101e-05
6 *4077:A *3556:A0 0
7 *4077:A *773:10 0.000141308
8 *72:8 *3556:A0 0.000445519
9 *72:8 *773:10 0.000137788
10 *434:8 *3556:A0 0
11 *442:53 *3556:A0 0.00028403
12 *686:152 *3427:A1 5.3304e-05
13 *686:152 *773:10 0.000108681
14 *694:8 *3556:A0 0
*RES
1 *3793:Q *773:10 45.2914 
2 *773:10 *3427:A1 39.0979 
3 *773:10 *3556:A0 46.6586 
*END

*D_NET *774 0.00246897
*CONN
*I *3558:A0 I *D sky130_fd_sc_hd__mux2_2
*I *3435:A1 I *D sky130_fd_sc_hd__mux4_2
*I *3794:Q O *D sky130_fd_sc_hd__dfxtp_2
*CAP
1 *3558:A0 0
2 *3435:A1 0
3 *3794:Q 3.8802e-05
4 *774:29 0.000340545
5 *774:16 0.000428627
6 *774:6 0.000807975
7 *3558:A1 *774:29 0
8 *3810:CLK *774:29 5.82853e-05
9 *65:8 *774:29 0.000114098
10 *73:10 *774:16 0.00016885
11 *362:10 *774:29 4.75505e-05
12 *435:10 *774:29 0.000165608
13 *666:72 *774:29 0.000126084
14 *688:85 *774:6 1.94812e-05
15 *688:85 *774:16 0.000103948
16 *766:14 *774:16 4.91147e-05
*RES
1 *3794:Q *774:6 23.6214 
2 *774:6 *774:16 36.8357 
3 *774:16 *3435:A1 23 
4 *774:6 *774:29 38.1614 
5 *774:29 *3558:A0 23 
*END

*D_NET *775 0.00103564
*CONN
*I *3560:A0 I *D sky130_fd_sc_hd__mux2_2
*I *3443:A1 I *D sky130_fd_sc_hd__mux4_2
*I *3795:Q O *D sky130_fd_sc_hd__dfxtp_2
*CAP
1 *3560:A0 5.30402e-05
2 *3443:A1 0
3 *3795:Q 0.000165491
4 *775:10 0.000218531
5 *442:24 *3560:A0 0.000214705
6 *442:24 *775:10 0.000139882
7 *620:80 *3560:A0 0.000226087
8 *620:80 *775:10 1.13812e-05
9 *688:142 *775:10 6.51997e-06
*RES
1 *3795:Q *775:10 41.0036 
2 *775:10 *3443:A1 38 
3 *775:10 *3560:A0 40.9621 
*END

*D_NET *776 0.00137294
*CONN
*I *3452:A1 I *D sky130_fd_sc_hd__mux4_2
*I *3562:A0 I *D sky130_fd_sc_hd__mux2_2
*I *3796:Q O *D sky130_fd_sc_hd__dfxtp_2
*CAP
1 *3452:A1 4.23615e-05
2 *3562:A0 0.000269696
3 *3796:Q 7.01428e-05
4 *776:8 0.000382201
5 *3597:S *3562:A0 1.78821e-05
6 *686:35 *3562:A0 4.2812e-06
7 *686:35 *776:8 7.4059e-05
8 *686:41 *3562:A0 0.000229691
9 *729:94 *3562:A0 0.000201474
10 *729:94 *776:8 8.11557e-05
*RES
1 *3796:Q *776:8 40.2579 
2 *776:8 *3562:A0 45.0014 
3 *776:8 *3452:A1 38.6214 
*END

*D_NET *777 0.00265108
*CONN
*I *3564:A0 I *D sky130_fd_sc_hd__mux2_2
*I *3459:A1 I *D sky130_fd_sc_hd__mux4_2
*I *3797:Q O *D sky130_fd_sc_hd__dfxtp_2
*CAP
1 *3564:A0 0
2 *3459:A1 0.000187151
3 *3797:Q 0.000512555
4 *777:12 0.000187151
5 *777:10 0.000512555
6 *3459:A0 *3459:A1 0.000272315
7 *3459:S0 *3459:A1 0.000394333
8 *3803:CLK *777:10 4.06849e-05
9 *3803:D *777:10 3.24476e-06
10 *422:39 *777:10 4.31263e-05
11 *452:111 *777:10 0.000195238
12 *666:10 *777:10 5.33753e-05
13 *666:16 *777:10 9.48381e-06
14 *687:101 *3459:A1 0.000158228
15 *769:8 *777:10 8.16356e-05
*RES
1 *3797:Q *777:10 48.4193 
2 *777:10 *777:12 15 
3 *777:12 *3459:A1 29.5043 
4 *777:12 *3564:A0 23 
*END

*D_NET *778 0.00179274
*CONN
*I *3566:A0 I *D sky130_fd_sc_hd__mux2_2
*I *3467:A1 I *D sky130_fd_sc_hd__mux4_2
*I *3798:Q O *D sky130_fd_sc_hd__dfxtp_2
*CAP
1 *3566:A0 0
2 *3467:A1 0.000328752
3 *3798:Q 0.000177039
4 *778:14 0.000335765
5 *778:10 0.000184053
6 *3467:A0 *3467:A1 0.000443382
7 *3467:A0 *778:14 5.79559e-05
8 *3548:S *778:10 4.26198e-05
9 *390:10 *3467:A1 2.64616e-05
10 *442:70 *3467:A1 5.56356e-05
11 *442:70 *778:10 7.69256e-06
12 *442:70 *778:14 4.44329e-05
13 *449:10 *3467:A1 8.89542e-05
14 *635:10 *778:10 0
*RES
1 *3798:Q *778:10 40.5271 
2 *778:10 *778:14 15.6214 
3 *778:14 *3467:A1 30.4571 
4 *778:14 *3566:A0 23 
*END

*D_NET *779 0.00232467
*CONN
*I *3476:A1 I *D sky130_fd_sc_hd__mux4_2
*I *3568:A0 I *D sky130_fd_sc_hd__mux2_2
*I *3799:Q O *D sky130_fd_sc_hd__dfxtp_2
*CAP
1 *3476:A1 0.000111046
2 *3568:A0 0.00022133
3 *3799:Q 0.000331471
4 *779:10 0.000663846
5 *3476:A0 *3476:A1 5.50049e-05
6 *3476:S0 *3476:A1 9.18637e-05
7 *3551:A *3568:A0 5.50106e-05
8 *398:8 *3568:A0 0.000341568
9 *440:8 *779:10 0
10 *452:37 *779:10 6.71188e-05
11 *544:116 *779:10 0
12 *611:10 *3568:A0 5.31444e-05
13 *611:16 *3476:A1 7.15126e-05
14 *662:34 *3568:A0 2.64616e-05
15 *666:49 *3568:A0 4.91697e-05
16 *666:49 *779:10 5.33753e-05
17 *720:87 *3568:A0 0.000132749
18 *771:8 *3568:A0 0
*RES
1 *3799:Q *779:10 42.785 
2 *779:10 *3568:A0 44.0486 
3 *779:10 *3476:A1 40.5271 
*END

*D_NET *780 0.00166016
*CONN
*I *3572:A0 I *D sky130_fd_sc_hd__mux2_2
*I *3417:A2 I *D sky130_fd_sc_hd__mux4_2
*I *3800:Q O *D sky130_fd_sc_hd__dfxtp_2
*CAP
1 *3572:A0 5.12246e-05
2 *3417:A2 0.000165414
3 *3800:Q 0.000344299
4 *780:20 0.000230109
5 *3572:S *3572:A0 3.26241e-05
6 *3589:A0 *3572:A0 1.35714e-05
7 *87:8 *780:20 0.000193011
8 *462:10 *780:20 0.000404504
9 *686:134 *3417:A2 0.000225399
*RES
1 *3800:Q *3417:A2 48.5271 
2 *3800:Q *780:20 43.4271 
3 *780:20 *3572:A0 39.0979 
*END

*D_NET *781 0.00170778
*CONN
*I *3574:A0 I *D sky130_fd_sc_hd__mux2_2
*I *3427:A2 I *D sky130_fd_sc_hd__mux4_2
*I *3801:Q O *D sky130_fd_sc_hd__dfxtp_2
*CAP
1 *3574:A0 0.000419142
2 *3427:A2 0
3 *3801:Q 7.19824e-05
4 *781:8 0.000491125
5 *3574:A1 *3574:A0 0.000271821
6 *454:10 *3574:A0 0
7 *463:10 *3574:A0 0.000273236
8 *463:10 *781:8 0.000113153
9 *624:14 *3574:A0 2.37243e-05
10 *624:96 *3574:A0 4.35949e-05
*RES
1 *3801:Q *781:8 39.5536 
2 *781:8 *3427:A2 38 
3 *781:8 *3574:A0 47.3007 
*END

*D_NET *782 0.00248442
*CONN
*I *3435:A2 I *D sky130_fd_sc_hd__mux4_2
*I *3576:A0 I *D sky130_fd_sc_hd__mux2_2
*I *3802:Q O *D sky130_fd_sc_hd__dfxtp_2
*CAP
1 *3435:A2 0
2 *3576:A0 1.56961e-05
3 *3802:Q 0.000280466
4 *782:27 0.000577467
5 *782:10 0.000873629
6 *452:81 *3576:A0 6.66613e-05
7 *452:81 *782:10 7.45905e-05
8 *452:81 *782:27 2.15233e-05
9 *464:10 *782:27 0.000322778
10 *622:63 *782:27 1.03142e-05
11 *622:82 *782:27 4.05481e-05
12 *662:82 *3576:A0 4.3838e-05
13 *662:82 *782:10 3.75047e-05
14 *688:85 *782:27 5.60256e-05
15 *699:93 *782:27 6.33771e-05
*RES
1 *3802:Q *782:10 41.7286 
2 *782:10 *3576:A0 38.8493 
3 *782:10 *782:27 38.845 
4 *782:27 *3435:A2 38 
*END

*D_NET *783 0.00260207
*CONN
*I *3443:A2 I *D sky130_fd_sc_hd__mux4_2
*I *3578:A0 I *D sky130_fd_sc_hd__mux2_2
*I *3803:Q O *D sky130_fd_sc_hd__dfxtp_2
*CAP
1 *3443:A2 0
2 *3578:A0 0
3 *3803:Q 0
4 *783:27 0.000381328
5 *783:14 0.000424516
6 *783:4 0.000805844
7 *3578:A1 *783:14 3.19411e-05
8 *3579:A *783:14 5.77458e-05
9 *3795:CLK *783:14 0.00026793
10 *3795:CLK *783:27 0.000173603
11 *3795:D *783:27 0.000103526
12 *82:10 *783:14 0.000183547
13 *422:39 *783:14 4.95928e-05
14 *535:26 *783:27 3.88725e-05
15 *620:42 *783:27 8.36198e-05
*RES
1 *3803:Q *783:4 23 
2 *783:4 *783:14 37.5607 
3 *783:14 *3578:A0 23 
4 *783:4 *783:27 35.6343 
5 *783:27 *3443:A2 23 
*END

*D_NET *784 0.00158819
*CONN
*I *3580:A0 I *D sky130_fd_sc_hd__mux2_2
*I *3452:A2 I *D sky130_fd_sc_hd__mux4_2
*I *3804:Q O *D sky130_fd_sc_hd__dfxtp_2
*CAP
1 *3580:A0 0.000154089
2 *3452:A2 0.000176752
3 *3804:Q 0.000272295
4 *784:10 0.000603135
5 *3452:A2 *792:16 3.64246e-05
6 *4008:A *3580:A0 0.000103299
7 *399:8 *784:10 0.000144494
8 *452:66 *3580:A0 7.07248e-05
9 *562:106 *3452:A2 0
10 *618:6 *3580:A0 2.69729e-05
11 *686:35 *3452:A2 0
12 *686:41 *3452:A2 0
*RES
1 *3804:Q *784:10 42.1843 
2 *784:10 *3452:A2 41.3143 
3 *784:10 *3580:A0 41.0243 
*END

*D_NET *785 0.00175582
*CONN
*I *3459:A2 I *D sky130_fd_sc_hd__mux4_2
*I *3582:A0 I *D sky130_fd_sc_hd__mux2_2
*I *3805:Q O *D sky130_fd_sc_hd__dfxtp_2
*CAP
1 *3459:A2 0
2 *3582:A0 0
3 *3805:Q 0.000454409
4 *785:28 0.000314355
5 *785:10 0.000140054
6 *3599:A0 *785:10 8.62876e-05
7 *76:8 *785:28 8.85189e-05
8 *630:16 *785:28 0.000299187
9 *662:34 *785:28 0.000225393
10 *666:16 *785:10 5.50106e-05
11 *697:72 *785:10 0
12 *724:49 *785:10 9.26005e-05
13 *724:115 *785:28 0
*RES
1 *3805:Q *785:10 40.8793 
2 *785:10 *3582:A0 38 
3 *3805:Q *785:28 44.5457 
4 *785:28 *3459:A2 38 
*END

*D_NET *786 0.00296732
*CONN
*I *3467:A2 I *D sky130_fd_sc_hd__mux4_2
*I *3584:A0 I *D sky130_fd_sc_hd__mux2_2
*I *3806:Q O *D sky130_fd_sc_hd__dfxtp_2
*CAP
1 *3467:A2 0.000459475
2 *3584:A0 0.00041002
3 *3806:Q 0.000302488
4 *786:10 0.000869495
5 *786:8 0.000302488
6 *3467:A2 *3467:A3 0.000279219
7 *3584:A1 *3584:A0 1.63061e-05
8 *3584:S *3584:A0 0.000134465
9 *3814:CLK *3584:A0 1.46205e-05
10 *3814:D *3584:A0 7.10068e-06
11 *651:10 *786:8 0
12 *722:33 *786:8 0.00017164
13 *762:8 *786:8 0
*RES
1 *3806:Q *786:8 44.8357 
2 *786:8 *786:10 15 
3 *786:10 *3584:A0 28.7586 
4 *786:10 *3467:A2 31.5136 
*END

*D_NET *787 0.00207554
*CONN
*I *3586:A0 I *D sky130_fd_sc_hd__mux2_2
*I *3476:A2 I *D sky130_fd_sc_hd__mux4_2
*I *3807:Q O *D sky130_fd_sc_hd__dfxtp_2
*CAP
1 *3586:A0 0.000310839
2 *3476:A2 4.99221e-05
3 *3807:Q 0.000292498
4 *787:10 0.000653259
5 *3476:A2 *3476:A3 5.3304e-05
6 *787:10 *795:12 8.50366e-05
7 *78:10 *3586:A0 0.000233388
8 *78:10 *787:10 0.000276816
9 *452:37 *3586:A0 5.01469e-05
10 *452:48 *3586:A0 7.53303e-06
11 *662:34 *787:10 5.79559e-05
12 *695:44 *3586:A0 0
13 *720:48 *3586:A0 4.84129e-06
*RES
1 *3807:Q *787:10 42.64 
2 *787:10 *3476:A2 38.6214 
3 *787:10 *3586:A0 43.8621 
*END

*D_NET *788 0.00103837
*CONN
*I *3589:A1 I *D sky130_fd_sc_hd__mux2_2
*I *3417:A3 I *D sky130_fd_sc_hd__mux4_2
*I *3808:Q O *D sky130_fd_sc_hd__dfxtp_2
*CAP
1 *3589:A1 4.69238e-05
2 *3417:A3 0.000133911
3 *3808:Q 6.27375e-05
4 *788:8 0.000243573
5 *3792:CLK *3417:A3 2.30274e-05
6 *3792:CLK *3589:A1 2.14486e-05
7 *461:108 *3417:A3 0.000303801
8 *461:108 *3589:A1 7.56656e-05
9 *585:38 *3417:A3 7.0576e-05
10 *686:134 *3417:A3 5.67058e-05
*RES
1 *3808:Q *788:8 38.6214 
2 *788:8 *3417:A3 42.64 
3 *788:8 *3589:A1 39.2014 
*END

*D_NET *789 0.00222959
*CONN
*I *3427:A3 I *D sky130_fd_sc_hd__mux4_2
*I *3591:A1 I *D sky130_fd_sc_hd__mux2_2
*I *3809:Q O *D sky130_fd_sc_hd__dfxtp_2
*CAP
1 *3427:A3 0
2 *3591:A1 0.000234
3 *3809:Q 0.000354121
4 *789:10 0.000588121
5 *3592:A *789:10 0.000102289
6 *72:8 *3591:A1 0.000109101
7 *72:8 *789:10 8.51225e-05
8 *88:8 *789:10 1.61361e-05
9 *588:57 *3591:A1 0.000274543
10 *624:14 *3591:A1 0.000156844
11 *624:14 *789:10 0.00015822
12 *624:21 *3591:A1 5.50106e-05
13 *686:152 *3591:A1 9.6077e-05
*RES
1 *3809:Q *789:10 44.2143 
2 *789:10 *3591:A1 45.5193 
3 *789:10 *3427:A3 38 
*END

*D_NET *790 0.00179817
*CONN
*I *3435:A3 I *D sky130_fd_sc_hd__mux4_2
*I *3593:A1 I *D sky130_fd_sc_hd__mux2_2
*I *3810:Q O *D sky130_fd_sc_hd__dfxtp_2
*CAP
1 *3435:A3 0.000252826
2 *3593:A1 0
3 *3810:Q 0.000142624
4 *790:12 0.000302748
5 *790:8 0.000192547
6 *3435:S1 *3435:A3 6.68936e-05
7 *3436:S *790:8 4.68559e-05
8 *461:88 *790:8 0.000287931
9 *577:25 *790:8 5.90846e-05
10 *622:82 *3435:A3 0.000283068
11 *622:82 *790:12 5.3304e-05
12 *681:141 *790:8 0.000110292
*RES
1 *3810:Q *790:8 42.0186 
2 *790:8 *790:12 15.6214 
3 *790:12 *3593:A1 23 
4 *790:12 *3435:A3 27.5986 
*END

*D_NET *791 0.00119531
*CONN
*I *3443:A3 I *D sky130_fd_sc_hd__mux4_2
*I *3595:A1 I *D sky130_fd_sc_hd__mux2_2
*I *3811:Q O *D sky130_fd_sc_hd__dfxtp_2
*CAP
1 *3443:A3 8.26979e-05
2 *3595:A1 0.000272981
3 *3811:Q 5.87288e-05
4 *791:10 0.000355679
5 *791:8 5.87288e-05
6 *3466:S0 *791:8 0.000143166
7 *535:26 *791:8 0.000168524
8 *620:42 *791:8 1.39826e-05
9 *620:46 *3595:A1 4.08224e-05
*RES
1 *3811:Q *791:8 40.2579 
2 *791:8 *791:10 15 
3 *791:10 *3595:A1 27.1429 
4 *791:10 *3443:A3 24.0979 
*END

*D_NET *792 0.00161967
*CONN
*I *3452:A3 I *D sky130_fd_sc_hd__mux4_2
*I *3597:A1 I *D sky130_fd_sc_hd__mux2_2
*I *3812:Q O *D sky130_fd_sc_hd__dfxtp_2
*CAP
1 *3452:A3 0.000138545
2 *3597:A1 0
3 *3812:Q 0.000110096
4 *792:16 0.000476253
5 *792:8 0.000724894
6 *3452:A2 *792:16 3.64246e-05
7 *3452:S0 *792:8 5.31385e-05
8 *3562:A1 *792:16 2.46906e-05
9 *3597:S *792:16 5.56279e-05
10 *562:75 *792:16 0
11 *562:106 *792:16 0
12 *686:41 *792:16 0
*RES
1 *3812:Q *792:8 25.0714 
2 *792:8 *792:16 37.2293 
3 *792:16 *3597:A1 23 
4 *792:8 *3452:A3 25.0507 
*END

*D_NET *793 0.00107581
*CONN
*I *3599:A1 I *D sky130_fd_sc_hd__mux2_2
*I *3459:A3 I *D sky130_fd_sc_hd__mux4_2
*I *3813:Q O *D sky130_fd_sc_hd__dfxtp_2
*CAP
1 *3599:A1 5.9899e-05
2 *3459:A3 0.000273563
3 *3813:Q 0.00040151
4 *793:22 0.000187846
5 *3599:A0 *793:22 4.48671e-05
6 *452:35 *793:22 2.76611e-06
7 *461:143 *3599:A1 2.30292e-05
8 *461:168 *3599:A1 1.94693e-05
9 *630:16 *793:22 6.28591e-05
*RES
1 *3813:Q *3459:A3 49.9771 
2 *3813:Q *793:22 40.61 
3 *793:22 *3599:A1 39.0979 
*END

*D_NET *794 0.00202156
*CONN
*I *3467:A3 I *D sky130_fd_sc_hd__mux4_2
*I *3601:A1 I *D sky130_fd_sc_hd__mux2_2
*I *3814:Q O *D sky130_fd_sc_hd__dfxtp_2
*CAP
1 *3467:A3 0.00031942
2 *3601:A1 0
3 *3814:Q 0
4 *794:12 0.000350575
5 *794:4 0.000669996
6 *3467:A2 *3467:A3 0.000279219
7 *442:53 *794:12 1.61385e-05
8 *461:181 *794:12 0.000364774
9 *651:10 *794:12 2.14404e-05
*RES
1 *3814:Q *794:4 23 
2 *794:4 *794:12 35.6343 
3 *794:12 *3601:A1 23 
4 *794:4 *3467:A3 27.93 
*END

*D_NET *795 0.000903001
*CONN
*I *3476:A3 I *D sky130_fd_sc_hd__mux4_2
*I *3603:A1 I *D sky130_fd_sc_hd__mux2_2
*I *3815:Q O *D sky130_fd_sc_hd__dfxtp_2
*CAP
1 *3476:A3 0.00016158
2 *3603:A1 0
3 *3815:Q 7.64358e-05
4 *795:12 6.61468e-05
5 *795:6 0.000304163
6 *3452:S0 *795:12 2.04854e-05
7 *3476:A2 *3476:A3 5.3304e-05
8 *611:16 *3476:A3 9.93202e-05
9 *695:44 *3476:A3 3.75727e-06
10 *695:44 *795:6 3.05276e-05
11 *695:44 *795:12 2.24366e-06
12 *787:10 *795:12 8.50366e-05
*RES
1 *3815:Q *795:6 24.0979 
2 *795:6 *795:12 31.2014 
3 *795:12 *3603:A1 23 
4 *795:6 *3476:A3 26.0243 
*END

*D_NET *796 0.00186497
*CONN
*I *3420:A1 I *D sky130_fd_sc_hd__mux4_2
*I *3606:A0 I *D sky130_fd_sc_hd__mux2_2
*I *3816:Q O *D sky130_fd_sc_hd__dfxtp_2
*CAP
1 *3420:A1 0.000268619
2 *3606:A0 0.000107454
3 *3816:Q 0.000156784
4 *796:10 0.000532857
5 *3420:A1 *3420:A3 9.84851e-05
6 *3420:S1 *3420:A1 9.91481e-05
7 *608:10 *796:10 0.000142678
8 *628:22 *3606:A0 8.93429e-05
9 *628:22 *796:10 1.94812e-05
10 *636:17 *3606:A0 0.000274455
11 *636:17 *796:10 7.56656e-05
*RES
1 *3816:Q *796:10 40.7757 
2 *796:10 *3606:A0 41.6664 
3 *796:10 *3420:A1 41.9771 
*END

*D_NET *797 0.00209124
*CONN
*I *3608:A0 I *D sky130_fd_sc_hd__mux2_2
*I *3430:A1 I *D sky130_fd_sc_hd__mux4_2
*I *3817:Q O *D sky130_fd_sc_hd__dfxtp_2
*CAP
1 *3608:A0 0.000245908
2 *3430:A1 6.90117e-05
3 *3817:Q 0.000175971
4 *797:10 0.000490891
5 *3430:S0 *3608:A0 0.000431852
6 *404:36 *3608:A0 0.000136738
7 *406:10 *797:10 0
8 *582:27 *3430:A1 5.3304e-05
9 *582:27 *797:10 0.000114083
10 *623:16 *3608:A0 8.72173e-05
11 *633:23 *3608:A0 0.000180941
12 *633:23 *797:10 1.22803e-05
13 *669:14 *3608:A0 4.67488e-05
14 *669:24 *3608:A0 2.93747e-05
15 *741:23 *3608:A0 1.22906e-05
16 *741:23 *797:10 4.6318e-06
*RES
1 *3817:Q *797:10 41.0036 
2 *797:10 *3430:A1 39.0979 
3 *797:10 *3608:A0 45.7057 
*END

*D_NET *798 0.00254519
*CONN
*I *3610:A0 I *D sky130_fd_sc_hd__mux2_2
*I *3438:A1 I *D sky130_fd_sc_hd__mux4_2
*I *3818:Q O *D sky130_fd_sc_hd__dfxtp_2
*CAP
1 *3610:A0 0.000191824
2 *3438:A1 0.000363431
3 *3818:Q 0.000211319
4 *798:8 0.000766574
5 *3438:A0 *3438:A1 0.000139346
6 *3438:A0 *798:8 1.22803e-05
7 *3610:A1 *3610:A0 2.30292e-05
8 *3610:S *3610:A0 0.000182826
9 *41:10 *798:8 4.89706e-05
10 *365:12 *3610:A0 4.73585e-05
11 *365:12 *798:8 6.7177e-06
12 *407:10 *798:8 0.000378428
13 *488:121 *3610:A0 0.000148688
14 *664:42 *3438:A1 2.43944e-05
*RES
1 *3818:Q *798:8 43.7793 
2 *798:8 *3438:A1 42.93 
3 *798:8 *3610:A0 43.2614 
*END

*D_NET *799 0.00139244
*CONN
*I *3446:A1 I *D sky130_fd_sc_hd__mux4_2
*I *3612:A0 I *D sky130_fd_sc_hd__mux2_2
*I *3819:Q O *D sky130_fd_sc_hd__dfxtp_2
*CAP
1 *3446:A1 0
2 *3612:A0 0
3 *3819:Q 0.000197534
4 *799:18 9.73195e-05
5 *799:12 0.000267655
6 *799:8 0.000367869
7 *42:14 *799:18 4.61596e-05
8 *619:94 *799:18 3.48854e-05
9 *743:21 *799:8 0.000381017
*RES
1 *3819:Q *799:8 43.075 
2 *799:8 *799:12 17.5271 
3 *799:12 *799:18 32.2579 
4 *799:18 *3612:A0 23 
5 *799:12 *3446:A1 23 
*END

*D_NET *800 0.00208667
*CONN
*I *3614:A0 I *D sky130_fd_sc_hd__mux2_2
*I *3455:A1 I *D sky130_fd_sc_hd__mux4_2
*I *3820:Q O *D sky130_fd_sc_hd__dfxtp_2
*CAP
1 *3614:A0 0.00020579
2 *3455:A1 0.000288119
3 *3820:Q 0.000232182
4 *800:8 0.00072609
5 *3455:A0 *3455:A1 5.50049e-05
6 *3455:A0 *800:8 4.70975e-05
7 *3492:A0 *800:8 0.000108703
8 *3610:S *3614:A0 5.67058e-05
9 *3829:CLK *3614:A0 0
10 *3829:CLK *800:8 0
11 *380:10 *3614:A0 0.000150977
12 *380:10 *800:8 0.000120131
13 *670:68 *3614:A0 9.58714e-05
*RES
1 *3820:Q *800:8 43.7793 
2 *800:8 *3455:A1 41.9771 
3 *800:8 *3614:A0 41.8321 
*END

*D_NET *801 0.00190079
*CONN
*I *3616:A0 I *D sky130_fd_sc_hd__mux2_2
*I *3462:A1 I *D sky130_fd_sc_hd__mux4_2
*I *3821:Q O *D sky130_fd_sc_hd__dfxtp_2
*CAP
1 *3616:A0 0.000274888
2 *3462:A1 0.000191139
3 *3821:Q 0.000166554
4 *801:8 0.000632581
5 *3462:A1 *817:10 0.000110184
6 *476:14 *3616:A0 0
7 *591:8 *3462:A1 2.39877e-05
8 *591:8 *3616:A0 1.82497e-05
9 *634:27 *3462:A1 0
10 *634:27 *3616:A0 0
11 *670:62 *3462:A1 3.47781e-05
12 *670:62 *3616:A0 0.000326973
13 *670:62 *801:8 5.3304e-05
14 *685:93 *3462:A1 5.67058e-05
15 *723:62 *3616:A0 1.14452e-05
*RES
1 *3821:Q *801:8 40.0507 
2 *801:8 *3462:A1 41.9357 
3 *801:8 *3616:A0 43.075 
*END

*D_NET *802 0.00255492
*CONN
*I *3470:A1 I *D sky130_fd_sc_hd__mux4_2
*I *3618:A0 I *D sky130_fd_sc_hd__mux2_2
*I *3822:Q O *D sky130_fd_sc_hd__dfxtp_2
*CAP
1 *3470:A1 0.000231783
2 *3618:A0 0.000108098
3 *3822:Q 0.000397059
4 *802:8 0.000736941
5 *477:8 *3470:A1 0.000297207
6 *477:8 *3618:A0 0.000116314
7 *488:65 *3470:A1 0.000337586
8 *488:65 *3618:A0 0.000111852
9 *672:8 *802:8 5.3304e-05
10 *674:8 *3470:A1 0
11 *721:26 *3618:A0 5.29205e-05
12 *746:14 *3470:A1 0.000111852
*RES
1 *3822:Q *802:8 42.4329 
2 *802:8 *3618:A0 40.6514 
3 *802:8 *3470:A1 45.2293 
*END

*D_NET *803 0.00245613
*CONN
*I *3479:A1 I *D sky130_fd_sc_hd__mux4_2
*I *3620:A0 I *D sky130_fd_sc_hd__mux2_2
*I *3823:Q O *D sky130_fd_sc_hd__dfxtp_2
*CAP
1 *3479:A1 0
2 *3620:A0 0
3 *3823:Q 0
4 *803:27 0.00029582
5 *803:12 0.000190072
6 *803:4 0.000485892
7 *3479:S0 *803:27 0.000346215
8 *3479:S1 *803:27 9.5877e-05
9 *3620:A1 *803:12 0
10 *605:6 *803:12 5.50106e-05
11 *605:6 *803:27 0.000310641
12 *605:14 *803:12 9.5876e-06
13 *636:17 *803:12 0.000113614
14 *719:10 *803:27 0.000137651
15 *719:68 *803:27 0.000321581
16 *747:14 *803:27 9.41704e-05
*RES
1 *3823:Q *803:4 23 
2 *803:4 *803:12 34.2879 
3 *803:12 *3620:A0 23 
4 *803:4 *803:27 39.3007 
5 *803:27 *3479:A1 23 
*END

*D_NET *804 0.0015758
*CONN
*I *3420:A2 I *D sky130_fd_sc_hd__mux4_2
*I *3623:A0 I *D sky130_fd_sc_hd__mux2_2
*I *3824:Q O *D sky130_fd_sc_hd__dfxtp_2
*CAP
1 *3420:A2 0.000153826
2 *3623:A0 8.97877e-05
3 *3824:Q 0.000449679
4 *804:10 0.000385641
5 *3420:A2 *3420:A3 5.3304e-05
6 *804:10 *3640:A0 0.000192077
7 *3623:A1 *3623:A0 7.87147e-05
8 *95:10 *804:10 0
9 *636:17 *804:10 7.10099e-05
10 *665:36 *3623:A0 0.000101762
*RES
1 *3824:Q *804:10 43.8207 
2 *804:10 *3623:A0 40.5271 
3 *3824:Q *3420:A2 48.0507 
*END

*D_NET *805 0.00237386
*CONN
*I *3430:A2 I *D sky130_fd_sc_hd__mux4_2
*I *3625:A0 I *D sky130_fd_sc_hd__mux2_2
*I *3825:Q O *D sky130_fd_sc_hd__dfxtp_2
*CAP
1 *3430:A2 0.000214466
2 *3625:A0 0.000168716
3 *3825:Q 6.09728e-05
4 *805:8 0.000444155
5 *3430:A2 *3642:A0 5.50049e-05
6 *3625:A1 *3625:A0 0.00010018
7 *582:8 *3430:A2 0.000327903
8 *582:8 *3625:A0 0.000136486
9 *593:30 *805:8 3.82058e-06
10 *665:14 *3625:A0 0.000326398
11 *665:26 *3625:A0 0.000147656
12 *685:40 *3625:A0 0.000195119
13 *685:57 *3430:A2 4.85126e-05
14 *691:56 *3430:A2 0.000141699
15 *691:56 *3625:A0 2.76611e-06
*RES
1 *3825:Q *805:8 38.6214 
2 *805:8 *3625:A0 44.815 
3 *805:8 *3430:A2 44.4007 
*END

*D_NET *806 0.00205522
*CONN
*I *3627:A0 I *D sky130_fd_sc_hd__mux2_2
*I *3438:A2 I *D sky130_fd_sc_hd__mux4_2
*I *3826:Q O *D sky130_fd_sc_hd__dfxtp_2
*CAP
1 *3627:A0 0.000213142
2 *3438:A2 0.000375371
3 *3826:Q 9.93454e-05
4 *806:8 0.000687859
5 *3438:A2 *3438:A3 9.07853e-05
6 *3438:A2 *814:6 9.97435e-06
7 *3627:A1 *3627:A0 0.000101649
8 *113:8 *3627:A0 7.70737e-05
9 *113:8 *806:8 3.70187e-05
10 *491:10 *3627:A0 0.000138727
11 *491:10 *806:8 0.000224276
12 *583:18 *3627:A0 0
13 *664:48 *3627:A0 0
14 *664:48 *806:8 0
15 *664:61 *3627:A0 0
*RES
1 *3826:Q *806:8 40.9621 
2 *806:8 *3438:A2 42.9093 
3 *806:8 *3627:A0 42.785 
*END

*D_NET *807 0.00108166
*CONN
*I *3446:A2 I *D sky130_fd_sc_hd__mux4_2
*I *3629:A0 I *D sky130_fd_sc_hd__mux2_2
*I *3827:Q O *D sky130_fd_sc_hd__dfxtp_2
*CAP
1 *3446:A2 0.000139696
2 *3629:A0 0
3 *3827:Q 0
4 *807:12 0.000215097
5 *807:4 0.000354794
6 *3446:S1 *3446:A2 0.000182213
7 *3446:S1 *807:12 0.000189857
*RES
1 *3827:Q *807:4 23 
2 *807:4 *807:12 33.6043 
3 *807:12 *3629:A0 23 
4 *807:4 *3446:A2 25.0507 
*END

*D_NET *808 0.00279754
*CONN
*I *3455:A2 I *D sky130_fd_sc_hd__mux4_2
*I *3631:A0 I *D sky130_fd_sc_hd__mux2_2
*I *3828:Q O *D sky130_fd_sc_hd__dfxtp_2
*CAP
1 *3455:A2 0
2 *3631:A0 0.00041756
3 *3828:Q 0.000455951
4 *808:12 0.00041756
5 *808:10 0.000455951
6 *808:10 *3648:A0 1.22803e-05
7 *808:10 *816:10 9.48826e-05
8 *3438:S0 *808:10 2.33476e-05
9 *3615:A *3631:A0 7.59794e-05
10 *3820:CLK *808:10 6.51997e-06
11 *99:10 *3631:A0 2.03704e-05
12 *99:10 *808:10 0.000322528
13 *594:10 *808:10 3.0699e-05
14 *664:32 *808:10 0.00032298
15 *664:42 *3631:A0 0.000140927
*RES
1 *3828:Q *808:10 48.6679 
2 *808:10 *808:12 15 
3 *808:12 *3631:A0 30.3329 
4 *808:12 *3455:A2 23 
*END

*D_NET *809 0.00205493
*CONN
*I *3462:A2 I *D sky130_fd_sc_hd__mux4_2
*I *3633:A0 I *D sky130_fd_sc_hd__mux2_2
*I *3829:Q O *D sky130_fd_sc_hd__dfxtp_2
*CAP
1 *3462:A2 0
2 *3633:A0 0
3 *3829:Q 8.92861e-05
4 *809:29 0.000306858
5 *809:14 0.000266968
6 *809:6 0.000663112
7 *591:62 *809:6 3.7122e-06
8 *591:62 *809:14 8.9728e-05
9 *591:62 *809:29 0.00020461
10 *664:16 *809:14 3.50715e-05
11 *664:32 *809:14 0.000144494
12 *723:10 *809:14 5.82853e-05
13 *723:24 *809:14 0.000143421
14 *723:38 *809:14 4.93812e-05
*RES
1 *3829:Q *809:6 24.0979 
2 *809:6 *809:14 36.67 
3 *809:14 *3633:A0 23 
4 *809:6 *809:29 34.8057 
5 *809:29 *3462:A2 23 
*END

*D_NET *810 0.00227957
*CONN
*I *3470:A2 I *D sky130_fd_sc_hd__mux4_2
*I *3635:A0 I *D sky130_fd_sc_hd__mux2_2
*I *3830:Q O *D sky130_fd_sc_hd__dfxtp_2
*CAP
1 *3470:A2 0
2 *3635:A0 7.07198e-05
3 *3830:Q 0.000532257
4 *810:32 0.000322388
5 *810:12 0.000280589
6 *810:32 *818:8 8.85189e-05
7 *3822:CLK *810:32 8.82055e-05
8 *562:214 *3635:A0 9.67908e-05
9 *562:248 *810:12 2.65481e-05
10 *665:12 *810:12 0.000166444
11 *665:12 *810:32 0
12 *665:56 *3635:A0 5.82853e-05
13 *685:18 *810:32 0.000151909
14 *692:30 *810:12 0.000197284
15 *721:42 *3635:A0 5.77458e-05
16 *721:51 *810:12 0.000141888
*RES
1 *3830:Q *810:12 43.8414 
2 *810:12 *3635:A0 40.0507 
3 *3830:Q *810:32 44.5457 
4 *810:32 *3470:A2 38 
*END

*D_NET *811 0.0019603
*CONN
*I *3479:A2 I *D sky130_fd_sc_hd__mux4_2
*I *3637:A0 I *D sky130_fd_sc_hd__mux2_2
*I *3831:Q O *D sky130_fd_sc_hd__dfxtp_2
*CAP
1 *3479:A2 0.000305752
2 *3637:A0 9.88502e-05
3 *3831:Q 6.3806e-05
4 *811:8 0.000468408
5 *3479:A2 *3479:A3 0.000432359
6 *811:8 *3479:A3 0.000165384
7 *3637:A1 *3637:A0 0.000100061
8 *664:61 *3637:A0 9.64943e-05
9 *719:12 *3479:A2 0
10 *719:18 *3637:A0 4.08664e-05
11 *719:37 *3479:A2 2.4306e-05
12 *719:37 *811:8 0.00016401
*RES
1 *3831:Q *811:8 40.2579 
2 *811:8 *3637:A0 40.5271 
3 *811:8 *3479:A2 45.2293 
*END

*D_NET *812 0.00261358
*CONN
*I *3420:A3 I *D sky130_fd_sc_hd__mux4_2
*I *3640:A0 I *D sky130_fd_sc_hd__mux2_2
*I *3832:Q O *D sky130_fd_sc_hd__dfxtp_2
*CAP
1 *3420:A3 0.000106298
2 *3640:A0 0.000235574
3 *3832:Q 0.000170772
4 *812:8 0.000512644
5 *3420:A1 *3420:A3 9.84851e-05
6 *3420:A2 *3420:A3 5.3304e-05
7 *3640:A1 *3640:A0 0.000316804
8 *3640:S *3640:A0 2.79304e-05
9 *95:10 *3640:A0 0
10 *95:10 *812:8 0
11 *471:8 *3640:A0 0.000274641
12 *636:17 *3640:A0 0.000303269
13 *636:17 *812:8 0.000321786
14 *804:10 *3640:A0 0.000192077
*RES
1 *3832:Q *812:8 42.3707 
2 *812:8 *3640:A0 46.4514 
3 *812:8 *3420:A3 40.0507 
*END

*D_NET *813 0.0010759
*CONN
*I *3430:A3 I *D sky130_fd_sc_hd__mux4_2
*I *3642:A0 I *D sky130_fd_sc_hd__mux2_2
*I *3833:Q O *D sky130_fd_sc_hd__dfxtp_2
*CAP
1 *3430:A3 0
2 *3642:A0 0.000326715
3 *3833:Q 8.58528e-05
4 *813:10 0.000326715
5 *813:8 8.58528e-05
6 *3430:A2 *3642:A0 5.50049e-05
7 *3642:S *813:8 0
8 *472:12 *813:8 0.000171906
9 *685:57 *3642:A0 2.3853e-05
10 *691:56 *813:8 0
*RES
1 *3833:Q *813:8 40.2579 
2 *813:8 *813:10 15 
3 *813:10 *3642:A0 29.0486 
4 *813:10 *3430:A3 23 
*END

*D_NET *814 0.00102637
*CONN
*I *3438:A3 I *D sky130_fd_sc_hd__mux4_2
*I *3644:A0 I *D sky130_fd_sc_hd__mux2_2
*I *3834:Q O *D sky130_fd_sc_hd__dfxtp_2
*CAP
1 *3438:A3 0.000188738
2 *3644:A0 0
3 *3834:Q 3.11341e-05
4 *814:16 0.000136618
5 *814:6 0.00035649
6 *3438:A2 *3438:A3 9.07853e-05
7 *3438:A2 *814:6 9.97435e-06
8 *3644:S *814:16 6.35028e-05
9 *3818:CLK *814:16 1.13812e-05
10 *583:18 *814:16 0.000137744
*RES
1 *3834:Q *814:6 23.6214 
2 *814:6 *814:16 33.0243 
3 *814:16 *3644:A0 23 
4 *814:6 *3438:A3 27.3914 
*END

*D_NET *815 0.00162869
*CONN
*I *3646:A0 I *D sky130_fd_sc_hd__mux2_2
*I *3446:A3 I *D sky130_fd_sc_hd__mux4_2
*I *3835:Q O *D sky130_fd_sc_hd__dfxtp_2
*CAP
1 *3646:A0 0
2 *3446:A3 2.35051e-05
3 *3835:Q 0.000468275
4 *815:30 0.00033837
5 *815:10 0.00015341
6 *3446:S1 *3446:A3 5.82853e-05
7 *3646:S *815:30 0
8 *3835:CLK *815:30 0.000139346
9 *4110:A *815:30 1.01436e-05
10 *42:14 *815:10 4.50022e-05
11 *98:10 *815:10 0.000168669
12 *479:8 *815:30 7.8128e-05
13 *595:6 *815:10 1.05235e-05
14 *595:6 *815:30 0.000135037
15 *672:22 *815:30 0
*RES
1 *3835:Q *815:10 40.8793 
2 *815:10 *3446:A3 38.6214 
3 *3835:Q *815:30 43.2614 
4 *815:30 *3646:A0 38 
*END

*D_NET *816 0.000959266
*CONN
*I *3648:A0 I *D sky130_fd_sc_hd__mux2_2
*I *3455:A3 I *D sky130_fd_sc_hd__mux4_2
*I *3836:Q O *D sky130_fd_sc_hd__dfxtp_2
*CAP
1 *3648:A0 0.000103056
2 *3455:A3 3.27105e-05
3 *3836:Q 0.000151405
4 *816:10 0.000287172
5 *3455:S0 *816:10 1.47133e-05
6 *3455:S1 *3648:A0 9.28945e-05
7 *3455:S1 *816:10 4.6318e-06
8 *3615:A *3455:A3 5.50106e-05
9 *3764:CLK *816:10 2.10502e-05
10 *725:39 *3648:A0 8.9458e-05
11 *808:10 *3648:A0 1.22803e-05
12 *808:10 *816:10 9.48826e-05
*RES
1 *3836:Q *816:10 41.2314 
2 *816:10 *3455:A3 38.6214 
3 *816:10 *3648:A0 40.61 
*END

*D_NET *817 0.00278965
*CONN
*I *3650:A0 I *D sky130_fd_sc_hd__mux2_2
*I *3462:A3 I *D sky130_fd_sc_hd__mux4_2
*I *3837:Q O *D sky130_fd_sc_hd__dfxtp_2
*CAP
1 *3650:A0 2.16649e-05
2 *3462:A3 0.000100697
3 *3837:Q 0.00070755
4 *817:32 0.000247506
5 *817:10 0.000582406
6 *3462:A1 *817:10 0.000110184
7 *3821:D *817:10 0.000219589
8 *488:100 *3650:A0 0.000100069
9 *488:100 *817:32 4.98718e-06
10 *516:49 *817:32 4.6318e-06
11 *591:12 *817:10 6.969e-05
12 *591:14 *817:10 5.18869e-05
13 *670:62 *817:10 8.27947e-06
14 *670:62 *817:32 5.79559e-05
15 *685:93 *3462:A3 0.000102389
16 *723:38 *3650:A0 0.000100069
17 *723:38 *817:32 0.000300098
*RES
1 *3837:Q *817:10 45.4157 
2 *817:10 *3462:A3 40.0714 
3 *3837:Q *817:32 42.9921 
4 *817:32 *3650:A0 39.0979 
*END

*D_NET *818 0.00140564
*CONN
*I *3652:A0 I *D sky130_fd_sc_hd__mux2_2
*I *3470:A3 I *D sky130_fd_sc_hd__mux4_2
*I *3838:Q O *D sky130_fd_sc_hd__dfxtp_2
*CAP
1 *3652:A0 0.000245993
2 *3470:A3 0.000156855
3 *3838:Q 5.14584e-05
4 *818:8 0.000454307
5 *488:8 *3652:A0 0.000182826
6 *488:27 *3652:A0 3.3266e-05
7 *665:12 *3652:A0 7.23925e-05
8 *665:12 *818:8 3.81391e-05
9 *685:18 *3652:A0 7.41334e-05
10 *685:18 *818:8 7.75329e-06
11 *810:32 *818:8 8.85189e-05
*RES
1 *3838:Q *818:8 39.5536 
2 *818:8 *3470:A3 40.0507 
3 *818:8 *3652:A0 43.9864 
*END

*D_NET *819 0.00280064
*CONN
*I *3479:A3 I *D sky130_fd_sc_hd__mux4_2
*I *3654:A0 I *D sky130_fd_sc_hd__mux2_2
*I *3839:Q O *D sky130_fd_sc_hd__dfxtp_2
*CAP
1 *3479:A3 0.000339317
2 *3654:A0 0.000179218
3 *3839:Q 0
4 *819:6 0.000518534
5 *3479:A2 *3479:A3 0.000432359
6 *488:138 *3654:A0 5.25436e-05
7 *664:61 *3479:A3 0.000352296
8 *664:61 *3654:A0 0.000280756
9 *719:12 *3479:A3 0
10 *719:37 *3479:A3 0.000184734
11 *719:37 *3654:A0 0.000295495
12 *811:8 *3479:A3 0.000165384
*RES
1 *3839:Q *819:6 38 
2 *819:6 *3654:A0 43.7171 
3 *819:6 *3479:A3 48.7093 
*END

*D_NET *820 0.0022129
*CONN
*I *3419:A0 I *D sky130_fd_sc_hd__mux4_2
*I *3658:A0 I *D sky130_fd_sc_hd__mux2_2
*I *3840:Q O *D sky130_fd_sc_hd__dfxtp_2
*CAP
1 *3419:A0 9.30423e-05
2 *3658:A0 0.000240417
3 *3840:Q 0.000330231
4 *820:8 0.00066369
5 *3419:A0 *828:10 8.36198e-05
6 *3658:A0 *828:10 0.000223795
7 *3676:A *3419:A0 7.37503e-05
8 *3676:A *3658:A0 0.000451051
9 *498:38 *3658:A0 0
10 *516:127 *3419:A0 5.3304e-05
*RES
1 *3840:Q *820:8 41.9564 
2 *820:8 *3658:A0 44.7529 
3 *820:8 *3419:A0 39.8229 
*END

*D_NET *821 0.00158174
*CONN
*I *3429:A0 I *D sky130_fd_sc_hd__mux4_2
*I *3660:A0 I *D sky130_fd_sc_hd__mux2_2
*I *3841:Q O *D sky130_fd_sc_hd__dfxtp_2
*CAP
1 *3429:A0 0
2 *3660:A0 0
3 *3841:Q 0.000181055
4 *821:16 0.000139272
5 *821:10 0.000320327
6 *3430:S0 *821:16 0.000373027
7 *516:109 *821:10 1.21972e-05
8 *623:10 *821:16 0.000373027
9 *691:16 *821:10 0.000182832
*RES
1 *3841:Q *821:10 26.8736 
2 *821:10 *821:16 35.075 
3 *821:16 *3660:A0 23 
4 *821:10 *3429:A0 23 
*END

*D_NET *822 0.00199945
*CONN
*I *3437:A0 I *D sky130_fd_sc_hd__mux4_2
*I *3662:A0 I *D sky130_fd_sc_hd__mux2_2
*I *3842:Q O *D sky130_fd_sc_hd__dfxtp_2
*CAP
1 *3437:A0 0.000417217
2 *3662:A0 0
3 *3842:Q 0.0002166
4 *822:10 0.000633817
5 *3437:S0 *3437:A0 0.00022294
6 *3439:S *3437:A0 0.000422647
7 *3439:S *822:10 1.01436e-05
8 *139:10 *822:10 0
9 *147:8 *3437:A0 0
10 *364:10 *822:10 0
11 *366:16 *822:10 0
12 *516:57 *822:10 1.57322e-05
13 *590:42 *3437:A0 5.61311e-05
14 *590:42 *822:10 4.21594e-06
*RES
1 *3842:Q *822:10 41.2314 
2 *822:10 *3662:A0 38 
3 *822:10 *3437:A0 48.2121 
*END

*D_NET *823 0.0018377
*CONN
*I *3664:A0 I *D sky130_fd_sc_hd__mux2_2
*I *3445:A0 I *D sky130_fd_sc_hd__mux4_2
*I *3843:Q O *D sky130_fd_sc_hd__dfxtp_2
*CAP
1 *3664:A0 0.000476206
2 *3445:A0 0
3 *3843:Q 0.000368345
4 *823:10 0.000844551
5 *3664:S *3664:A0 4.05684e-05
6 *371:8 *3664:A0 5.34638e-05
7 *371:8 *823:10 5.58975e-06
8 *373:10 *3664:A0 4.89774e-05
*RES
1 *3843:Q *823:10 43.4893 
2 *823:10 *3445:A0 38 
3 *823:10 *3664:A0 46.8243 
*END

*D_NET *824 0.00183389
*CONN
*I *3454:A0 I *D sky130_fd_sc_hd__mux4_2
*I *3666:A0 I *D sky130_fd_sc_hd__mux2_2
*I *3844:Q O *D sky130_fd_sc_hd__dfxtp_2
*CAP
1 *3454:A0 0.000208735
2 *3666:A0 0.000190644
3 *3844:Q 0
4 *824:6 0.000399379
5 *3454:A0 *3454:A1 5.67058e-05
6 *3666:S *3454:A0 3.70094e-05
7 *3666:S *3666:A0 0.000413364
8 *379:10 *3454:A0 0.00010018
9 *516:51 *3666:A0 2.4754e-05
10 *591:37 *3454:A0 0.000119828
11 *591:37 *3666:A0 7.03869e-05
12 *663:43 *3454:A0 0.0002129
*RES
1 *3844:Q *824:6 38 
2 *824:6 *3666:A0 43.3857 
3 *824:6 *3454:A0 43.8414 
*END

*D_NET *825 0.00193711
*CONN
*I *3668:A0 I *D sky130_fd_sc_hd__mux2_2
*I *3461:A0 I *D sky130_fd_sc_hd__mux4_2
*I *3845:Q O *D sky130_fd_sc_hd__dfxtp_2
*CAP
1 *3668:A0 0.000130713
2 *3461:A0 0
3 *3845:Q 0
4 *825:12 0.000247329
5 *825:4 0.000378042
6 *504:10 *3668:A0 0.000133454
7 *597:12 *825:12 8.57577e-05
8 *634:27 *825:12 0.000174097
9 *663:43 *3668:A0 0.000315857
10 *663:43 *825:12 4.05745e-05
11 *692:32 *825:12 0.000184528
12 *692:38 *825:12 0.000246757
*RES
1 *3845:Q *825:4 23 
2 *825:4 *825:12 36.8771 
3 *825:12 *3461:A0 23 
4 *825:4 *3668:A0 26.9771 
*END

*D_NET *826 0.00160055
*CONN
*I *3469:A0 I *D sky130_fd_sc_hd__mux4_2
*I *3670:A0 I *D sky130_fd_sc_hd__mux2_2
*I *3846:Q O *D sky130_fd_sc_hd__dfxtp_2
*CAP
1 *3469:A0 0
2 *3670:A0 0.000188165
3 *3846:Q 4.42235e-05
4 *826:8 0.000232388
5 *392:14 *826:8 8.78864e-05
6 *498:32 *3670:A0 0.000353328
7 *507:30 *3670:A0 0.000137754
8 *570:16 *3670:A0 0.000186041
9 *600:46 *3670:A0 0.000157113
10 *726:37 *3670:A0 3.40838e-05
11 *726:37 *826:8 8.52094e-06
12 *727:34 *3670:A0 0.000121698
13 *727:34 *826:8 4.93525e-05
*RES
1 *3846:Q *826:8 39.5536 
2 *826:8 *3670:A0 45.2707 
3 *826:8 *3469:A0 38 
*END

*D_NET *827 0.000973107
*CONN
*I *3478:A0 I *D sky130_fd_sc_hd__mux4_2
*I *3672:A0 I *D sky130_fd_sc_hd__mux2_2
*I *3847:Q O *D sky130_fd_sc_hd__dfxtp_2
*CAP
1 *3478:A0 0.000209297
2 *3672:A0 0.000209297
3 *3847:Q 8.51215e-05
4 *827:8 8.51215e-05
5 *3478:A0 *3478:A1 0.00018536
6 *3478:S0 *3478:A0 8.9726e-05
7 *400:14 *827:8 2.86209e-05
8 *498:42 *827:8 6.70389e-05
9 *691:56 *3478:A0 1.3523e-05
*RES
1 *3847:Q *827:8 39.9057 
2 *827:8 *3672:A0 38 
3 *3672:A0 *3478:A0 49.9564 
*END

*D_NET *828 0.00225659
*CONN
*I *3675:A0 I *D sky130_fd_sc_hd__mux2_2
*I *3419:A1 I *D sky130_fd_sc_hd__mux4_2
*I *3848:Q O *D sky130_fd_sc_hd__dfxtp_2
*CAP
1 *3675:A0 0.00021808
2 *3419:A1 9.02129e-05
3 *3848:Q 0.000380775
4 *828:10 0.000689068
5 *3419:A0 *828:10 8.36198e-05
6 *3419:S0 *3419:A1 0.000134169
7 *3658:A0 *828:10 0.000223795
8 *3676:A *3675:A0 3.04115e-05
9 *3676:A *828:10 2.07944e-05
10 *348:10 *3675:A0 8.62876e-05
11 *516:127 *3419:A1 0.000215003
12 *625:82 *828:10 8.43768e-05
13 *625:99 *3675:A0 0
14 *625:99 *828:10 0
*RES
1 *3848:Q *828:10 45.25 
2 *828:10 *3419:A1 41.0036 
3 *828:10 *3675:A0 41.5836 
*END

*D_NET *829 0.00197994
*CONN
*I *3429:A1 I *D sky130_fd_sc_hd__mux4_2
*I *3677:A0 I *D sky130_fd_sc_hd__mux2_2
*I *3849:Q O *D sky130_fd_sc_hd__dfxtp_2
*CAP
1 *3429:A1 0.000127475
2 *3677:A0 0.000108255
3 *3849:Q 0.00028986
4 *829:8 0.00052559
5 *3429:A1 *3711:A1 2.68518e-05
6 *3677:A0 *3711:A1 7.73488e-05
7 *507:46 *3677:A0 1.13812e-05
8 *507:93 *3429:A1 0.000108227
9 *507:93 *3677:A0 0.000261279
10 *516:109 *3429:A1 9.41704e-05
11 *599:22 *829:8 0.000349506
*RES
1 *3849:Q *829:8 41.9564 
2 *829:8 *3677:A0 41.6664 
3 *829:8 *3429:A1 40.6514 
*END

*D_NET *830 0.00170052
*CONN
*I *3679:A0 I *D sky130_fd_sc_hd__mux2_2
*I *3437:A1 I *D sky130_fd_sc_hd__mux4_2
*I *3850:Q O *D sky130_fd_sc_hd__dfxtp_2
*CAP
1 *3679:A0 0.00021863
2 *3437:A1 0
3 *3850:Q 0.000301921
4 *830:10 0.000520551
5 *3679:A0 *3437:A3 0.000108129
6 *3679:A0 *846:8 1.05235e-05
7 *3679:A1 *3679:A0 0.000360963
8 *366:16 *3679:A0 8.90674e-06
9 *366:16 *830:10 0.000117574
10 *510:10 *3679:A0 5.33272e-05
11 *516:57 *830:10 0
12 *516:70 *3679:A0 0
13 *516:70 *830:10 0
*RES
1 *3850:Q *830:10 43.945 
2 *830:10 *3437:A1 38 
3 *830:10 *3679:A0 43.8621 
*END

*D_NET *831 0.00194492
*CONN
*I *3445:A1 I *D sky130_fd_sc_hd__mux4_2
*I *3681:A0 I *D sky130_fd_sc_hd__mux2_2
*I *3851:Q O *D sky130_fd_sc_hd__dfxtp_2
*CAP
1 *3445:A1 4.23312e-05
2 *3681:A0 0.000450644
3 *3851:Q 0.000144602
4 *831:10 0.000637577
5 *3681:S *3681:A0 2.05503e-05
6 *372:12 *3681:A0 0
7 *470:31 *3681:A0 0.000137361
8 *619:55 *3681:A0 0.000310162
9 *619:55 *831:10 6.43363e-05
10 *670:44 *3681:A0 0.000137361
*RES
1 *3851:Q *831:10 40.5271 
2 *831:10 *3681:A0 48.1707 
3 *831:10 *3445:A1 38.6214 
*END

*D_NET *832 0.00186145
*CONN
*I *3683:A0 I *D sky130_fd_sc_hd__mux2_2
*I *3454:A1 I *D sky130_fd_sc_hd__mux4_2
*I *3852:Q O *D sky130_fd_sc_hd__dfxtp_2
*CAP
1 *3683:A0 0.000277487
2 *3454:A1 0.000366545
3 *3852:Q 0
4 *832:6 0.000644032
5 *3454:A0 *3454:A1 5.67058e-05
6 *3683:A1 *3683:A0 4.48474e-05
7 *3683:S *3683:A0 0.000154601
8 *379:10 *3454:A1 9.90162e-05
9 *380:22 *3454:A1 0
10 *591:37 *3454:A1 0.000218216
*RES
1 *3852:Q *832:6 38 
2 *832:6 *3454:A1 47.3629 
3 *832:6 *3683:A0 43.5307 
*END

*D_NET *833 0.00204109
*CONN
*I *3461:A1 I *D sky130_fd_sc_hd__mux4_2
*I *3685:A0 I *D sky130_fd_sc_hd__mux2_2
*I *3853:Q O *D sky130_fd_sc_hd__dfxtp_2
*CAP
1 *3461:A1 0.000163049
2 *3685:A0 0.000171108
3 *3853:Q 0.000210023
4 *833:8 0.000544179
5 *3445:S0 *833:8 5.50106e-05
6 *3867:CLK *833:8 5.73835e-06
7 *124:10 *3685:A0 0.000191148
8 *597:18 *833:8 2.20111e-05
9 *634:27 *3461:A1 0.000246793
10 *634:27 *3685:A0 0.000376242
11 *685:24 *3461:A1 5.5792e-05
*RES
1 *3853:Q *833:8 40.5271 
2 *833:8 *3685:A0 43.075 
3 *833:8 *3461:A1 41.9357 
*END

*D_NET *834 0.00203263
*CONN
*I *3469:A1 I *D sky130_fd_sc_hd__mux4_2
*I *3687:A0 I *D sky130_fd_sc_hd__mux2_2
*I *3854:Q O *D sky130_fd_sc_hd__dfxtp_2
*CAP
1 *3469:A1 0.000142022
2 *3687:A0 0
3 *3854:Q 0.000407124
4 *834:10 0.000549146
5 *3469:S1 *3469:A1 5.3304e-05
6 *525:33 *834:10 0.00030894
7 *525:115 *3469:A1 8.22174e-05
8 *525:115 *834:10 7.10623e-05
9 *685:18 *3469:A1 0.000220511
10 *685:18 *834:10 0.000159285
11 *692:10 *3469:A1 3.90213e-05
*RES
1 *3854:Q *834:10 44.6907 
2 *834:10 *3687:A0 38 
3 *834:10 *3469:A1 42.06 
*END

*D_NET *835 0.00293441
*CONN
*I *3478:A1 I *D sky130_fd_sc_hd__mux4_2
*I *3689:A0 I *D sky130_fd_sc_hd__mux2_2
*I *3855:Q O *D sky130_fd_sc_hd__dfxtp_2
*CAP
1 *3478:A1 0.000163114
2 *3689:A0 0.000182228
3 *3855:Q 0.000311094
4 *835:10 0.000656436
5 *3478:A0 *3478:A1 0.00018536
6 *3478:S0 *3478:A1 0.000223031
7 *400:14 *835:10 0.000207738
8 *506:8 *835:10 8.62783e-05
9 *507:65 *3689:A0 5.56356e-05
10 *507:73 *3689:A0 0.000144494
11 *525:58 *3689:A0 0
12 *567:8 *3689:A0 0.000183102
13 *567:8 *835:10 0.000350536
14 *719:82 *3689:A0 0.000102389
15 *719:97 *3689:A0 8.29713e-05
*RES
1 *3855:Q *835:10 44.6493 
2 *835:10 *3689:A0 42.6607 
3 *835:10 *3478:A1 41.9564 
*END

*D_NET *836 0.00234031
*CONN
*I *3419:A2 I *D sky130_fd_sc_hd__mux4_2
*I *3692:A0 I *D sky130_fd_sc_hd__mux2_2
*I *3856:Q O *D sky130_fd_sc_hd__dfxtp_2
*CAP
1 *3419:A2 0.000341955
2 *3692:A0 0
3 *3856:Q 0
4 *836:14 0.000511849
5 *836:4 0.000853804
6 *3419:A2 *3419:A3 5.58003e-05
7 *3692:S *836:14 0.000117897
8 *3864:D *836:14 0.000237582
9 *349:14 *836:14 8.57577e-05
10 *366:18 *836:14 8.57577e-05
11 *689:52 *3419:A2 4.99065e-05
*RES
1 *3856:Q *836:4 23 
2 *836:4 *836:14 38.0371 
3 *836:14 *3692:A0 23 
4 *836:4 *3419:A2 28.0957 
*END

*D_NET *837 0.00193065
*CONN
*I *3429:A2 I *D sky130_fd_sc_hd__mux4_2
*I *3694:A0 I *D sky130_fd_sc_hd__mux2_2
*I *3857:Q O *D sky130_fd_sc_hd__dfxtp_2
*CAP
1 *3429:A2 0.000113993
2 *3694:A0 0
3 *3857:Q 0.000455203
4 *837:12 0.000113993
5 *837:10 0.000455203
6 *3712:A *837:10 8.92006e-06
7 *3857:D *837:10 0.000234542
8 *136:8 *837:10 0
9 *516:109 *3429:A2 0.000174837
10 *516:127 *3429:A2 0.000131835
11 *623:77 *837:10 3.6608e-05
12 *689:25 *3429:A2 0.000205514
*RES
1 *3857:Q *837:10 44.4629 
2 *837:10 *837:12 15 
3 *837:12 *3694:A0 23 
4 *837:12 *3429:A2 27.6193 
*END

*D_NET *838 0.00144416
*CONN
*I *3437:A2 I *D sky130_fd_sc_hd__mux4_2
*I *3696:A0 I *D sky130_fd_sc_hd__mux2_2
*I *3858:Q O *D sky130_fd_sc_hd__dfxtp_2
*CAP
1 *3437:A2 0.000256223
2 *3696:A0 0
3 *3858:Q 0.000124583
4 *838:10 0.000380806
5 *145:10 *3437:A2 9.98891e-05
6 *488:138 *838:10 0.000108681
7 *583:12 *3437:A2 0.000243847
8 *583:12 *838:10 0.000166522
9 *621:10 *3437:A2 1.05235e-05
10 *621:16 *3437:A2 2.45964e-05
11 *621:16 *838:10 2.84912e-05
*RES
1 *3858:Q *838:10 40.8793 
2 *838:10 *3696:A0 38 
3 *838:10 *3437:A2 43.8414 
*END

*D_NET *839 0.00306052
*CONN
*I *3445:A2 I *D sky130_fd_sc_hd__mux4_2
*I *3698:A0 I *D sky130_fd_sc_hd__mux2_2
*I *3859:Q O *D sky130_fd_sc_hd__dfxtp_2
*CAP
1 *3445:A2 0.000199609
2 *3698:A0 0.000217848
3 *3859:Q 0.000132121
4 *839:8 0.000549578
5 *3445:A2 *3445:A3 0.000140313
6 *122:10 *3698:A0 0
7 *470:31 *3698:A0 0.000353209
8 *502:8 *3445:A2 0.000197946
9 *502:8 *3698:A0 3.31127e-05
10 *507:143 *3698:A0 0.000120999
11 *507:143 *839:8 1.33439e-05
12 *511:12 *3445:A2 0.000390752
13 *511:12 *3698:A0 0.000219873
14 *516:41 *3698:A0 0
15 *619:55 *3698:A0 0
16 *670:44 *3698:A0 0.000351508
17 *685:117 *3445:A2 0.000140313
*RES
1 *3859:Q *839:8 39.5743 
2 *839:8 *3698:A0 45.6229 
3 *839:8 *3445:A2 45.0014 
*END

*D_NET *840 0.0015543
*CONN
*I *3454:A2 I *D sky130_fd_sc_hd__mux4_2
*I *3700:A0 I *D sky130_fd_sc_hd__mux2_2
*I *3860:Q O *D sky130_fd_sc_hd__dfxtp_2
*CAP
1 *3454:A2 0.000212512
2 *3700:A0 0.000154327
3 *3860:Q 0
4 *840:6 0.000366839
5 *3454:A2 *848:8 0.000223692
6 *516:51 *3700:A0 3.22879e-05
7 *516:57 *3700:A0 2.93845e-05
8 *684:86 *3454:A2 8.62783e-05
9 *684:86 *3700:A0 0.000274553
10 *725:59 *3454:A2 3.72639e-05
11 *725:59 *3700:A0 0.000137163
*RES
1 *3860:Q *840:6 38 
2 *840:6 *3700:A0 42.7643 
3 *840:6 *3454:A2 41.7286 
*END

*D_NET *841 0.00168753
*CONN
*I *3461:A2 I *D sky130_fd_sc_hd__mux4_2
*I *3702:A0 I *D sky130_fd_sc_hd__mux2_2
*I *3861:Q O *D sky130_fd_sc_hd__dfxtp_2
*CAP
1 *3461:A2 0.000113017
2 *3702:A0 0
3 *3861:Q 0
4 *841:18 0.000422234
5 *841:4 0.000535251
6 *3461:A2 *3461:A3 0.000191755
7 *841:18 *3461:A3 0.000144501
8 *841:18 *3719:A1 8.50457e-05
9 *522:10 *841:18 0
10 *531:8 *841:18 9.33388e-05
11 *633:23 *841:18 0
12 *663:43 *841:18 0.000102389
*RES
1 *3861:Q *841:4 23 
2 *841:4 *841:18 38.5136 
3 *841:18 *3702:A0 23 
4 *841:4 *3461:A2 25.0507 
*END

*D_NET *842 0.00107721
*CONN
*I *3704:A0 I *D sky130_fd_sc_hd__mux2_2
*I *3469:A2 I *D sky130_fd_sc_hd__mux4_2
*I *3862:Q O *D sky130_fd_sc_hd__dfxtp_2
*CAP
1 *3704:A0 0.000169686
2 *3469:A2 2.68471e-05
3 *3862:Q 8.92088e-05
4 *842:8 0.000285742
5 *3469:A2 *3469:A3 5.5792e-05
6 *3704:A0 *850:16 0.000153767
7 *525:115 *3704:A0 4.85823e-05
8 *525:115 *842:8 5.54823e-05
9 *691:16 *3704:A0 9.58714e-05
10 *721:79 *3704:A0 4.16051e-06
11 *721:79 *842:8 9.20722e-05
*RES
1 *3862:Q *842:8 40.61 
2 *842:8 *3469:A2 38.6214 
3 *842:8 *3704:A0 41.7079 
*END

*D_NET *843 0.00113478
*CONN
*I *3478:A2 I *D sky130_fd_sc_hd__mux4_2
*I *3706:A0 I *D sky130_fd_sc_hd__mux2_2
*I *3863:Q O *D sky130_fd_sc_hd__dfxtp_2
*CAP
1 *3478:A2 0.000184126
2 *3706:A0 0
3 *3863:Q 0
4 *843:12 0.000257956
5 *843:4 0.000442082
6 *404:77 *843:12 7.53239e-05
7 *516:70 *843:12 1.13812e-05
8 *524:8 *843:12 0
9 *592:31 *3478:A2 3.22879e-05
10 *592:31 *843:12 9.47227e-05
11 *684:48 *843:12 3.69001e-05
*RES
1 *3863:Q *843:4 23 
2 *843:4 *843:12 34.3086 
3 *843:12 *3706:A0 23 
4 *843:4 *3478:A2 25.5271 
*END

*D_NET *844 0.00126946
*CONN
*I *3419:A3 I *D sky130_fd_sc_hd__mux4_2
*I *3709:A1 I *D sky130_fd_sc_hd__mux2_2
*I *3864:Q O *D sky130_fd_sc_hd__dfxtp_2
*CAP
1 *3419:A3 0.000163124
2 *3709:A1 0.00023146
3 *3864:Q 0
4 *844:6 0.000394584
5 *3419:A2 *3419:A3 5.58003e-05
6 *350:73 *3709:A1 4.58097e-05
7 *516:127 *3419:A3 0.000136855
8 *516:127 *3709:A1 3.13952e-05
9 *526:10 *3419:A3 4.66892e-05
10 *526:10 *3709:A1 0.00010546
11 *562:75 *3419:A3 0
12 *625:82 *3709:A1 5.82853e-05
*RES
1 *3864:Q *844:6 38 
2 *844:6 *3709:A1 43.6136 
3 *844:6 *3419:A3 41.6043 
*END

*D_NET *845 0.00218184
*CONN
*I *3429:A3 I *D sky130_fd_sc_hd__mux4_2
*I *3711:A1 I *D sky130_fd_sc_hd__mux2_2
*I *3865:Q O *D sky130_fd_sc_hd__dfxtp_2
*CAP
1 *3429:A3 0
2 *3711:A1 0.000455469
3 *3865:Q 0.000166046
4 *845:10 0.000621515
5 *3429:A1 *3711:A1 2.68518e-05
6 *3429:S1 *3711:A1 1.14452e-05
7 *3429:S1 *845:10 0.000169665
8 *3677:A0 *3711:A1 7.73488e-05
9 *128:10 *3711:A1 0.00019025
10 *128:10 *845:10 0.00016046
11 *507:93 *3711:A1 0
12 *507:93 *845:10 4.93341e-05
13 *509:8 *3711:A1 7.73177e-05
14 *525:45 *3711:A1 5.5792e-05
15 *623:71 *3711:A1 0.000120344
*RES
1 *3865:Q *845:10 41.8321 
2 *845:10 *3711:A1 47.4871 
3 *845:10 *3429:A3 38 
*END

*D_NET *846 0.00149467
*CONN
*I *3713:A1 I *D sky130_fd_sc_hd__mux2_2
*I *3437:A3 I *D sky130_fd_sc_hd__mux4_2
*I *3866:Q O *D sky130_fd_sc_hd__dfxtp_2
*CAP
1 *3713:A1 0.000118471
2 *3437:A3 0.000418527
3 *3866:Q 5.52764e-05
4 *846:8 0.000592274
5 *3437:S1 *3437:A3 2.93747e-05
6 *3679:A0 *3437:A3 0.000108129
7 *3679:A0 *846:8 1.05235e-05
8 *366:16 *3437:A3 9.20785e-05
9 *366:16 *3713:A1 2.79603e-05
10 *366:18 *3713:A1 4.20525e-05
*RES
1 *3866:Q *846:8 38.6214 
2 *846:8 *3437:A3 45.2293 
3 *846:8 *3713:A1 40.61 
*END

*D_NET *847 0.00155086
*CONN
*I *3445:A3 I *D sky130_fd_sc_hd__mux4_2
*I *3715:A1 I *D sky130_fd_sc_hd__mux2_2
*I *3867:Q O *D sky130_fd_sc_hd__dfxtp_2
*CAP
1 *3445:A3 0.000295332
2 *3715:A1 0
3 *3867:Q 0
4 *847:12 0.000259096
5 *847:4 0.000554428
6 *3445:A2 *3445:A3 0.000140313
7 *3851:D *847:12 2.95423e-05
8 *511:12 *847:12 8.36198e-05
9 *525:14 *847:12 1.83408e-05
10 *598:45 *847:12 3.88629e-05
11 *619:71 *847:12 1.37434e-05
12 *685:117 *3445:A3 0.000117582
*RES
1 *3867:Q *847:4 23 
2 *847:4 *847:12 33.7286 
3 *847:12 *3715:A1 23 
4 *847:4 *3445:A3 27.4536 
*END

*D_NET *848 0.00206072
*CONN
*I *3717:A1 I *D sky130_fd_sc_hd__mux2_2
*I *3454:A3 I *D sky130_fd_sc_hd__mux4_2
*I *3868:Q O *D sky130_fd_sc_hd__dfxtp_2
*CAP
1 *3717:A1 5.43738e-05
2 *3454:A3 0
3 *3868:Q 0.000401193
4 *848:24 0.000209403
5 *848:8 0.000246164
6 *3454:A2 *848:8 0.000223692
7 *380:22 *3717:A1 2.64616e-05
8 *512:10 *848:24 0.000293321
9 *684:86 *848:8 0.000310647
10 *725:59 *848:24 0.000295459
*RES
1 *3868:Q *848:8 28.8829 
2 *848:8 *3454:A3 23 
3 *3868:Q *848:24 42.64 
4 *848:24 *3717:A1 38.6214 
*END

*D_NET *849 0.00222786
*CONN
*I *3461:A3 I *D sky130_fd_sc_hd__mux4_2
*I *3719:A1 I *D sky130_fd_sc_hd__mux2_2
*I *3869:Q O *D sky130_fd_sc_hd__dfxtp_2
*CAP
1 *3461:A3 0.000210003
2 *3719:A1 0.000189287
3 *3869:Q 0.000165371
4 *849:10 0.000564661
5 *3461:A2 *3461:A3 0.000191755
6 *525:92 *3719:A1 0.000185368
7 *531:8 *3719:A1 0.000115526
8 *531:8 *849:10 0.000184927
9 *685:32 *3461:A3 0.000191417
10 *841:18 *3461:A3 0.000144501
11 *841:18 *3719:A1 8.50457e-05
*RES
1 *3869:Q *849:10 41.2314 
2 *849:10 *3719:A1 41.6043 
3 *849:10 *3461:A3 43.3857 
*END

*D_NET *850 0.00190029
*CONN
*I *3469:A3 I *D sky130_fd_sc_hd__mux4_2
*I *3721:A1 I *D sky130_fd_sc_hd__mux2_2
*I *3870:Q O *D sky130_fd_sc_hd__dfxtp_2
*CAP
1 *3469:A3 0.000178332
2 *3721:A1 0
3 *3870:Q 0.000158935
4 *850:16 0.000349398
5 *850:6 0.000686665
6 *3469:A2 *3469:A3 5.5792e-05
7 *3704:A0 *850:16 0.000153767
8 *3721:A0 *850:16 0.000163065
9 *525:115 *850:16 0
10 *599:59 *850:16 8.62876e-05
11 *721:79 *850:16 6.80491e-05
*RES
1 *3870:Q *850:6 24.5743 
2 *850:6 *850:16 37.6021 
3 *850:16 *3721:A1 23 
4 *850:6 *3469:A3 25.5479 
*END

*D_NET *851 0.00120237
*CONN
*I *3478:A3 I *D sky130_fd_sc_hd__mux4_2
*I *3723:A1 I *D sky130_fd_sc_hd__mux2_2
*I *3871:Q O *D sky130_fd_sc_hd__dfxtp_2
*CAP
1 *3478:A3 4.24211e-05
2 *3723:A1 0.000134783
3 *3871:Q 0.0003197
4 *851:8 0.000496904
5 *3988:A *851:8 3.81391e-05
6 *350:57 *3723:A1 0
7 *350:57 *851:8 0
8 *533:10 *3723:A1 0
9 *533:10 *851:8 0
10 *592:14 *851:8 5.80963e-05
11 *685:40 *3723:A1 5.56203e-05
12 *719:82 *3723:A1 5.67058e-05
*RES
1 *3871:Q *851:8 43.075 
2 *851:8 *3723:A1 40.5271 
3 *851:8 *3478:A3 38.6214 
*END

*D_NET *852 0.00118011
*CONN
*I *3416:A0 I *D sky130_fd_sc_hd__mux4_2
*I *3727:A0 I *D sky130_fd_sc_hd__mux2_2
*I *3872:Q O *D sky130_fd_sc_hd__dfxtp_2
*CAP
1 *3416:A0 0.00013672
2 *3727:A0 0
3 *3872:Q 0.000295512
4 *852:14 0.000432232
5 *347:10 *3416:A0 0
6 *347:10 *852:14 0
7 *626:10 *3416:A0 0.00019747
8 *626:14 *3416:A0 8.11552e-05
9 *626:14 *852:14 3.70187e-05
10 *628:20 *852:14 0
*RES
1 *3872:Q *852:14 42.7229 
2 *852:14 *3727:A0 38 
3 *852:14 *3416:A0 41.6664 
*END

*D_NET *853 0.00069719
*CONN
*I *3729:A0 I *D sky130_fd_sc_hd__mux2_2
*I *3426:A0 I *D sky130_fd_sc_hd__mux4_2
*I *3873:Q O *D sky130_fd_sc_hd__dfxtp_2
*CAP
1 *3729:A0 0
2 *3426:A0 0.000147115
3 *3873:Q 8.23943e-05
4 *853:19 8.58139e-05
5 *853:6 0.000315323
6 *681:124 *853:19 4.79531e-05
7 *699:44 *853:19 1.85903e-05
*RES
1 *3873:Q *853:6 24.0979 
2 *853:6 *3426:A0 24.5743 
3 *853:6 *853:19 31.5536 
4 *853:19 *3729:A0 23 
*END

*D_NET *854 0.00108716
*CONN
*I *3731:A0 I *D sky130_fd_sc_hd__mux2_2
*I *3434:A0 I *D sky130_fd_sc_hd__mux4_2
*I *3874:Q O *D sky130_fd_sc_hd__dfxtp_2
*CAP
1 *3731:A0 0
2 *3434:A0 8.90572e-05
3 *3874:Q 7.80538e-05
4 *854:10 8.90572e-05
5 *854:8 7.80538e-05
6 *3434:S0 *3434:A0 0.000367267
7 *361:10 *3434:A0 0.000275403
8 *662:82 *854:8 0.000110267
*RES
1 *3874:Q *854:8 39.5536 
2 *854:8 *854:10 15 
3 *854:10 *3434:A0 26.9564 
4 *854:10 *3731:A0 23 
*END

*D_NET *855 0.00208827
*CONN
*I *3442:A0 I *D sky130_fd_sc_hd__mux4_2
*I *3733:A0 I *D sky130_fd_sc_hd__mux2_2
*I *3875:Q O *D sky130_fd_sc_hd__dfxtp_2
*CAP
1 *3442:A0 0.000252805
2 *3733:A0 0.000318381
3 *3875:Q 9.05652e-05
4 *855:8 0.000661751
5 *370:10 *3442:A0 0.000138747
6 *370:10 *855:8 0.000168515
7 *535:18 *3733:A0 5.5792e-05
8 *535:26 *3733:A0 0.000144664
9 *620:6 *3733:A0 0.000131819
10 *729:76 *3442:A0 0.000125234
*RES
1 *3875:Q *855:8 40.2579 
2 *855:8 *3733:A0 44.3386 
3 *855:8 *3442:A0 42.4329 
*END

*D_NET *856 0.0012806
*CONN
*I *3450:A0 I *D sky130_fd_sc_hd__mux4_2
*I *3735:A0 I *D sky130_fd_sc_hd__mux2_2
*I *3876:Q O *D sky130_fd_sc_hd__dfxtp_2
*CAP
1 *3450:A0 0
2 *3735:A0 0
3 *3876:Q 4.93073e-05
4 *856:25 0.000146459
5 *856:14 0.00031413
6 *856:6 0.000509896
7 *347:10 *856:14 3.84905e-05
8 *347:10 *856:25 7.91543e-05
9 *466:10 *856:25 0
10 *544:61 *856:14 0.000143166
11 *610:23 *856:25 0
*RES
1 *3876:Q *856:6 23.6214 
2 *856:6 *856:14 34.9093 
3 *856:14 *3735:A0 23 
4 *856:6 *856:25 33.3143 
5 *856:25 *3450:A0 23 
*END

*D_NET *857 0.001863
*CONN
*I *3737:A0 I *D sky130_fd_sc_hd__mux2_2
*I *3458:A0 I *D sky130_fd_sc_hd__mux4_2
*I *3877:Q O *D sky130_fd_sc_hd__dfxtp_2
*CAP
1 *3737:A0 0
2 *3458:A0 0.00044398
3 *3877:Q 0.000236994
4 *857:19 9.90874e-05
5 *857:6 0.000780061
6 *3458:A0 *865:12 0.000183733
7 *3877:D *3458:A0 8.15899e-06
8 *26:22 *857:19 2.9596e-05
9 *681:32 *3458:A0 4.34902e-05
10 *681:32 *857:6 2.64577e-05
11 *724:10 *857:19 1.14452e-05
*RES
1 *3877:Q *857:6 26.0036 
2 *857:6 *3458:A0 29.3386 
3 *857:6 *857:19 31.5536 
4 *857:19 *3737:A0 23 
*END

*D_NET *858 0.00108851
*CONN
*I *3466:A0 I *D sky130_fd_sc_hd__mux4_2
*I *3739:A0 I *D sky130_fd_sc_hd__mux2_2
*I *3878:Q O *D sky130_fd_sc_hd__dfxtp_2
*CAP
1 *3466:A0 4.96292e-05
2 *3739:A0 2.32701e-05
3 *3878:Q 0.000192331
4 *858:10 0.00026523
5 *3466:S0 *858:10 0
6 *3468:A0 *3739:A0 5.3304e-05
7 *3468:A1 *3739:A0 5.3304e-05
8 *3739:S *858:10 0
9 *442:37 *3466:A0 0.000110922
10 *442:37 *858:10 0.000188916
11 *722:16 *3466:A0 0.000100778
12 *722:16 *858:10 1.01436e-05
13 *729:37 *858:10 4.06849e-05
*RES
1 *3878:Q *858:10 41.7079 
2 *858:10 *3739:A0 38.6214 
3 *858:10 *3466:A0 39.5536 
*END

*D_NET *859 0.00114239
*CONN
*I *3474:A0 I *D sky130_fd_sc_hd__mux4_2
*I *3741:A0 I *D sky130_fd_sc_hd__mux2_2
*I *3879:Q O *D sky130_fd_sc_hd__dfxtp_2
*CAP
1 *3474:A0 0.000189482
2 *3741:A0 0.000189482
3 *3879:Q 6.17939e-05
4 *859:8 6.17939e-05
5 *452:66 *859:8 0.000137788
6 *662:52 *859:8 0.000110913
7 *662:59 *859:8 3.70187e-05
8 *686:83 *3474:A0 0.000354122
*RES
1 *3879:Q *859:8 39.9057 
2 *859:8 *3741:A0 38 
3 *3741:A0 *3474:A0 49.9564 
*END

*D_NET *860 0.00146599
*CONN
*I *3744:A0 I *D sky130_fd_sc_hd__mux2_2
*I *3416:A1 I *D sky130_fd_sc_hd__mux4_2
*I *3880:Q O *D sky130_fd_sc_hd__dfxtp_2
*CAP
1 *3744:A0 0
2 *3416:A1 0
3 *3880:Q 0.000497429
4 *860:28 0.000179113
5 *860:10 0.000318315
6 *544:89 *860:28 0.000113235
7 *626:10 *860:10 0.00010349
8 *628:14 *860:10 3.71251e-05
9 *628:14 *860:28 5.76359e-05
10 *628:20 *860:10 0.00015965
*RES
1 *3880:Q *860:10 44.4214 
2 *860:10 *3416:A1 38 
3 *3880:Q *860:28 41.3557 
4 *860:28 *3744:A0 38 
*END

*D_NET *861 0.00284299
*CONN
*I *3426:A1 I *D sky130_fd_sc_hd__mux4_2
*I *3746:A0 I *D sky130_fd_sc_hd__mux2_2
*I *3881:Q O *D sky130_fd_sc_hd__dfxtp_2
*CAP
1 *3426:A1 0
2 *3746:A0 0.000689735
3 *3881:Q 7.96193e-05
4 *861:23 0.000307237
5 *861:6 0.00107659
6 *3746:A1 *3746:A0 0.00012464
7 *3881:CLK *3746:A0 2.95423e-05
8 *3971:A *861:23 0.00013424
9 *160:12 *3746:A0 8.03791e-05
10 *546:8 *3746:A0 1.56163e-05
11 *562:162 *861:23 1.85495e-05
12 *562:176 *861:23 6.76833e-05
13 *686:10 *861:23 5.75756e-06
14 *686:16 *861:23 0.000213399
*RES
1 *3881:Q *861:6 24.0979 
2 *861:6 *3746:A0 32.2179 
3 *861:6 *861:23 37.2293 
4 *861:23 *3426:A1 23 
*END

*D_NET *862 0.00411446
*CONN
*I *3748:A0 I *D sky130_fd_sc_hd__mux2_2
*I *3434:A1 I *D sky130_fd_sc_hd__mux4_2
*I *3882:Q O *D sky130_fd_sc_hd__dfxtp_2
*CAP
1 *3748:A0 0.000343712
2 *3434:A1 9.52473e-05
3 *3882:Q 0.000637015
4 *862:10 0.00107597
5 *3434:S1 *3748:A0 0.000218886
6 *3434:S1 *862:10 5.75756e-06
7 *3749:A *3748:A0 0.00014384
8 *161:12 *3748:A0 0.000558612
9 *161:12 *862:10 0.000410654
10 *544:78 *3748:A0 2.64616e-05
11 *622:14 *3748:A0 0.000313785
12 *628:20 *3748:A0 2.36418e-05
13 *628:22 *862:10 0
14 *631:18 *3748:A0 0.00012381
15 *668:41 *862:10 4.05745e-05
16 *763:21 *862:10 9.64943e-05
*RES
1 *3882:Q *862:10 48.8129 
2 *862:10 *3434:A1 39.0979 
3 *862:10 *3748:A0 49.02 
*END

*D_NET *863 0.00121995
*CONN
*I *3750:A0 I *D sky130_fd_sc_hd__mux2_2
*I *3442:A1 I *D sky130_fd_sc_hd__mux4_2
*I *3883:Q O *D sky130_fd_sc_hd__dfxtp_2
*CAP
1 *3750:A0 9.53363e-05
2 *3442:A1 0
3 *3883:Q 5.76697e-05
4 *863:14 0.000166175
5 *863:8 0.000319181
6 *3750:A1 *3750:A0 0.000260841
7 *3750:A1 *863:8 5.56279e-05
8 *544:152 *3750:A0 0.000142636
9 *571:8 *863:14 0
10 *620:12 *863:14 0.000122479
11 *687:54 *863:14 0
*RES
1 *3883:Q *863:8 24.1186 
2 *863:8 *863:14 33.6664 
3 *863:14 *3442:A1 23 
4 *863:8 *3750:A0 26.0036 
*END

*D_NET *864 0.00142745
*CONN
*I *3450:A1 I *D sky130_fd_sc_hd__mux4_2
*I *3752:A0 I *D sky130_fd_sc_hd__mux2_2
*I *3884:Q O *D sky130_fd_sc_hd__dfxtp_2
*CAP
1 *3450:A1 0
2 *3752:A0 0.000377793
3 *3884:Q 0.000226213
4 *864:24 0.000151579
5 *347:10 *864:24 0.000222113
6 *544:61 *864:24 0.000111148
7 *549:10 *3752:A0 0.000132263
8 *618:47 *864:24 6.69899e-05
9 *686:41 *864:24 0.000139352
*RES
1 *3884:Q *3752:A0 49.9771 
2 *3752:A0 *864:24 43.0129 
3 *864:24 *3450:A1 38 
*END

*D_NET *865 0.00245525
*CONN
*I *3458:A1 I *D sky130_fd_sc_hd__mux4_2
*I *3754:A0 I *D sky130_fd_sc_hd__mux2_2
*I *3885:Q O *D sky130_fd_sc_hd__dfxtp_2
*CAP
1 *3458:A1 0
2 *3754:A0 0
3 *3885:Q 0.000254781
4 *865:28 0.000425299
5 *865:12 0.000615712
6 *865:8 0.000445194
7 *3458:A0 *865:12 0.000183733
8 *3458:S1 *865:12 5.79559e-05
9 *3458:S1 *865:28 0.000144501
10 *156:10 *865:8 3.21327e-05
11 *382:10 *865:12 1.39431e-05
12 *383:14 *865:8 0
13 *384:10 *865:28 1.01436e-05
14 *452:14 *865:8 0
15 *550:14 *865:28 0.000194684
16 *562:23 *865:28 6.17437e-06
17 *562:37 *865:28 1.21972e-05
18 *634:39 *865:28 0
19 *681:32 *865:12 1.05235e-05
20 *681:44 *865:28 4.82774e-05
*RES
1 *3885:Q *865:8 42.3707 
2 *865:8 *865:12 18.9564 
3 *865:12 *865:28 38.3064 
4 *865:28 *3754:A0 23 
5 *865:12 *3458:A1 23 
*END

*D_NET *866 0.00129669
*CONN
*I *3756:A0 I *D sky130_fd_sc_hd__mux2_2
*I *3466:A1 I *D sky130_fd_sc_hd__mux4_2
*I *3886:Q O *D sky130_fd_sc_hd__dfxtp_2
*CAP
1 *3756:A0 0
2 *3466:A1 0.000175988
3 *3886:Q 0.00010052
4 *866:23 6.46799e-05
5 *866:6 0.000341187
6 *390:10 *866:23 0.000162789
7 *442:37 *866:23 0.000166522
8 *688:31 *3466:A1 0
9 *688:31 *866:6 6.17437e-06
10 *688:35 *3466:A1 0.000240929
11 *688:35 *866:6 3.78992e-05
*RES
1 *3886:Q *866:6 24.5743 
2 *866:6 *3466:A1 26.9979 
3 *866:6 *866:23 32.2579 
4 *866:23 *3756:A0 23 
*END

*D_NET *867 0.00211673
*CONN
*I *3758:A0 I *D sky130_fd_sc_hd__mux2_2
*I *3474:A1 I *D sky130_fd_sc_hd__mux4_2
*I *3887:Q O *D sky130_fd_sc_hd__dfxtp_2
*CAP
1 *3758:A0 0.000223743
2 *3474:A1 0
3 *3887:Q 0.000181717
4 *867:8 0.00040546
5 *3450:S0 *867:8 0
6 *3515:A0 *3758:A0 5.3304e-05
7 *158:10 *3758:A0 0.000166513
8 *158:10 *867:8 0.000275565
9 *544:61 *3758:A0 0.000316071
10 *544:61 *867:8 4.41619e-05
11 *544:78 *3758:A0 8.48502e-06
12 *552:10 *3758:A0 2.02872e-05
13 *613:8 *3758:A0 6.32688e-05
14 *613:8 *867:8 0.000120644
15 *628:22 *3758:A0 0
16 *720:23 *3758:A0 4.67488e-05
17 *720:36 *3758:A0 0.000190762
*RES
1 *3887:Q *867:8 43.4271 
2 *867:8 *3474:A1 38 
3 *867:8 *3758:A0 45.1671 
*END

*D_NET *868 0.00530465
*CONN
*I *3262:B1 I *D sky130_fd_sc_hd__a21o_2
*I *3285:D I *D sky130_fd_sc_hd__and4_4
*I *4037:A I *D sky130_fd_sc_hd__clkdlybuf4s25_1
*I *3929:Q O *D sky130_fd_sc_hd__dfrtp_2
*CAP
1 *3262:B1 0
2 *3285:D 1.49804e-05
3 *4037:A 0
4 *3929:Q 0.000187838
5 *868:50 0.000549426
6 *868:25 0.00058596
7 *868:17 0.00120818
8 *868:8 0.000275613
9 *3285:D *869:71 5.50106e-05
10 *868:8 *3319:B1 0
11 *868:17 *3319:B1 0
12 *868:17 *906:10 0
13 *868:25 *869:101 9.58714e-05
14 *868:50 *3930:D 0
15 *868:50 *869:101 6.08617e-05
16 *3252:A1 *868:25 5.3304e-05
17 *3252:B1 *868:25 2.09183e-05
18 *3262:A2 *868:50 5.50106e-05
19 *3930:RESET_B *868:50 3.08719e-06
20 *184:18 *868:25 8.67228e-06
21 *184:18 *868:50 2.70366e-05
22 *184:40 *3285:D 5.50106e-05
23 *184:57 *868:25 5.62433e-06
24 *184:57 *868:50 0.000223698
25 *185:21 *868:25 1.21972e-05
26 *193:45 *868:25 0.000100522
27 *193:81 *868:25 5.62433e-06
28 *193:81 *868:50 0.000141387
29 *199:10 *868:25 0.00023718
30 *199:10 *868:50 0.000108283
31 *200:10 *868:25 0.000249186
32 *200:26 *868:25 9.66498e-05
33 *603:31 *868:8 0.000384805
34 *603:31 *868:17 0.000127272
35 *603:31 *868:50 0.000233039
36 *714:34 *868:50 0.000122397
*RES
1 *3929:Q *868:8 43.075 
2 *868:8 *4037:A 38 
3 *868:8 *868:17 1.90571 
4 *868:17 *868:25 39.6114 
5 *868:25 *3285:D 38.6214 
6 *868:17 *868:50 28.2157 
7 *868:50 *3262:B1 23 
*END

*D_NET *869 0.00965596
*CONN
*I *3238:B1 I *D sky130_fd_sc_hd__a31oi_2
*I *3235:C I *D sky130_fd_sc_hd__and3b_2
*I *3285:C I *D sky130_fd_sc_hd__and4_4
*I *3482:A_N I *D sky130_fd_sc_hd__and4bb_2
*I *3552:A_N I *D sky130_fd_sc_hd__and4b_2
*I *3743:A_N I *D sky130_fd_sc_hd__and4bb_2
*I *3674:A_N I *D sky130_fd_sc_hd__and4bb_2
*I *3605:A I *D sky130_fd_sc_hd__nor4b_4
*I *3930:Q O *D sky130_fd_sc_hd__dfrtp_2
*CAP
1 *3238:B1 0
2 *3235:C 0.000273721
3 *3285:C 0
4 *3482:A_N 0
5 *3552:A_N 0.000149848
6 *3743:A_N 2.79296e-05
7 *3674:A_N 0
8 *3605:A 0.000227433
9 *3930:Q 0
10 *869:101 0.000452392
11 *869:71 0.000657527
12 *869:40 0.000335284
13 *869:31 0.00039367
14 *869:20 0.000928152
15 *869:14 0.00101562
16 *869:4 0.00138726
17 *3251:A *869:71 4.67488e-05
18 *3252:A1 *869:101 0
19 *3252:B1 *869:71 0.00021039
20 *3285:D *869:71 5.50106e-05
21 *3483:C_N *869:20 5.3304e-05
22 *173:10 *869:14 0.000513017
23 *184:18 *869:101 9.2115e-05
24 *184:40 *3235:C 8.42228e-05
25 *184:40 *869:71 5.6241e-05
26 *185:12 *869:101 6.48142e-05
27 *185:21 *869:101 2.64616e-05
28 *193:81 *869:14 2.02872e-05
29 *199:10 *869:14 0.000308946
30 *199:10 *869:101 0.00021677
31 *218:39 *869:101 0.000194299
32 *373:10 *869:14 0.00017165
33 *403:8 *869:14 9.84851e-05
34 *403:8 *869:20 2.55283e-05
35 *404:14 *3605:A 8.57661e-05
36 *507:12 *869:31 1.05658e-05
37 *507:12 *869:40 4.77164e-06
38 *544:12 *3552:A_N 4.82774e-05
39 *544:12 *869:40 6.15346e-05
40 *562:302 *3552:A_N 1.05658e-05
41 *600:58 *869:40 0
42 *600:73 *3552:A_N 0
43 *603:31 *869:101 2.24048e-05
44 *637:14 *3235:C 8.73404e-05
45 *637:20 *869:71 3.35885e-05
46 *637:22 *869:71 2.29192e-05
47 *643:16 *3235:C 0.000139052
48 *700:119 *3605:A 0.000227497
49 *700:119 *3743:A_N 5.50049e-05
50 *700:119 *869:31 0.000414748
51 *700:119 *869:40 0.000151607
52 *701:10 *3552:A_N 0
53 *701:12 *869:31 0
54 *701:12 *869:40 0
55 *701:16 *3605:A 0
56 *701:16 *869:31 0
57 *701:84 *3552:A_N 0
58 *703:30 *869:20 3.18322e-05
59 *707:25 *869:71 4.6318e-06
60 *868:25 *869:101 9.58714e-05
61 *868:50 *869:101 6.08617e-05
*RES
1 *3930:Q *869:4 23 
2 *869:4 *869:14 42.3664 
3 *869:14 *869:20 22.3121 
4 *869:20 *3605:A 43.4271 
5 *869:20 *869:31 5.77929 
6 *869:31 *3674:A_N 38 
7 *869:31 *869:40 2.96214 
8 *869:40 *3743:A_N 38.6214 
9 *869:40 *3552:A_N 40.9621 
10 *869:14 *3482:A_N 23 
11 *869:4 *869:71 35.9657 
12 *869:71 *3285:C 23 
13 *869:71 *3235:C 28.9709 
14 *869:4 *869:101 38.1614 
15 *869:101 *3238:B1 23 
*END

*D_NET *870 0.000616286
*CONN
*I *4035:A I *D sky130_fd_sc_hd__clkdlybuf4s25_1
*I *3931:Q O *D sky130_fd_sc_hd__dfrtp_2
*CAP
1 *4035:A 0
2 *3931:Q 0.000209997
3 *870:8 0.000209997
4 *187:8 *870:8 5.56306e-05
5 *187:14 *870:8 0.000140661
6 *191:16 *870:8 0
7 *204:10 *870:8 0
*RES
1 *3931:Q *870:8 43.075 
2 *870:8 *4035:A 38 
*END

*D_NET *871 0.000375934
*CONN
*I *4032:A I *D sky130_fd_sc_hd__clkdlybuf4s25_1
*I *3932:Q O *D sky130_fd_sc_hd__dfrtp_2
*CAP
1 *4032:A 0
2 *3932:Q 0.00014083
3 *871:10 0.00014083
4 *3932:RESET_B *871:10 5.5792e-05
5 *191:16 *871:10 3.84822e-05
*RES
1 *3932:Q *871:10 40.5271 
2 *871:10 *4032:A 38 
*END

*D_NET *872 0.00325048
*CONN
*I *3938:D I *D sky130_fd_sc_hd__dfstp_2
*I *3409:X O *D sky130_fd_sc_hd__o211a_2
*CAP
1 *3938:D 0.000325323
2 *3409:X 0.000837965
3 *872:10 0.00116329
4 *872:10 *3913:D 0.000178517
5 *3409:A2 *872:10 0
6 *3409:B1 *872:10 3.7122e-06
7 *3409:C1 *872:10 0
8 *3913:RESET_B *872:10 5.84961e-05
9 *3938:CLK *3938:D 5.58003e-05
10 *3938:SET_B *3938:D 2.64616e-05
11 *327:18 *872:10 3.21556e-05
12 *564:8 *3938:D 0.000267937
13 *564:10 *3938:D 3.67392e-05
14 *564:71 *3938:D 7.48331e-05
15 *730:31 *3938:D 0.000189256
*RES
1 *3409:X *872:10 49.1236 
2 *872:10 *3938:D 46.0786 
*END

*D_NET *873 0.00298178
*CONN
*I *3406:B I *D sky130_fd_sc_hd__xnor2_2
*I *3934:D I *D sky130_fd_sc_hd__dfrtp_2
*I *3255:X O *D sky130_fd_sc_hd__xor2_2
*CAP
1 *3406:B 0.000378967
2 *3934:D 9.29338e-05
3 *3255:X 0.000512113
4 *873:8 0.000984014
5 *3406:B *889:10 6.70098e-05
6 *873:8 *874:12 0
7 *873:8 *889:10 3.19287e-05
8 *3904:RESET_B *3406:B 2.8818e-05
9 *3934:RESET_B *3934:D 0.000198447
10 *3934:RESET_B *873:8 5.52801e-05
11 *174:10 *873:8 0
12 *175:22 *873:8 0
13 *565:80 *873:8 6.53342e-05
14 *729:12 *873:8 0.000277705
15 *729:46 *873:8 0.000153528
16 *729:54 *873:8 0.0001357
*RES
1 *3255:X *873:8 49.4136 
2 *873:8 *3934:D 40.61 
3 *873:8 *3406:B 45.2914 
*END

*D_NET *874 0.00638785
*CONN
*I *3407:A2 I *D sky130_fd_sc_hd__a21oi_2
*I *3408:A2 I *D sky130_fd_sc_hd__o211a_2
*I *3935:D I *D sky130_fd_sc_hd__dfrtp_2
*I *3259:X O *D sky130_fd_sc_hd__buf_2
*CAP
1 *3407:A2 0.000205038
2 *3408:A2 0.000173532
3 *3935:D 0
4 *3259:X 0.000323969
5 *874:21 0.0014952
6 *874:12 0.000604276
7 *874:6 0.00204488
8 *874:12 *899:14 0
9 *874:21 *875:8 0.00079323
10 *3225:A *874:6 0.00011451
11 *3231:A2 *874:12 5.90783e-05
12 *3260:A *874:21 1.59094e-05
13 *3260:B *874:6 3.7122e-06
14 *3260:B *874:21 0.000104048
15 *3408:A1 *3407:A2 6.22372e-05
16 *3408:A1 *3408:A2 0.000121699
17 *3914:D *874:12 3.56433e-05
18 *3934:RESET_B *874:12 0
19 *174:10 *874:12 2.22079e-05
20 *175:22 *874:21 5.03619e-05
21 *333:10 *3407:A2 0
22 *335:10 *3407:A2 0
23 *336:10 *3407:A2 1.83564e-05
24 *337:10 *3408:A2 1.13812e-05
25 *338:10 *3407:A2 1.59094e-05
26 *338:10 *3408:A2 1.35333e-05
27 *339:10 *3407:A2 0
28 *339:10 *3408:A2 0
29 *642:24 *3407:A2 9.91386e-05
30 *873:8 *874:12 0
*RES
1 *3259:X *874:6 27.4329 
2 *874:6 *874:12 41.7657 
3 *874:12 *3935:D 23 
4 *874:6 *874:21 31.3436 
5 *874:21 *3408:A2 42.0186 
6 *874:21 *3407:A2 42.3086 
*END

*D_NET *875 0.00380273
*CONN
*I *3403:A I *D sky130_fd_sc_hd__and2_2
*I *3402:B I *D sky130_fd_sc_hd__nor2_2
*I *3936:D I *D sky130_fd_sc_hd__dfrtp_2
*I *3260:X O *D sky130_fd_sc_hd__xor2_2
*CAP
1 *3403:A 0.000122255
2 *3402:B 0
3 *3936:D 0.000196802
4 *3260:X 0.000525878
5 *875:23 0.000122255
6 *875:10 0.000307719
7 *875:8 0.000636796
8 *3402:A *3403:A 0.00024212
9 *333:10 *3403:A 5.58003e-05
10 *333:10 *875:10 0.000222521
11 *334:10 *3403:A 1.88391e-05
12 *335:10 *3403:A 9.66585e-05
13 *339:10 *875:10 0.000222521
14 *563:6 *875:8 9.41704e-05
15 *566:18 *3936:D 0.000145163
16 *874:21 *875:8 0.00079323
*RES
1 *3260:X *875:8 49.5793 
2 *875:8 *875:10 3.66643 
3 *875:10 *3936:D 41.8321 
4 *875:10 *875:23 15 
5 *875:23 *3402:B 23 
6 *875:23 *3403:A 27.1429 
*END

*D_NET *876 0.00126554
*CONN
*I *3404:B I *D sky130_fd_sc_hd__xnor2_2
*I *3937:D I *D sky130_fd_sc_hd__dfrtp_2
*I *3261:X O *D sky130_fd_sc_hd__xor2_2
*CAP
1 *3404:B 7.98789e-05
2 *3937:D 0.000307821
3 *3261:X 0
4 *876:6 0.0003877
5 *3937:D *897:10 4.54619e-05
6 *3261:B *3404:B 0.000170807
7 *3261:B *3937:D 3.90213e-05
8 *374:16 *3937:D 7.44257e-05
9 *730:37 *3937:D 0
10 *738:14 *3937:D 0.000160424
*RES
1 *3261:X *876:6 38 
2 *876:6 *3937:D 45.3536 
3 *876:6 *3404:B 40.2579 
*END

*D_NET *877 0.00174217
*CONN
*I *3903:D I *D sky130_fd_sc_hd__dfrtp_2
*I *3901:Q O *D sky130_fd_sc_hd__dfrtp_2
*CAP
1 *3903:D 0.000465613
2 *3901:Q 0.000161472
3 *877:8 0.000627085
4 *3903:D *4042:A 0.000132594
5 *3888:SET_B *877:8 0
6 *3903:CLK *3903:D 0.000101039
7 *4116:A *3903:D 0.000141095
8 *617:10 *877:8 0.000113268
9 *680:8 *877:8 0
*RES
1 *3901:Q *877:8 41.3143 
2 *877:8 *3903:D 44.8357 
*END

*D_NET *878 0.00462222
*CONN
*I *4042:A I *D sky130_fd_sc_hd__clkdlybuf4s25_1
*I *4054:A I *D sky130_fd_sc_hd__dlygate4sd3_1
*I *3903:Q O *D sky130_fd_sc_hd__dfrtp_2
*CAP
1 *4042:A 0.00100733
2 *4054:A 0
3 *3903:Q 0
4 *878:14 0.000876148
5 *878:4 0.00188348
6 *3393:A1 *878:14 1.62015e-05
7 *3401:A1 *878:14 0
8 *3401:A2 *878:14 0.000326973
9 *3891:RESET_B *4042:A 2.13733e-05
10 *3891:RESET_B *878:14 8.30457e-05
11 *3903:CLK *4042:A 2.93863e-05
12 *3903:D *4042:A 0.000132594
13 *3903:RESET_B *4042:A 4.99842e-05
14 *4116:A *4042:A 9.89901e-05
15 *304:44 *878:14 4.3407e-05
16 *315:8 *878:14 5.3304e-05
*RES
1 *3903:Q *878:4 23 
2 *878:4 *878:14 47.2757 
3 *878:14 *4054:A 23 
4 *878:4 *4042:A 38.3286 
*END

*D_NET *879 0.00151513
*CONN
*I *3919:D I *D sky130_fd_sc_hd__dfrtp_2
*I *3914:Q O *D sky130_fd_sc_hd__dfrtp_2
*CAP
1 *3919:D 7.29515e-05
2 *3914:Q 0.000584025
3 *879:10 0.000656976
4 *879:10 *899:14 5.19151e-05
5 *3919:CLK *3919:D 7.88926e-05
6 *632:25 *879:10 0
7 *714:70 *879:10 0
8 *714:77 *879:10 0
9 *726:23 *879:10 0
10 *737:10 *879:10 7.03663e-05
*RES
1 *3914:Q *879:10 48.295 
2 *879:10 *3919:D 39.5743 
*END

*D_NET *880 0.00240667
*CONN
*I *3920:D I *D sky130_fd_sc_hd__dfrtp_2
*I *3915:Q O *D sky130_fd_sc_hd__dfrtp_2
*CAP
1 *3920:D 0.000322476
2 *3915:Q 0.000330916
3 *880:8 0.000653392
4 *3920:D *910:16 0.000534075
5 *603:61 *3920:D 1.16636e-05
6 *606:8 *880:8 9.84851e-05
7 *606:10 *3920:D 0
8 *714:52 *3920:D 0.000141877
9 *714:66 *3920:D 0.000113508
10 *714:70 *3920:D 0.000142183
11 *714:77 *3920:D 5.80963e-05
*RES
1 *3915:Q *880:8 42.4329 
2 *880:8 *3920:D 47.2852 
*END

*D_NET *881 0.000766108
*CONN
*I *3921:D I *D sky130_fd_sc_hd__dfrtp_2
*I *3916:Q O *D sky130_fd_sc_hd__dfrtp_2
*CAP
1 *3921:D 0
2 *3916:Q 0.000251014
3 *881:10 0.000251014
4 *3916:RESET_B *881:10 0.000101536
5 *716:68 *881:10 2.35118e-06
6 *739:18 *881:10 0.000160191
*RES
1 *3916:Q *881:10 43.4686 
2 *881:10 *3921:D 38 
*END

*D_NET *882 0.000776302
*CONN
*I *3922:D I *D sky130_fd_sc_hd__dfrtp_2
*I *3917:Q O *D sky130_fd_sc_hd__dfrtp_2
*CAP
1 *3922:D 0
2 *3917:Q 0.000277094
3 *882:10 0.000277094
4 *677:8 *882:10 0.000222113
*RES
1 *3917:Q *882:10 43.3443 
2 *882:10 *3922:D 38 
*END

*D_NET *883 0.00107014
*CONN
*I *3923:D I *D sky130_fd_sc_hd__dfrtp_2
*I *3918:Q O *D sky130_fd_sc_hd__dfrtp_2
*CAP
1 *3923:D 0
2 *3918:Q 0.000396706
3 *883:10 0.000396706
4 *3918:RESET_B *883:10 6.17437e-06
5 *3922:RESET_B *883:10 0
6 *3923:CLK *883:10 7.23925e-05
7 *716:17 *883:10 0
8 *717:59 *883:10 0.000169674
9 *718:21 *883:10 2.84912e-05
*RES
1 *3918:Q *883:10 46.3064 
2 *883:10 *3923:D 38 
*END

*D_NET *884 0.00781045
*CONN
*I *3411:A I *D sky130_fd_sc_hd__xor2_2
*I *3293:A I *D sky130_fd_sc_hd__inv_2
*I *3289:C I *D sky130_fd_sc_hd__nand3_2
*I *3317:B1 I *D sky130_fd_sc_hd__o211ai_2
*I *3919:Q O *D sky130_fd_sc_hd__dfrtp_2
*CAP
1 *3411:A 0.000140542
2 *3293:A 0.000245841
3 *3289:C 0
4 *3317:B1 0
5 *3919:Q 0.00025648
6 *884:30 0.000508297
7 *884:16 0.000656897
8 *884:14 0.0011704
9 *884:8 0.00117298
10 *884:14 *885:10 0.000350829
11 *884:14 *885:12 0.000218696
12 *884:16 *885:12 7.53901e-05
13 *3294:B1 *884:30 5.63438e-05
14 *3316:C *884:30 0.000238552
15 *182:10 *884:14 0.000163888
16 *202:54 *3411:A 0.000364774
17 *214:10 *884:16 7.9636e-05
18 *214:12 *884:16 0.000192032
19 *214:12 *884:30 6.12484e-05
20 *218:39 *884:30 0.000165384
21 *221:6 *884:30 0.000213296
22 *225:30 *884:30 4.95571e-05
23 *227:10 *884:30 5.58003e-05
24 *603:61 *884:14 0
25 *676:10 *884:14 0.000765041
26 *676:10 *884:16 0.000417591
27 *676:10 *884:30 6.12484e-05
28 *708:39 *884:14 0.000129707
*RES
1 *3919:Q *884:8 42.7229 
2 *884:8 *884:14 21.1079 
3 *884:14 *884:16 5.77929 
4 *884:16 *884:30 40.0879 
5 *884:30 *3317:B1 38 
6 *884:16 *3289:C 38 
7 *884:14 *3293:A 41.9564 
8 *884:8 *3411:A 41.9564 
*END

*D_NET *885 0.00815466
*CONN
*I *3283:A I *D sky130_fd_sc_hd__inv_2
*I *3288:C I *D sky130_fd_sc_hd__nand3_2
*I *3286:A3 I *D sky130_fd_sc_hd__a311oi_1
*I *3307:A3 I *D sky130_fd_sc_hd__a311o_2
*I *3292:B I *D sky130_fd_sc_hd__nand3_4
*I *3920:Q O *D sky130_fd_sc_hd__dfrtp_2
*CAP
1 *3283:A 0
2 *3288:C 4.37454e-05
3 *3286:A3 4.26123e-05
4 *3307:A3 0.000487479
5 *3292:B 0
6 *3920:Q 3.24351e-05
7 *885:29 0.0007089
8 *885:18 0.000316761
9 *885:12 0.000557787
10 *885:10 0.00100185
11 *885:8 0.000658197
12 *3241:A1 *885:10 0
13 *3244:A1 *885:10 0
14 *3286:A1 *3286:A3 9.84794e-05
15 *3307:A1 *3307:A3 9.47879e-05
16 *183:10 *885:10 0.000646983
17 *190:10 *885:10 3.84404e-05
18 *213:19 *885:12 1.223e-05
19 *213:19 *885:18 6.53611e-05
20 *213:21 *3307:A3 2.46345e-05
21 *213:21 *885:29 0.000438045
22 *213:23 *3307:A3 0.000305442
23 *213:50 *3307:A3 5.48515e-07
24 *214:10 *885:12 8.88793e-05
25 *214:12 *885:12 0.00018065
26 *214:12 *885:18 0.00024816
27 *214:14 *3307:A3 2.11827e-05
28 *214:14 *885:18 1.0092e-05
29 *214:14 *885:29 0.000136962
30 *214:24 *3307:A3 7.95703e-05
31 *216:10 *885:10 3.55887e-05
32 *216:10 *885:12 0.000328394
33 *216:16 *885:12 6.58399e-05
34 *216:20 *3307:A3 7.21177e-06
35 *216:72 *885:10 5.7203e-05
36 *219:8 *3307:A3 0
37 *221:6 *3288:C 0.000186041
38 *224:8 *3288:C 0.000186041
39 *562:308 *885:8 2.95526e-05
40 *596:30 *3307:A3 5.79413e-06
41 *596:40 *3307:A3 2.26497e-05
42 *676:31 *3307:A3 0.00024521
43 *884:14 *885:10 0.000350829
44 *884:14 *885:12 0.000218696
45 *884:16 *885:12 7.53901e-05
*RES
1 *3920:Q *885:8 38.6214 
2 *885:8 *885:10 16.6957 
3 *885:10 *885:12 11.4136 
4 *885:12 *885:18 18.9357 
5 *885:18 *3292:B 23 
6 *885:18 *885:29 21.4007 
7 *885:29 *3307:A3 47.6114 
8 *885:29 *3286:A3 39.0979 
9 *885:12 *3288:C 40.0507 
10 *885:10 *3283:A 38 
*END

*D_NET *886 0.00912647
*CONN
*I *3410:A I *D sky130_fd_sc_hd__xor2_2
*I *3273:A I *D sky130_fd_sc_hd__inv_2
*I *3272:C I *D sky130_fd_sc_hd__nand3_2
*I *3280:B1 I *D sky130_fd_sc_hd__o21ai_4
*I *3921:Q O *D sky130_fd_sc_hd__dfrtp_2
*CAP
1 *3410:A 0
2 *3273:A 0.000328984
3 *3272:C 6.18653e-05
4 *3280:B1 0
5 *3921:Q 0.000196467
6 *886:30 0.000495952
7 *886:22 0.000978688
8 *886:16 0.00144137
9 *886:10 0.00103459
10 *886:8 0.000539544
11 *3273:A *3279:A 6.55954e-05
12 *3273:A *887:33 9.79925e-05
13 *886:10 *3410:B 0
14 *886:10 *3926:D 0
15 *886:10 *900:12 6.67555e-05
16 *886:16 *3275:B_N 1.51481e-05
17 *886:16 *3410:B 0
18 *886:16 *887:10 0.000759779
19 *886:16 *887:12 1.22803e-05
20 *886:16 *887:14 3.31359e-05
21 *886:16 *887:16 8.0554e-05
22 *886:22 *3275:B_N 6.35028e-05
23 *3272:B *3272:C 1.12796e-05
24 *3272:B *886:22 1.61385e-05
25 *3288:A *3272:C 5.5792e-05
26 *3288:A *886:30 0.00048871
27 *3291:A2 *3272:C 1.35999e-05
28 *3414:A *886:16 0.000585268
29 *3414:A *886:22 8.78864e-05
30 *3917:CLK *886:10 7.10083e-05
31 *191:39 *886:16 0.000193388
32 *202:10 *886:30 3.53794e-05
33 *206:8 *3273:A 5.5769e-05
34 *211:6 *3272:C 7.50355e-05
35 *211:6 *886:22 7.64059e-06
36 *212:23 *886:30 0.000165538
37 *233:16 *886:22 0.000539694
38 *235:8 *886:22 0.000110267
39 *604:8 *886:10 0.000131878
40 *604:8 *886:16 4.42688e-05
41 *607:30 *886:8 0.000143665
42 *730:37 *886:10 2.20542e-05
*RES
1 *3921:Q *886:8 42.4329 
2 *886:8 *886:10 8.24429 
3 *886:10 *886:16 18.8707 
4 *886:16 *886:22 24.425 
5 *886:22 *886:30 39.6529 
6 *886:30 *3280:B1 23 
7 *886:22 *3272:C 25.4236 
8 *886:16 *3273:A 42.8057 
9 *886:10 *3410:A 38 
*END

*D_NET *887 0.00837389
*CONN
*I *3271:B I *D sky130_fd_sc_hd__nand2_2
*I *3270:B I *D sky130_fd_sc_hd__or2_4
*I *3274:A I *D sky130_fd_sc_hd__or2b_2
*I *3279:B I *D sky130_fd_sc_hd__and2_4
*I *3278:B I *D sky130_fd_sc_hd__nor2_2
*I *3275:B_N I *D sky130_fd_sc_hd__or2b_2
*I *3922:Q O *D sky130_fd_sc_hd__dfrtp_2
*CAP
1 *3271:B 0.000190692
2 *3270:B 0.000201017
3 *3274:A 0.000440278
4 *3279:B 0
5 *3278:B 0
6 *3275:B_N 0.000358638
7 *3922:Q 0.000257905
8 *887:41 0.000252274
9 *887:33 0.000335214
10 *887:16 0.000554489
11 *887:14 0.000604667
12 *887:12 0.000328706
13 *887:10 0.000585133
14 *887:8 0.000576135
15 *3270:B *3270:A 3.06803e-05
16 *3270:B *3332:A 3.7122e-06
17 *3271:B *3271:A 0.000252445
18 *3271:B *3330:A 1.14154e-05
19 *3271:B *888:8 6.70361e-05
20 *3274:A *3274:B_N 2.95748e-05
21 *3274:A *3332:A 7.17698e-05
22 *3274:A *888:51 0.00014064
23 *3275:B_N *3275:A 3.3287e-05
24 *3275:B_N *3278:A 0.000141355
25 *887:33 *3279:A 9.79925e-05
26 *3272:B *887:41 4.13477e-05
27 *3273:A *887:33 9.79925e-05
28 *3414:C *887:10 0.000111158
29 *3414:C *887:12 3.82956e-05
30 *3918:CLK *887:10 0.000141888
31 *191:16 *3271:B 0.000143655
32 *191:39 *887:12 0.000128583
33 *191:39 *887:14 6.48049e-05
34 *204:12 *887:41 3.50862e-06
35 *206:8 *887:33 1.41129e-05
36 *206:8 *887:41 0.000272915
37 *212:6 *887:41 5.58003e-05
38 *233:29 *3275:B_N 0.000141344
39 *263:12 *3275:B_N 7.19778e-05
40 *263:12 *887:12 4.08641e-05
41 *263:12 *887:14 6.96786e-05
42 *263:12 *887:16 8.27077e-05
43 *343:14 *887:10 3.21223e-05
44 *604:8 *887:10 0.00021065
45 *716:40 *887:8 5.50106e-05
46 *730:37 *887:10 2.60152e-05
47 *886:16 *3275:B_N 1.51481e-05
48 *886:16 *887:10 0.000759779
49 *886:16 *887:12 1.22803e-05
50 *886:16 *887:14 3.31359e-05
51 *886:16 *887:16 8.0554e-05
52 *886:22 *3275:B_N 6.35028e-05
*RES
1 *3922:Q *887:8 41.0036 
2 *887:8 *887:10 10.3571 
3 *887:10 *887:12 2.25786 
4 *887:12 *887:14 1.90571 
5 *887:14 *887:16 2.61 
6 *887:16 *3275:B_N 45.6436 
7 *887:16 *887:33 17.0714 
8 *887:33 *887:41 35.6136 
9 *887:41 *3278:B 23 
10 *887:33 *3279:B 23 
11 *887:14 *3274:A 43.8621 
12 *887:12 *3270:B 40.5479 
13 *887:10 *3271:B 43.075 
*END

*D_NET *888 0.00666499
*CONN
*I *3270:A I *D sky130_fd_sc_hd__or2_4
*I *3274:B_N I *D sky130_fd_sc_hd__or2b_2
*I *3279:A I *D sky130_fd_sc_hd__and2_4
*I *3278:A I *D sky130_fd_sc_hd__nor2_2
*I *3332:A I *D sky130_fd_sc_hd__xor2_2
*I *3275:A I *D sky130_fd_sc_hd__or2b_2
*I *3330:A I *D sky130_fd_sc_hd__xnor2_2
*I *3271:A I *D sky130_fd_sc_hd__nand2_2
*I *3923:Q O *D sky130_fd_sc_hd__dfrtp_2
*CAP
1 *3270:A 0.000138768
2 *3274:B_N 5.21946e-05
3 *3279:A 7.78804e-05
4 *3278:A 0.000381153
5 *3332:A 0.000225402
6 *3275:A 0.000497848
7 *3330:A 2.0995e-05
8 *3271:A 0.000192993
9 *3923:Q 0
10 *888:62 0.00057595
11 *888:51 0.00035591
12 *888:47 0.000204554
13 *888:34 0.00074208
14 *888:8 0.00049382
15 *888:4 0.000524065
16 *3270:B *3270:A 3.06803e-05
17 *3270:B *3332:A 3.7122e-06
18 *3271:B *3271:A 0.000252445
19 *3271:B *3330:A 1.14154e-05
20 *3271:B *888:8 6.70361e-05
21 *3273:A *3279:A 6.55954e-05
22 *3274:A *3274:B_N 2.95748e-05
23 *3274:A *3332:A 7.17698e-05
24 *3274:A *888:51 0.00014064
25 *3275:B_N *3275:A 3.3287e-05
26 *3275:B_N *3278:A 0.000141355
27 *3302:B *3278:A 5.3304e-05
28 *191:16 *3271:A 4.95081e-05
29 *206:8 *3279:A 0.000224414
30 *233:16 *3278:A 0.000117057
31 *233:29 *3278:A 2.50118e-05
32 *234:8 *3270:A 5.45541e-05
33 *263:8 *888:8 9.84851e-05
34 *263:12 *3278:A 0.000163102
35 *263:12 *888:34 0
36 *263:12 *888:62 0.000202029
37 *265:10 *3275:A 0.000138331
38 *265:10 *3278:A 4.21494e-05
39 *265:10 *888:34 1.43577e-05
40 *265:10 *888:62 5.35695e-05
41 *716:10 *888:34 0
42 *887:33 *3279:A 9.79925e-05
*RES
1 *3923:Q *888:4 23 
2 *888:4 *888:8 4.93 
3 *888:8 *3271:A 27.4536 
4 *888:8 *3330:A 23.4971 
5 *888:4 *888:34 18.77 
6 *888:34 *3275:A 46.41 
7 *888:34 *888:47 15 
8 *888:47 *888:51 3.50071 
9 *888:51 *3332:A 24.5743 
10 *888:51 *888:62 17.9621 
11 *888:62 *3278:A 45.6643 
12 *888:62 *3279:A 40.5271 
13 *888:47 *3274:B_N 24.0979 
14 *3332:A *3270:A 49.045 
*END

*D_NET *889 0.000640399
*CONN
*I *3909:D I *D sky130_fd_sc_hd__dfrtp_2
*I *3904:Q O *D sky130_fd_sc_hd__dfrtp_2
*CAP
1 *3909:D 0
2 *3904:Q 0.000231249
3 *889:10 0.000231249
4 *3406:B *889:10 6.70098e-05
5 *3904:RESET_B *889:10 7.89616e-05
6 *873:8 *889:10 3.19287e-05
*RES
1 *3904:Q *889:10 42.0807 
2 *889:10 *3909:D 38 
*END

*D_NET *890 0.0033778
*CONN
*I *3910:D I *D sky130_fd_sc_hd__dfrtp_2
*I *3905:Q O *D sky130_fd_sc_hd__dfrtp_2
*CAP
1 *3910:D 0
2 *3905:Q 0
3 *890:14 0.00108116
4 *890:6 0.00108116
5 *890:14 *891:8 0
6 *890:14 *895:8 5.26733e-06
7 *3906:RESET_B *890:14 3.70094e-05
8 *3910:RESET_B *890:14 3.54728e-05
9 *3913:RESET_B *890:14 3.7122e-06
10 *642:8 *890:14 0
11 *661:8 *890:14 0
12 *710:14 *890:14 0.000704567
13 *710:16 *890:14 0.000429444
*RES
1 *3905:Q *890:6 38 
2 *890:6 *890:14 36.9779 
3 *890:14 *3910:D 23 
*END

*D_NET *891 0.0011643
*CONN
*I *3911:D I *D sky130_fd_sc_hd__dfrtp_2
*I *3906:Q O *D sky130_fd_sc_hd__dfrtp_2
*CAP
1 *3911:D 0
2 *3906:Q 0.000510749
3 *891:8 0.000510749
4 rd_data[3] *891:8 4.08376e-06
5 *3906:RESET_B *891:8 0
6 *661:8 *891:8 0.000138718
7 *890:14 *891:8 0
*RES
1 *3906:Q *891:8 48.005 
2 *891:8 *3911:D 38 
*END

*D_NET *892 0.000295317
*CONN
*I *3912:D I *D sky130_fd_sc_hd__dfrtp_2
*I *3907:Q O *D sky130_fd_sc_hd__dfrtp_2
*CAP
1 *3912:D 0
2 *3907:Q 8.71301e-05
3 *892:8 8.71301e-05
4 *3907:RESET_B *892:8 8.62783e-05
5 *3936:RESET_B *892:8 3.47781e-05
6 *738:14 *892:8 0
*RES
1 *3907:Q *892:8 39.5536 
2 *892:8 *3912:D 38 
*END

*D_NET *893 0.00226848
*CONN
*I *3913:D I *D sky130_fd_sc_hd__dfrtp_2
*I *3908:Q O *D sky130_fd_sc_hd__dfrtp_2
*CAP
1 *3913:D 8.76645e-05
2 *3908:Q 0.000460582
3 *893:10 0.000548246
4 *3912:CLK *893:10 5.76359e-05
5 *327:18 *3913:D 3.99649e-05
6 *335:10 *893:10 0.000375614
7 *566:18 *893:10 0.000520254
8 *872:10 *3913:D 0.000178517
*RES
1 *3908:Q *893:10 49.1029 
2 *893:10 *3913:D 40.0507 
*END

*D_NET *894 0.00376892
*CONN
*I *3339:B I *D sky130_fd_sc_hd__and2_2
*I *3340:B I *D sky130_fd_sc_hd__nor2_2
*I *3406:A I *D sky130_fd_sc_hd__xnor2_2
*I *3909:Q O *D sky130_fd_sc_hd__dfrtp_2
*CAP
1 *3339:B 2.44337e-05
2 *3340:B 0.00020135
3 *3406:A 0.00016705
4 *3909:Q 5.56355e-05
5 *894:25 0.0011183
6 *894:8 0.0011152
7 *3339:B *3340:A 5.47983e-06
8 *3340:B *3340:A 8.78093e-05
9 *894:25 *3340:A 2.812e-05
10 *894:25 *895:24 6.17437e-06
11 *3226:A2 *3340:B 0
12 *176:12 *3340:B 3.47032e-05
13 *178:27 *894:25 0.000166992
14 *180:20 *894:25 0.000584657
15 *563:10 *894:25 6.9819e-05
16 *563:14 *3406:A 6.47651e-05
17 *563:14 *894:25 3.84421e-05
*RES
1 *3909:Q *894:8 38.6214 
2 *894:8 *3406:A 41.0036 
3 *894:8 *894:25 33.1457 
4 *894:25 *3340:B 27.1429 
5 *894:25 *3339:B 23.8493 
*END

*D_NET *895 0.008666
*CONN
*I *3356:A I *D sky130_fd_sc_hd__nor2_2
*I *3357:A I *D sky130_fd_sc_hd__and2_2
*I *3353:A I *D sky130_fd_sc_hd__or2_2
*I *3354:A I *D sky130_fd_sc_hd__nand2_2
*I *3405:A I *D sky130_fd_sc_hd__inv_2
*I *3340:A I *D sky130_fd_sc_hd__nor2_2
*I *3339:A I *D sky130_fd_sc_hd__and2_2
*I *3910:Q O *D sky130_fd_sc_hd__dfrtp_2
*CAP
1 *3356:A 0.00011372
2 *3357:A 0.000313144
3 *3353:A 0
4 *3354:A 0
5 *3405:A 0
6 *3340:A 0.000108541
7 *3339:A 0
8 *3910:Q 0.000331569
9 *895:48 0.00053067
10 *895:24 0.000266317
11 *895:22 0.00099471
12 *895:20 0.000483573
13 *895:16 0.00127104
14 *895:10 0.00178383
15 *895:8 0.00082224
16 *3357:A *896:33 0
17 *895:10 *896:33 0
18 *895:16 *3343:A_N 3.3577e-05
19 *895:16 *3346:A 0.00014196
20 *895:16 *3346:B 4.38084e-05
21 *3339:B *3340:A 5.47983e-06
22 *3340:B *3340:A 8.78093e-05
23 *3354:B *895:20 0.000139346
24 *3356:B *3356:A 6.25845e-05
25 *176:12 *3340:A 0.000276557
26 *176:12 *895:22 2.93845e-05
27 *176:12 *895:24 0.000145272
28 *181:19 *895:48 0
29 *275:10 *895:16 2.11807e-05
30 *561:13 *895:48 0
31 *642:8 *895:10 0
32 *709:47 *895:16 4.95081e-05
33 *709:47 *895:20 4.2573e-05
34 *709:58 *895:16 9.90162e-05
35 *712:10 *895:10 0.000347408
36 *712:24 *895:48 8.16279e-05
37 *713:27 *3357:A 0
38 *713:27 *895:10 0
39 *730:10 *895:10 0
40 *890:14 *895:8 5.26733e-06
41 *894:25 *3340:A 2.812e-05
42 *894:25 *895:24 6.17437e-06
*RES
1 *3910:Q *895:8 41.9564 
2 *895:8 *895:10 9.65286 
3 *895:10 *895:16 30.4114 
4 *895:16 *895:20 3.50071 
5 *895:20 *895:22 5.38571 
6 *895:22 *895:24 3.00357 
7 *895:24 *3339:A 23 
8 *895:24 *3340:A 26.9979 
9 *895:22 *895:48 39.8186 
10 *895:48 *3405:A 23 
11 *895:20 *3354:A 23 
12 *895:16 *3353:A 23 
13 *895:10 *3357:A 42.0186 
14 *3357:A *3356:A 48.5479 
*END

*D_NET *896 0.00608884
*CONN
*I *3357:B I *D sky130_fd_sc_hd__and2_2
*I *4038:A I *D sky130_fd_sc_hd__clkdlybuf4s25_1
*I *3911:Q O *D sky130_fd_sc_hd__dfrtp_2
*CAP
1 *3357:B 0
2 *4038:A 0.000629275
3 *3911:Q 0.000463786
4 *896:33 0.000873672
5 *896:10 0.00196673
6 *896:33 *898:10 0
7 *896:33 *898:25 0
8 *896:33 *898:47 0
9 empty *896:10 0
10 *3356:B *896:33 0.0002778
11 *3357:A *896:33 0
12 *3910:RESET_B *896:33 0
13 *3911:CLK *896:10 7.48608e-05
14 *3937:RESET_B *896:10 0.000298325
15 *3943:RESET_B *896:33 0.000191157
16 *3947:A *4038:A 5.40521e-05
17 *4039:A *4038:A 5.3304e-05
18 *15:24 *896:33 1.34164e-05
19 *278:8 *896:33 7.44458e-05
20 *710:14 *896:10 0
21 *710:14 *896:33 0
22 *711:12 *896:33 0.000192087
23 *711:14 *896:10 3.47781e-05
24 *711:14 *896:33 0.000209739
25 *711:16 *896:10 0.000274206
26 *712:10 *896:33 0
27 *735:24 *896:33 0.000407199
28 *895:10 *896:33 0
*RES
1 *3911:Q *896:10 47.4664 
2 *896:10 *4038:A 49.1339 
3 *896:10 *896:33 35.0514 
4 *896:33 *3357:B 23 
*END

*D_NET *897 0.00490701
*CONN
*I *3345:B I *D sky130_fd_sc_hd__or2_4
*I *3342:B I *D sky130_fd_sc_hd__nand2b_2
*I *3346:B I *D sky130_fd_sc_hd__nand2_2
*I *3343:A_N I *D sky130_fd_sc_hd__nand2b_2
*I *3404:A I *D sky130_fd_sc_hd__xnor2_2
*I *3912:Q O *D sky130_fd_sc_hd__dfrtp_2
*CAP
1 *3345:B 0.000138027
2 *3342:B 2.96041e-05
3 *3346:B 0.000109711
4 *3343:A_N 7.50359e-05
5 *3404:A 0
6 *3912:Q 0.00034714
7 *897:43 0.000254189
8 *897:21 0.000184747
9 *897:19 0.000766101
10 *897:10 0.00102668
11 *3343:A_N *3346:A 0
12 *3345:B *3342:A_N 5.5792e-05
13 *3345:B *3345:A 6.52271e-05
14 *3346:B *3346:A 4.67066e-05
15 *897:19 *898:10 0.000152973
16 *897:19 *898:25 4.98543e-05
17 *897:19 *898:47 7.75329e-06
18 *897:43 *898:47 6.14406e-05
19 *3261:B *897:10 9.70579e-05
20 *3261:B *897:19 0.000409832
21 *3912:RESET_B *897:10 3.66903e-05
22 *3937:D *897:10 4.54619e-05
23 *180:42 *897:19 0.000242235
24 *180:42 *897:43 9.04403e-05
25 *274:8 *3342:B 5.5792e-05
26 *274:8 *3345:B 1.24376e-05
27 *275:10 *3343:A_N 2.93845e-05
28 *730:31 *897:10 6.25038e-05
29 *730:31 *897:19 0.000352591
30 *730:37 *897:10 2.42155e-05
31 *895:16 *3343:A_N 3.3577e-05
32 *895:16 *3346:B 4.38084e-05
*RES
1 *3912:Q *897:10 45.25 
2 *897:10 *3404:A 38 
3 *897:10 *897:19 17.4 
4 *897:19 *897:21 15 
5 *897:21 *3343:A_N 24.595 
6 *897:21 *3346:B 25.5479 
7 *897:19 *897:43 17.61 
8 *897:43 *3342:B 23.6214 
9 *897:43 *3345:B 26.0243 
*END

*D_NET *898 0.0038121
*CONN
*I *3345:A I *D sky130_fd_sc_hd__or2_4
*I *3342:A_N I *D sky130_fd_sc_hd__nand2b_2
*I *3343:B I *D sky130_fd_sc_hd__nand2b_2
*I *3346:A I *D sky130_fd_sc_hd__nand2_2
*I *3395:A I *D sky130_fd_sc_hd__xor2_2
*I *3913:Q O *D sky130_fd_sc_hd__dfrtp_2
*CAP
1 *3345:A 8.52196e-05
2 *3342:A_N 2.45576e-05
3 *3343:B 0
4 *3346:A 7.59706e-05
5 *3395:A 0.000338697
6 *3913:Q 0.00040207
7 *898:47 0.000289728
8 *898:27 7.59706e-05
9 *898:25 0.000326396
10 *898:10 0.000887212
11 *3343:A_N *3346:A 0
12 *3345:B *3342:A_N 5.5792e-05
13 *3345:B *3345:A 6.52271e-05
14 *3346:B *3346:A 4.67066e-05
15 *3356:B *3345:A 0.00014525
16 *3395:B *3395:A 0.000183727
17 *3913:RESET_B *898:10 5.50106e-05
18 *3943:CLK *898:10 4.48628e-05
19 *15:24 *898:10 5.95389e-05
20 *15:30 *3395:A 3.91562e-05
21 *274:8 *3345:A 1.1258e-05
22 *278:8 *898:47 0
23 *730:31 *898:10 7.81176e-05
24 *735:8 *898:10 0.000107651
25 *735:24 *898:10 0
26 *895:16 *3346:A 0.00014196
27 *896:33 *898:10 0
28 *896:33 *898:25 0
29 *896:33 *898:47 0
30 *897:19 *898:10 0.000152973
31 *897:19 *898:25 4.98543e-05
32 *897:19 *898:47 7.75329e-06
33 *897:43 *898:47 6.14406e-05
*RES
1 *3913:Q *898:10 46.8657 
2 *898:10 *3395:A 44.8564 
3 *898:10 *898:25 2.25786 
4 *898:25 *898:27 15 
5 *898:27 *3346:A 25.5686 
6 *898:27 *3343:B 23 
7 *898:25 *898:47 18.3143 
8 *898:47 *3342:A_N 23.6214 
9 *898:47 *3345:A 26.19 
*END

*D_NET *899 0.00298724
*CONN
*I *3904:D I *D sky130_fd_sc_hd__dfrtp_2
*I *3924:Q O *D sky130_fd_sc_hd__dfrtp_2
*CAP
1 *3904:D 0
2 *3924:Q 0.000200792
3 *899:14 0.000787104
4 *899:8 0.000987897
5 *3914:D *899:14 0
6 *3914:RESET_B *899:14 0
7 *3935:RESET_B *899:14 0.000138708
8 *681:22 *899:14 0.000147314
9 *702:66 *899:8 0.000105861
10 *714:77 *899:14 0
11 *726:23 *899:14 0
12 *737:10 *899:14 0.00056765
13 *874:12 *899:14 0
14 *879:10 *899:14 5.19151e-05
*RES
1 *3924:Q *899:8 41.0036 
2 *899:8 *899:14 33.5186 
3 *899:14 *3904:D 23 
*END

*D_NET *900 0.00250568
*CONN
*I *3905:D I *D sky130_fd_sc_hd__dfrtp_2
*I *3925:Q O *D sky130_fd_sc_hd__dfrtp_2
*CAP
1 *3905:D 0
2 *3925:Q 5.67095e-05
3 *900:12 0.000563299
4 *900:8 0.000620008
5 *900:12 *3926:D 0
6 *3917:CLK *900:8 1.59094e-05
7 *730:37 *900:12 0.001183
8 *738:14 *900:12 0
9 *886:10 *900:12 6.67555e-05
*RES
1 *3925:Q *900:8 38.6214 
2 *900:8 *900:12 30.6393 
3 *900:12 *3905:D 23 
*END

*D_NET *901 0.000896105
*CONN
*I *3906:D I *D sky130_fd_sc_hd__dfrtp_2
*I *3926:Q O *D sky130_fd_sc_hd__dfrtp_2
*CAP
1 *3906:D 0.000114036
2 *3926:Q 0.00017053
3 *901:8 0.000284566
4 *739:18 *901:8 0.000326973
*RES
1 *3926:Q *901:8 42.3707 
2 *901:8 *3906:D 39.5743 
*END

*D_NET *902 0.000907262
*CONN
*I *3907:D I *D sky130_fd_sc_hd__dfrtp_2
*I *3927:Q O *D sky130_fd_sc_hd__dfrtp_2
*CAP
1 *3907:D 0.000114006
2 *3927:Q 0.000214714
3 *902:8 0.00032872
4 *902:8 *903:36 0.000203929
5 *902:8 *909:14 4.58924e-05
*RES
1 *3927:Q *902:8 43.4271 
2 *902:8 *3907:D 39.5743 
*END

*D_NET *903 0.00431084
*CONN
*I *3908:D I *D sky130_fd_sc_hd__dfrtp_2
*I *3247:A I *D sky130_fd_sc_hd__xor2_2
*I *3267:B I *D sky130_fd_sc_hd__and3_2
*I *3933:Q O *D sky130_fd_sc_hd__dfrtp_2
*CAP
1 *3908:D 0
2 *3247:A 0
3 *3267:B 0.00037093
4 *3933:Q 0.000328351
5 *903:36 0.00074774
6 *903:21 0.000870962
7 *903:8 0.000822503
8 *903:8 *908:8 3.7122e-06
9 *903:21 *909:14 0
10 *903:36 *909:14 0
11 *3267:A *3267:B 2.79653e-05
12 *3267:C *3267:B 8.91468e-07
13 *3912:CLK *903:36 6.51763e-05
14 *3933:RESET_B *3267:B 0
15 *3933:RESET_B *903:8 3.08719e-06
16 *3933:RESET_B *903:21 0
17 *188:43 *3267:B 0.000174219
18 *188:43 *903:21 0.000103948
19 *188:58 *903:21 3.92407e-05
20 *188:58 *903:36 0.000371129
21 *563:30 *903:36 6.20495e-05
22 *563:36 *903:36 0
23 *702:14 *3267:B 8.85496e-05
24 *702:66 *903:8 2.64616e-05
25 *902:8 *903:36 0.000203929
*RES
1 *3933:Q *903:8 43.3857 
2 *903:8 *3267:B 45.5814 
3 *903:8 *903:21 3.31429 
4 *903:21 *3247:A 38 
5 *903:21 *903:36 29.8107 
6 *903:36 *3908:D 23 
*END

*D_NET *904 0.000847149
*CONN
*I *3928:D I *D sky130_fd_sc_hd__dfrtp_2
*I *3415:X O *D sky130_fd_sc_hd__buf_6
*CAP
1 *3928:D 0
2 *3415:X 8.64722e-05
3 *904:6 8.64722e-05
4 *3415:A *904:6 0.000100069
5 *604:25 *904:6 3.98818e-05
6 *604:36 *904:6 8.05298e-05
7 *643:45 *904:6 0.000453724
*RES
1 *3415:X *904:6 27.9093 
2 *904:6 *3928:D 23 
*END

*D_NET *905 0.00460885
*CONN
*I *3929:D I *D sky130_fd_sc_hd__dfrtp_2
*I *3322:A1 I *D sky130_fd_sc_hd__o21ai_2
*I *3254:Y O *D sky130_fd_sc_hd__inv_2
*CAP
1 *3929:D 0
2 *3322:A1 0.000185706
3 *3254:Y 0.000328813
4 *905:25 0.000595542
5 *905:8 0.00111006
6 *3320:A1_N *905:25 0
7 *249:8 *905:25 0
8 *253:14 *3322:A1 0.000270269
9 *253:14 *905:25 0.000207437
10 *257:8 *905:25 0
11 *568:29 *905:8 2.20111e-05
12 *632:25 *3322:A1 0.000471344
13 *632:25 *905:25 0.00141766
*RES
1 *3254:Y *905:8 41.9564 
2 *905:8 *3322:A1 45.25 
3 *905:8 *905:25 33.8086 
4 *905:25 *3929:D 23 
*END

*D_NET *906 0.00333212
*CONN
*I *3930:D I *D sky130_fd_sc_hd__dfrtp_2
*I *3263:B2 I *D sky130_fd_sc_hd__a22o_2
*I *3319:B1 I *D sky130_fd_sc_hd__o211a_2
*I *3239:Y O *D sky130_fd_sc_hd__a21oi_4
*CAP
1 *3930:D 0.000221964
2 *3263:B2 0.000226307
3 *3319:B1 0.000424361
4 *3239:Y 9.63283e-05
5 *906:10 0.000741541
6 *906:8 0.000409165
7 *3930:CLK *3930:D 5.25658e-05
8 *3931:CLK *3930:D 4.3407e-05
9 *4034:A *3263:B2 0.000220037
10 *185:31 *3930:D 0.000140259
11 *224:14 *3319:B1 1.13812e-05
12 *225:57 *3319:B1 5.75756e-06
13 *228:10 *3319:B1 3.21898e-05
14 *603:10 *3930:D 4.02103e-05
15 *603:31 *3319:B1 0
16 *603:31 *3930:D 2.45549e-06
17 *643:16 *3930:D 8.94487e-05
18 *676:10 *3319:B1 0.000216356
19 *676:10 *906:10 6.7177e-06
20 *708:24 *3263:B2 5.50049e-05
21 *708:24 *3930:D 2.96154e-05
22 *708:24 *906:10 3.83778e-05
23 *708:39 *3930:D 8.67156e-05
24 *714:34 *3930:D 0
25 *714:34 *906:8 0.000141954
26 *868:8 *3319:B1 0
27 *868:17 *3319:B1 0
28 *868:17 *906:10 0
29 *868:50 *3930:D 0
*RES
1 *3239:Y *906:8 39.5743 
2 *906:8 *906:10 1.55357 
3 *906:10 *3319:B1 47.3007 
4 *906:10 *3263:B2 42.93 
5 *906:8 *3930:D 43.945 
*END

*D_NET *907 0.00835154
*CONN
*I *3931:D I *D sky130_fd_sc_hd__dfrtp_2
*I *3282:B1 I *D sky130_fd_sc_hd__a21oi_2
*I *3312:A I *D sky130_fd_sc_hd__and3_2
*I *3305:B1 I *D sky130_fd_sc_hd__a21oi_2
*I *3304:A I *D sky130_fd_sc_hd__and3_4
*I *3242:Y O *D sky130_fd_sc_hd__a21oi_4
*CAP
1 *3931:D 0.000126435
2 *3282:B1 3.99271e-05
3 *3312:A 0.000105434
4 *3305:B1 0.000186618
5 *3304:A 0.000288994
6 *3242:Y 0.000188315
7 *907:14 0.000617547
8 *907:12 0.000348754
9 *907:10 0.00142829
10 *907:8 0.00160173
11 *3284:A *3304:A 4.9561e-05
12 *3284:C *3304:A 1.83327e-05
13 *3304:C *3304:A 1.83408e-05
14 *3305:A1 *3305:B1 5.56279e-05
15 *3305:A2 *3305:B1 0.000144501
16 *4034:A *907:8 2.18286e-05
17 *205:40 *3305:B1 0.00014196
18 *205:68 *3304:A 8.50366e-05
19 *209:12 *907:10 0.000234818
20 *209:14 *907:10 0.000432588
21 *209:16 *3304:A 3.64337e-05
22 *209:16 *907:10 0.000657532
23 *209:16 *907:12 0.000154843
24 *209:16 *907:14 0.000233968
25 *209:20 *3304:A 0.000137594
26 *209:35 *3304:A 0.000213615
27 *214:37 *3282:B1 0.000233367
28 *216:10 *907:10 0
29 *216:20 *3304:A 1.26005e-05
30 *216:72 *3931:D 0
31 *230:8 *3312:A 6.23499e-05
32 *596:40 *3282:B1 0.000233367
33 *673:8 *3312:A 6.17437e-06
34 *706:14 *907:8 0.00023506
*RES
1 *3242:Y *907:8 41.0036 
2 *907:8 *907:10 26.5557 
3 *907:10 *907:12 2.25786 
4 *907:12 *907:14 3.31429 
5 *907:14 *3304:A 44.1729 
6 *907:14 *3305:B1 42.4329 
7 *907:12 *3312:A 40.0507 
8 *907:10 *3282:B1 40.5271 
9 *907:8 *3931:D 39.5536 
*END

*D_NET *908 0.0019638
*CONN
*I *3268:A1 I *D sky130_fd_sc_hd__o21ba_2
*I *3932:D I *D sky130_fd_sc_hd__dfrtp_2
*I *3246:X O *D sky130_fd_sc_hd__buf_1
*CAP
1 *3268:A1 0.000440164
2 *3932:D 0.000330844
3 *3246:X 8.8094e-05
4 *908:8 0.000859102
5 *3268:A1 *913:10 3.95507e-05
6 *3932:CLK *3932:D 6.17437e-06
7 *190:10 *3932:D 0
8 *573:10 *3268:A1 0
9 *573:10 *3932:D 0
10 *702:66 *3932:D 0.000189157
11 *702:66 *908:8 6.9989e-06
12 *903:8 *908:8 3.7122e-06
*RES
1 *3246:X *908:8 39.0979 
2 *908:8 *3932:D 43.945 
3 *908:8 *3268:A1 45.8921 
*END

*D_NET *909 0.00229487
*CONN
*I *3933:D I *D sky130_fd_sc_hd__dfrtp_2
*I *3268:A2 I *D sky130_fd_sc_hd__o21ba_2
*I *3248:Y O *D sky130_fd_sc_hd__inv_2
*CAP
1 *3933:D 0
2 *3268:A2 0
3 *3248:Y 0.000133344
4 *909:14 0.000646051
5 *909:6 0.000779394
6 *3933:CLK *909:6 5.70419e-05
7 *3933:RESET_B *909:14 1.01436e-05
8 *188:58 *909:14 0.00036118
9 *191:10 *909:14 0
10 *201:12 *909:14 5.56279e-05
11 *374:6 *909:14 0.00020619
12 *902:8 *909:14 4.58924e-05
13 *903:21 *909:14 0
14 *903:36 *909:14 0
*RES
1 *3248:Y *909:6 25.5271 
2 *909:6 *909:14 44.7071 
3 *909:14 *3268:A2 23 
4 *909:6 *3933:D 23 
*END

*D_NET *910 0.00190851
*CONN
*I *3924:D I *D sky130_fd_sc_hd__dfrtp_2
*I *3411:B I *D sky130_fd_sc_hd__xor2_2
*I *3264:X O *D sky130_fd_sc_hd__buf_6
*CAP
1 *3924:D 0
2 *3411:B 0.000564012
3 *3264:X 8.74525e-05
4 *910:16 0.00047656
5 *3920:D *910:16 0.000534075
6 *202:54 *3411:B 9.67751e-05
7 *606:10 *910:16 0
8 *606:14 *910:16 0
9 *702:66 *910:16 7.88926e-05
10 *714:52 *910:16 7.07396e-05
*RES
1 *3264:X *3411:B 24.9782 
2 *3411:B *910:16 40.875 
3 *910:16 *3924:D 23 
*END

*D_NET *911 0.00271981
*CONN
*I *3925:D I *D sky130_fd_sc_hd__dfrtp_2
*I *3413:B I *D sky130_fd_sc_hd__xor2_2
*I *3265:Y O *D sky130_fd_sc_hd__xnor2_2
*CAP
1 *3925:D 0.000394552
2 *3413:B 8.36774e-05
3 *3265:Y 0.000154162
4 *911:8 0.000632391
5 *3925:D *3410:B 0
6 *3925:D *3926:D 0
7 *4043:A *911:8 5.3304e-05
8 *191:16 *3413:B 0.000218952
9 *191:16 *3925:D 5.36701e-05
10 *342:8 *3925:D 6.53553e-05
11 *643:6 *911:8 0.000398497
12 *717:10 *3413:B 0.000111138
13 *717:10 *3925:D 1.58805e-05
14 *717:29 *3925:D 0.00053823
*RES
1 *3265:Y *911:8 42.4329 
2 *911:8 *3413:B 17.9621 
3 *911:8 *3925:D 47.0107 
*END

*D_NET *912 0.00216528
*CONN
*I *3926:D I *D sky130_fd_sc_hd__dfrtp_2
*I *3410:B I *D sky130_fd_sc_hd__xor2_2
*I *3266:Y O *D sky130_fd_sc_hd__xnor2_2
*CAP
1 *3926:D 0.000451214
2 *3410:B 0.000210239
3 *3266:Y 0.000267072
4 *912:8 0.000928526
5 *3925:D *3410:B 0
6 *3925:D *3926:D 0
7 *3987:A *912:8 5.67058e-05
8 *607:30 *3926:D 0
9 *637:6 *912:8 0.000251524
10 *886:10 *3410:B 0
11 *886:10 *3926:D 0
12 *886:16 *3410:B 0
13 *900:12 *3926:D 0
*RES
1 *3266:Y *912:8 43.8621 
2 *912:8 *3410:B 18.8632 
3 *912:8 *3926:D 45.8921 
*END

*D_NET *913 0.0012509
*CONN
*I *3927:D I *D sky130_fd_sc_hd__dfrtp_2
*I *3268:X O *D sky130_fd_sc_hd__o21ba_2
*CAP
1 *3927:D 0
2 *3268:X 0.000424992
3 *913:10 0.000424992
4 *3268:A1 *913:10 3.95507e-05
5 *188:58 *913:10 0.000361367
*RES
1 *3268:X *913:10 44.2143 
2 *913:10 *3927:D 38 
*END

*D_NET *914 0.00177757
*CONN
*I *3900:D I *D sky130_fd_sc_hd__dfrtp_2
*I *3898:Q O *D sky130_fd_sc_hd__dfrtp_2
*CAP
1 *3900:D 0.000402145
2 *3898:Q 0.000116909
3 *914:8 0.000519053
4 *3900:RESET_B *3900:D 2.55762e-05
5 *3900:RESET_B *914:8 0.000329146
6 *718:42 *914:8 0.000384737
*RES
1 *3898:Q *914:8 43.075 
2 *914:8 *3900:D 45.2914 
*END

*D_NET *915 0.00123216
*CONN
*I *4046:A I *D sky130_fd_sc_hd__clkdlybuf4s25_1
*I *3900:Q O *D sky130_fd_sc_hd__dfrtp_2
*CAP
1 *4046:A 0
2 *3900:Q 0.000367293
3 *915:10 0.000367293
4 *8:10 *915:10 0
5 *641:8 *915:10 0.000169674
6 *718:42 *915:10 0.000327903
*RES
1 *3900:Q *915:10 46.5136 
2 *915:10 *4046:A 38 
*END
