*SPEF "ieee 1481-1999"
*DESIGN "async_fifo"
*DATE "15:49:27 Friday August 28, 2026"
*VENDOR "The OpenROAD Project"
*PROGRAM "OpenROAD"
*VERSION "dcf36133a369abc8f3c5e5738cd4d82e4903c0e0"
*DESIGN_FLOW "NAME_SCOPE LOCAL" "PIN_CAP NONE"
*DIVIDER /
*DELIMITER :
*BUS_DELIMITER []
*T_UNIT 1 NS
*C_UNIT 1 PF
*R_UNIT 1 OHM
*L_UNIT 1 HENRY

*NAME_MAP
*3 aempty
*4 aempty_thresh[0]
*5 aempty_thresh[1]
*6 aempty_thresh[2]
*7 aempty_thresh[3]
*8 afull
*9 afull_thresh[0]
*10 afull_thresh[1]
*11 afull_thresh[2]
*12 afull_thresh[3]
*13 empty
*14 full
*15 rd_clk
*16 rd_data[0]
*17 rd_data[1]
*18 rd_data[2]
*19 rd_data[3]
*20 rd_data[4]
*21 rd_data[5]
*22 rd_data[6]
*23 rd_data[7]
*24 rd_en
*25 rd_rst_n
*26 wr_clk
*27 wr_data[0]
*28 wr_data[1]
*29 wr_data[2]
*30 wr_data[3]
*31 wr_data[4]
*32 wr_data[5]
*33 wr_data[6]
*34 wr_data[7]
*35 wr_en
*36 wr_rst_n
*37 _0000_
*38 _0001_
*39 _0002_
*40 _0003_
*41 _0004_
*42 _0005_
*43 _0006_
*44 _0007_
*45 _0008_
*46 _0009_
*47 _0010_
*48 _0011_
*49 _0012_
*50 _0013_
*51 _0014_
*52 _0015_
*53 _0016_
*54 _0017_
*55 _0018_
*56 _0019_
*57 _0020_
*58 _0021_
*59 _0022_
*60 _0023_
*61 _0024_
*62 _0025_
*63 _0026_
*64 _0027_
*65 _0028_
*66 _0029_
*67 _0030_
*68 _0031_
*69 _0032_
*70 _0033_
*71 _0034_
*72 _0035_
*73 _0036_
*74 _0037_
*75 _0038_
*76 _0039_
*77 _0040_
*78 _0041_
*79 _0042_
*80 _0043_
*81 _0044_
*82 _0045_
*83 _0046_
*84 _0047_
*85 _0048_
*86 _0049_
*87 _0050_
*88 _0051_
*89 _0052_
*90 _0053_
*91 _0054_
*92 _0055_
*93 _0056_
*94 _0057_
*95 _0058_
*96 _0059_
*97 _0060_
*98 _0061_
*99 _0062_
*100 _0063_
*101 _0064_
*102 _0065_
*103 _0066_
*104 _0067_
*105 _0068_
*106 _0069_
*107 _0070_
*108 _0071_
*109 _0072_
*110 _0073_
*111 _0074_
*112 _0075_
*113 _0076_
*114 _0077_
*115 _0078_
*116 _0079_
*117 _0080_
*118 _0081_
*119 _0082_
*120 _0083_
*121 _0084_
*122 _0085_
*123 _0086_
*124 _0087_
*125 _0088_
*126 _0089_
*127 _0090_
*128 _0091_
*129 _0092_
*130 _0093_
*131 _0094_
*132 _0095_
*133 _0096_
*134 _0097_
*135 _0098_
*136 _0099_
*137 _0100_
*138 _0101_
*139 _0102_
*140 _0103_
*141 _0104_
*142 _0105_
*143 _0106_
*144 _0107_
*145 _0108_
*146 _0109_
*147 _0110_
*148 _0111_
*149 _0112_
*150 _0113_
*151 _0114_
*152 _0115_
*153 _0116_
*154 _0117_
*155 _0118_
*156 _0119_
*157 _0120_
*158 _0121_
*159 _0122_
*160 _0123_
*161 _0124_
*162 _0125_
*163 _0126_
*164 _0127_
*165 _0128_
*166 _0129_
*167 _0130_
*168 _0131_
*169 _0132_
*170 _0133_
*171 _0134_
*172 _0135_
*173 _0136_
*174 _0137_
*175 _0138_
*176 _0139_
*177 _0140_
*178 _0141_
*179 _0142_
*180 _0143_
*181 _0144_
*182 _0145_
*183 _0146_
*184 _0147_
*185 _0148_
*186 _0149_
*187 _0150_
*188 _0151_
*189 _0152_
*190 _0153_
*191 _0154_
*192 _0155_
*193 _0156_
*194 _0157_
*195 _0158_
*196 _0159_
*197 _0160_
*198 _0161_
*199 _0162_
*200 _0163_
*201 _0164_
*202 _0165_
*203 _0166_
*204 _0167_
*205 _0168_
*206 _0169_
*207 _0170_
*208 _0171_
*209 _0172_
*210 _0173_
*211 _0174_
*212 _0175_
*213 _0176_
*214 _0177_
*215 _0178_
*216 _0179_
*217 _0180_
*218 _0181_
*219 _0182_
*220 _0183_
*221 _0184_
*222 _0185_
*223 _0186_
*224 _0187_
*225 _0188_
*226 _0189_
*227 _0190_
*228 _0191_
*229 _0192_
*230 _0193_
*231 _0194_
*232 _0195_
*233 _0196_
*234 _0197_
*235 _0198_
*236 _0199_
*237 _0200_
*238 _0201_
*239 _0202_
*240 _0203_
*241 _0204_
*242 _0205_
*243 _0206_
*244 _0207_
*245 _0208_
*246 _0209_
*247 _0210_
*248 _0211_
*249 _0212_
*250 _0213_
*251 _0214_
*252 _0215_
*253 _0216_
*254 _0217_
*255 _0218_
*256 _0219_
*257 _0220_
*258 _0221_
*259 _0222_
*260 _0223_
*261 _0224_
*262 _0225_
*263 _0226_
*264 _0227_
*265 _0228_
*266 _0229_
*267 _0230_
*268 _0231_
*269 _0232_
*270 _0233_
*271 _0234_
*272 _0235_
*273 _0236_
*274 _0237_
*275 _0238_
*276 _0239_
*277 _0240_
*278 _0241_
*279 _0242_
*280 _0243_
*281 _0244_
*282 _0245_
*283 _0246_
*284 _0247_
*285 _0248_
*286 _0249_
*287 _0250_
*288 _0251_
*289 _0252_
*290 _0253_
*291 _0254_
*292 _0255_
*293 _0256_
*294 _0257_
*295 _0258_
*296 _0259_
*297 _0260_
*298 _0261_
*299 _0262_
*300 _0263_
*301 _0264_
*302 _0265_
*303 _0266_
*304 _0267_
*305 _0268_
*306 _0269_
*307 _0270_
*308 _0271_
*309 _0272_
*310 _0273_
*311 _0274_
*312 _0275_
*313 _0276_
*314 _0277_
*315 _0278_
*316 _0279_
*317 _0280_
*318 _0281_
*319 _0282_
*320 _0283_
*321 _0284_
*322 _0285_
*323 _0286_
*324 _0287_
*325 _0288_
*326 _0289_
*327 _0290_
*328 _0291_
*329 _0292_
*330 _0293_
*331 _0294_
*332 _0295_
*333 _0296_
*334 _0297_
*335 _0298_
*336 _0299_
*337 _0300_
*338 _0301_
*339 _0302_
*340 _0303_
*341 _0304_
*342 _0305_
*343 _0306_
*344 _0307_
*345 _0308_
*346 _0309_
*347 _0310_
*348 _0311_
*349 _0312_
*350 _0313_
*351 _0314_
*352 _0315_
*353 _0316_
*354 _0317_
*355 _0318_
*356 _0319_
*357 _0320_
*358 _0321_
*359 _0322_
*360 _0323_
*361 _0324_
*362 _0325_
*363 _0326_
*364 _0327_
*365 _0328_
*366 _0329_
*367 _0330_
*368 _0331_
*369 _0332_
*370 _0333_
*371 _0334_
*372 _0335_
*373 _0336_
*374 _0337_
*375 _0338_
*376 _0339_
*377 _0340_
*378 _0341_
*379 _0342_
*380 _0343_
*381 _0344_
*382 _0345_
*383 _0346_
*384 _0347_
*385 _0348_
*386 _0349_
*387 _0350_
*388 _0351_
*389 _0352_
*390 _0353_
*391 _0354_
*392 _0355_
*393 _0356_
*394 _0357_
*395 _0358_
*396 _0359_
*397 _0360_
*398 _0361_
*399 _0362_
*400 _0363_
*401 _0364_
*402 _0365_
*403 _0366_
*404 _0367_
*405 _0368_
*406 _0369_
*407 _0370_
*408 _0371_
*409 _0372_
*410 _0373_
*411 _0374_
*412 _0375_
*413 _0376_
*414 _0377_
*415 _0378_
*416 _0379_
*417 _0380_
*418 _0381_
*419 _0382_
*420 _0383_
*421 _0384_
*422 _0385_
*423 _0386_
*424 _0387_
*425 _0388_
*426 _0389_
*427 _0390_
*428 _0391_
*429 _0392_
*430 _0393_
*431 _0394_
*432 _0395_
*433 _0396_
*434 _0397_
*435 _0398_
*436 _0399_
*437 _0400_
*438 _0401_
*439 _0402_
*440 _0403_
*441 _0404_
*442 _0405_
*443 _0406_
*444 _0407_
*445 _0408_
*446 _0409_
*447 _0410_
*448 _0411_
*449 _0412_
*450 _0413_
*451 _0414_
*452 _0415_
*453 _0416_
*454 _0417_
*455 _0418_
*456 _0419_
*457 _0420_
*458 _0421_
*459 _0422_
*460 _0423_
*461 _0424_
*462 _0425_
*463 _0426_
*464 _0427_
*465 _0428_
*466 _0429_
*467 _0430_
*468 _0431_
*469 _0432_
*470 _0433_
*471 _0434_
*472 _0435_
*473 _0436_
*474 _0437_
*475 _0438_
*476 _0439_
*477 _0440_
*478 _0441_
*479 _0442_
*480 _0443_
*481 _0444_
*482 _0445_
*483 _0446_
*484 _0447_
*485 _0448_
*486 _0449_
*487 _0450_
*488 _0451_
*489 _0452_
*490 _0453_
*491 _0454_
*492 _0455_
*493 _0456_
*494 _0457_
*495 _0458_
*496 _0459_
*497 _0460_
*498 _0461_
*499 _0462_
*500 _0463_
*501 _0464_
*502 _0465_
*503 _0466_
*504 _0467_
*505 _0468_
*506 _0469_
*507 _0470_
*508 _0471_
*509 _0472_
*510 _0473_
*511 _0474_
*512 _0475_
*513 _0476_
*514 _0477_
*515 _0478_
*516 _0479_
*517 _0480_
*518 _0481_
*519 _0482_
*520 _0483_
*521 _0484_
*522 _0485_
*523 _0486_
*524 _0487_
*525 _0488_
*526 _0489_
*527 _0490_
*528 _0491_
*529 _0492_
*530 _0493_
*531 _0494_
*532 _0495_
*533 _0496_
*534 _0497_
*535 _0498_
*536 _0499_
*537 _0500_
*538 _0501_
*539 _0502_
*540 _0503_
*541 _0504_
*542 _0505_
*543 _0506_
*544 _0507_
*545 _0508_
*546 _0509_
*547 _0510_
*548 _0511_
*549 _0512_
*550 _0513_
*551 _0514_
*552 _0515_
*553 aempty_thresh_latched\[0\]
*554 aempty_thresh_latched\[1\]
*555 aempty_thresh_latched\[2\]
*556 aempty_thresh_latched\[3\]
*557 afull_thresh_latched\[0\]
*558 afull_thresh_latched\[1\]
*559 afull_thresh_latched\[2\]
*560 afull_thresh_latched\[3\]
*561 clknet_0_rd_clk
*562 clknet_0_wr_clk
*563 clknet_2_0__leaf_rd_clk
*564 clknet_2_1__leaf_rd_clk
*565 clknet_2_2__leaf_rd_clk
*566 clknet_2_3__leaf_rd_clk
*567 clknet_4_0_0_wr_clk
*568 clknet_4_10_0_wr_clk
*569 clknet_4_11_0_wr_clk
*570 clknet_4_12_0_wr_clk
*571 clknet_4_13_0_wr_clk
*572 clknet_4_14_0_wr_clk
*573 clknet_4_15_0_wr_clk
*574 clknet_4_1_0_wr_clk
*575 clknet_4_2_0_wr_clk
*576 clknet_4_3_0_wr_clk
*577 clknet_4_4_0_wr_clk
*578 clknet_4_5_0_wr_clk
*579 clknet_4_6_0_wr_clk
*580 clknet_4_7_0_wr_clk
*581 clknet_4_8_0_wr_clk
*582 clknet_4_9_0_wr_clk
*583 clknet_5_0__leaf_wr_clk
*584 clknet_5_10__leaf_wr_clk
*585 clknet_5_11__leaf_wr_clk
*586 clknet_5_12__leaf_wr_clk
*587 clknet_5_13__leaf_wr_clk
*588 clknet_5_14__leaf_wr_clk
*589 clknet_5_15__leaf_wr_clk
*590 clknet_5_16__leaf_wr_clk
*591 clknet_5_17__leaf_wr_clk
*592 clknet_5_18__leaf_wr_clk
*593 clknet_5_19__leaf_wr_clk
*594 clknet_5_1__leaf_wr_clk
*595 clknet_5_20__leaf_wr_clk
*596 clknet_5_21__leaf_wr_clk
*597 clknet_5_22__leaf_wr_clk
*598 clknet_5_23__leaf_wr_clk
*599 clknet_5_24__leaf_wr_clk
*600 clknet_5_25__leaf_wr_clk
*601 clknet_5_26__leaf_wr_clk
*602 clknet_5_27__leaf_wr_clk
*603 clknet_5_28__leaf_wr_clk
*604 clknet_5_29__leaf_wr_clk
*605 clknet_5_2__leaf_wr_clk
*606 clknet_5_30__leaf_wr_clk
*607 clknet_5_31__leaf_wr_clk
*608 clknet_5_3__leaf_wr_clk
*609 clknet_5_4__leaf_wr_clk
*610 clknet_5_5__leaf_wr_clk
*611 clknet_5_6__leaf_wr_clk
*612 clknet_5_7__leaf_wr_clk
*613 clknet_5_8__leaf_wr_clk
*614 clknet_5_9__leaf_wr_clk
*615 net
*616 net1
*617 net10
*618 net100
*619 net101
*620 net102
*621 net103
*622 net104
*623 net105
*624 net106
*625 net107
*626 net108
*627 net109
*628 net11
*629 net110
*630 net12
*631 net13
*632 net14
*633 net15
*634 net16
*635 net17
*636 net18
*637 net19
*638 net2
*639 net20
*640 net21
*641 net22
*642 net23
*643 net24
*644 net25
*645 net26
*646 net27
*647 net28
*648 net29
*649 net3
*650 net30
*651 net31
*652 net32
*653 net33
*654 net34
*655 net35
*656 net36
*657 net37
*658 net38
*659 net39
*660 net4
*661 net40
*662 net41
*663 net42
*664 net43
*665 net44
*666 net45
*667 net46
*668 net47
*669 net48
*670 net49
*671 net5
*672 net50
*673 net51
*674 net52
*675 net53
*676 net54
*677 net55
*678 net56
*679 net57
*680 net58
*681 net59
*682 net6
*683 net60
*684 net61
*685 net62
*686 net63
*687 net64
*688 net65
*689 net66
*690 net67
*691 net68
*692 net69
*693 net7
*694 net70
*695 net71
*696 net72
*697 net73
*698 net74
*699 net75
*700 net76
*701 net77
*702 net78
*703 net79
*704 net8
*705 net80
*706 net81
*707 net82
*708 net83
*709 net84
*710 net85
*711 net86
*712 net87
*713 net88
*714 net89
*715 net9
*716 net90
*717 net91
*718 net92
*719 net93
*720 net94
*721 net95
*722 net96
*723 net97
*724 net98
*725 net99
*726 rd_ptr_bin\[0\]
*727 rd_ptr_bin\[1\]
*728 rd_ptr_bin\[2\]
*729 rd_ptr_bin\[3\]
*730 rd_ptr_bin\[4\]
*731 rd_ptr_bin_next_wm\[0\]
*732 rd_ptr_bin_next_wm\[1\]
*733 rd_ptr_bin_next_wm\[2\]
*734 rd_ptr_bin_next_wm\[3\]
*735 rd_ptr_bin_next_wm\[4\]
*736 rd_ptr_gray\[0\]
*737 rd_ptr_gray\[1\]
*738 rd_ptr_gray\[2\]
*739 rd_ptr_gray\[3\]
*740 u_fifomem\.mem\[0\]\[0\]
*741 u_fifomem\.mem\[0\]\[1\]
*742 u_fifomem\.mem\[0\]\[2\]
*743 u_fifomem\.mem\[0\]\[3\]
*744 u_fifomem\.mem\[0\]\[4\]
*745 u_fifomem\.mem\[0\]\[5\]
*746 u_fifomem\.mem\[0\]\[6\]
*747 u_fifomem\.mem\[0\]\[7\]
*748 u_fifomem\.mem\[10\]\[0\]
*749 u_fifomem\.mem\[10\]\[1\]
*750 u_fifomem\.mem\[10\]\[2\]
*751 u_fifomem\.mem\[10\]\[3\]
*752 u_fifomem\.mem\[10\]\[4\]
*753 u_fifomem\.mem\[10\]\[5\]
*754 u_fifomem\.mem\[10\]\[6\]
*755 u_fifomem\.mem\[10\]\[7\]
*756 u_fifomem\.mem\[11\]\[0\]
*757 u_fifomem\.mem\[11\]\[1\]
*758 u_fifomem\.mem\[11\]\[2\]
*759 u_fifomem\.mem\[11\]\[3\]
*760 u_fifomem\.mem\[11\]\[4\]
*761 u_fifomem\.mem\[11\]\[5\]
*762 u_fifomem\.mem\[11\]\[6\]
*763 u_fifomem\.mem\[11\]\[7\]
*764 u_fifomem\.mem\[12\]\[0\]
*765 u_fifomem\.mem\[12\]\[1\]
*766 u_fifomem\.mem\[12\]\[2\]
*767 u_fifomem\.mem\[12\]\[3\]
*768 u_fifomem\.mem\[12\]\[4\]
*769 u_fifomem\.mem\[12\]\[5\]
*770 u_fifomem\.mem\[12\]\[6\]
*771 u_fifomem\.mem\[12\]\[7\]
*772 u_fifomem\.mem\[13\]\[0\]
*773 u_fifomem\.mem\[13\]\[1\]
*774 u_fifomem\.mem\[13\]\[2\]
*775 u_fifomem\.mem\[13\]\[3\]
*776 u_fifomem\.mem\[13\]\[4\]
*777 u_fifomem\.mem\[13\]\[5\]
*778 u_fifomem\.mem\[13\]\[6\]
*779 u_fifomem\.mem\[13\]\[7\]
*780 u_fifomem\.mem\[14\]\[0\]
*781 u_fifomem\.mem\[14\]\[1\]
*782 u_fifomem\.mem\[14\]\[2\]
*783 u_fifomem\.mem\[14\]\[3\]
*784 u_fifomem\.mem\[14\]\[4\]
*785 u_fifomem\.mem\[14\]\[5\]
*786 u_fifomem\.mem\[14\]\[6\]
*787 u_fifomem\.mem\[14\]\[7\]
*788 u_fifomem\.mem\[15\]\[0\]
*789 u_fifomem\.mem\[15\]\[1\]
*790 u_fifomem\.mem\[15\]\[2\]
*791 u_fifomem\.mem\[15\]\[3\]
*792 u_fifomem\.mem\[15\]\[4\]
*793 u_fifomem\.mem\[15\]\[5\]
*794 u_fifomem\.mem\[15\]\[6\]
*795 u_fifomem\.mem\[15\]\[7\]
*796 u_fifomem\.mem\[1\]\[0\]
*797 u_fifomem\.mem\[1\]\[1\]
*798 u_fifomem\.mem\[1\]\[2\]
*799 u_fifomem\.mem\[1\]\[3\]
*800 u_fifomem\.mem\[1\]\[4\]
*801 u_fifomem\.mem\[1\]\[5\]
*802 u_fifomem\.mem\[1\]\[6\]
*803 u_fifomem\.mem\[1\]\[7\]
*804 u_fifomem\.mem\[2\]\[0\]
*805 u_fifomem\.mem\[2\]\[1\]
*806 u_fifomem\.mem\[2\]\[2\]
*807 u_fifomem\.mem\[2\]\[3\]
*808 u_fifomem\.mem\[2\]\[4\]
*809 u_fifomem\.mem\[2\]\[5\]
*810 u_fifomem\.mem\[2\]\[6\]
*811 u_fifomem\.mem\[2\]\[7\]
*812 u_fifomem\.mem\[3\]\[0\]
*813 u_fifomem\.mem\[3\]\[1\]
*814 u_fifomem\.mem\[3\]\[2\]
*815 u_fifomem\.mem\[3\]\[3\]
*816 u_fifomem\.mem\[3\]\[4\]
*817 u_fifomem\.mem\[3\]\[5\]
*818 u_fifomem\.mem\[3\]\[6\]
*819 u_fifomem\.mem\[3\]\[7\]
*820 u_fifomem\.mem\[4\]\[0\]
*821 u_fifomem\.mem\[4\]\[1\]
*822 u_fifomem\.mem\[4\]\[2\]
*823 u_fifomem\.mem\[4\]\[3\]
*824 u_fifomem\.mem\[4\]\[4\]
*825 u_fifomem\.mem\[4\]\[5\]
*826 u_fifomem\.mem\[4\]\[6\]
*827 u_fifomem\.mem\[4\]\[7\]
*828 u_fifomem\.mem\[5\]\[0\]
*829 u_fifomem\.mem\[5\]\[1\]
*830 u_fifomem\.mem\[5\]\[2\]
*831 u_fifomem\.mem\[5\]\[3\]
*832 u_fifomem\.mem\[5\]\[4\]
*833 u_fifomem\.mem\[5\]\[5\]
*834 u_fifomem\.mem\[5\]\[6\]
*835 u_fifomem\.mem\[5\]\[7\]
*836 u_fifomem\.mem\[6\]\[0\]
*837 u_fifomem\.mem\[6\]\[1\]
*838 u_fifomem\.mem\[6\]\[2\]
*839 u_fifomem\.mem\[6\]\[3\]
*840 u_fifomem\.mem\[6\]\[4\]
*841 u_fifomem\.mem\[6\]\[5\]
*842 u_fifomem\.mem\[6\]\[6\]
*843 u_fifomem\.mem\[6\]\[7\]
*844 u_fifomem\.mem\[7\]\[0\]
*845 u_fifomem\.mem\[7\]\[1\]
*846 u_fifomem\.mem\[7\]\[2\]
*847 u_fifomem\.mem\[7\]\[3\]
*848 u_fifomem\.mem\[7\]\[4\]
*849 u_fifomem\.mem\[7\]\[5\]
*850 u_fifomem\.mem\[7\]\[6\]
*851 u_fifomem\.mem\[7\]\[7\]
*852 u_fifomem\.mem\[8\]\[0\]
*853 u_fifomem\.mem\[8\]\[1\]
*854 u_fifomem\.mem\[8\]\[2\]
*855 u_fifomem\.mem\[8\]\[3\]
*856 u_fifomem\.mem\[8\]\[4\]
*857 u_fifomem\.mem\[8\]\[5\]
*858 u_fifomem\.mem\[8\]\[6\]
*859 u_fifomem\.mem\[8\]\[7\]
*860 u_fifomem\.mem\[9\]\[0\]
*861 u_fifomem\.mem\[9\]\[1\]
*862 u_fifomem\.mem\[9\]\[2\]
*863 u_fifomem\.mem\[9\]\[3\]
*864 u_fifomem\.mem\[9\]\[4\]
*865 u_fifomem\.mem\[9\]\[5\]
*866 u_fifomem\.mem\[9\]\[6\]
*867 u_fifomem\.mem\[9\]\[7\]
*868 u_fifomem\.wr_addr\[0\]
*869 u_fifomem\.wr_addr\[1\]
*870 u_fifomem\.wr_addr\[2\]
*871 u_fifomem\.wr_addr\[3\]
*872 u_rd_ptr_empty\.empty_val
*873 u_rd_ptr_empty\.rd_ptr_gray_next\[0\]
*874 u_rd_ptr_empty\.rd_ptr_gray_next\[1\]
*875 u_rd_ptr_empty\.rd_ptr_gray_next\[2\]
*876 u_rd_ptr_empty\.rd_ptr_gray_next\[3\]
*877 u_rd_reset_sync\.sync_ff1
*878 u_rd_reset_sync\.sync_ff2
*879 u_sync_r2w\.sync_stage1\[0\]
*880 u_sync_r2w\.sync_stage1\[1\]
*881 u_sync_r2w\.sync_stage1\[2\]
*882 u_sync_r2w\.sync_stage1\[3\]
*883 u_sync_r2w\.sync_stage1\[4\]
*884 u_sync_r2w\.sync_stage2\[0\]
*885 u_sync_r2w\.sync_stage2\[1\]
*886 u_sync_r2w\.sync_stage2\[2\]
*887 u_sync_r2w\.sync_stage2\[3\]
*888 u_sync_r2w\.sync_stage2\[4\]
*889 u_sync_w2r\.sync_stage1\[0\]
*890 u_sync_w2r\.sync_stage1\[1\]
*891 u_sync_w2r\.sync_stage1\[2\]
*892 u_sync_w2r\.sync_stage1\[3\]
*893 u_sync_w2r\.sync_stage1\[4\]
*894 u_sync_w2r\.sync_stage2\[0\]
*895 u_sync_w2r\.sync_stage2\[1\]
*896 u_sync_w2r\.sync_stage2\[2\]
*897 u_sync_w2r\.sync_stage2\[3\]
*898 u_sync_w2r\.sync_stage2\[4\]
*899 u_sync_w2r\.wr_ptr_gray\[0\]
*900 u_sync_w2r\.wr_ptr_gray\[1\]
*901 u_sync_w2r\.wr_ptr_gray\[2\]
*902 u_sync_w2r\.wr_ptr_gray\[3\]
*903 u_sync_w2r\.wr_ptr_gray\[4\]
*904 u_wr_ptr_full\.full_val
*905 u_wr_ptr_full\.wr_ptr_bin_next\[0\]
*906 u_wr_ptr_full\.wr_ptr_bin_next\[1\]
*907 u_wr_ptr_full\.wr_ptr_bin_next\[2\]
*908 u_wr_ptr_full\.wr_ptr_bin_next\[3\]
*909 u_wr_ptr_full\.wr_ptr_bin_next\[4\]
*910 u_wr_ptr_full\.wr_ptr_gray_next\[0\]
*911 u_wr_ptr_full\.wr_ptr_gray_next\[1\]
*912 u_wr_ptr_full\.wr_ptr_gray_next\[2\]
*913 u_wr_ptr_full\.wr_ptr_gray_next\[3\]
*914 u_wr_reset_sync\.sync_ff1
*915 u_wr_reset_sync\.sync_ff2
*916 FILLER_0_101
*917 FILLER_0_104
*918 FILLER_0_107
*919 FILLER_0_110
*920 FILLER_0_113
*921 FILLER_0_116
*922 FILLER_0_12
*923 FILLER_0_125
*924 FILLER_0_128
*925 FILLER_0_132
*926 FILLER_0_135
*927 FILLER_0_138
*928 FILLER_0_141
*929 FILLER_0_144
*930 FILLER_0_147
*931 FILLER_0_15
*932 FILLER_0_150
*933 FILLER_0_153
*934 FILLER_0_156
*935 FILLER_0_159
*936 FILLER_0_172
*937 FILLER_0_175
*938 FILLER_0_178
*939 FILLER_0_18
*940 FILLER_0_181
*941 FILLER_0_184
*942 FILLER_0_187
*943 FILLER_0_205
*944 FILLER_0_208
*945 FILLER_0_21
*946 FILLER_0_211
*947 FILLER_0_214
*948 FILLER_0_217
*949 FILLER_0_220
*950 FILLER_0_223
*951 FILLER_0_225
*952 FILLER_0_228
*953 FILLER_0_231
*954 FILLER_0_234
*955 FILLER_0_237
*956 FILLER_0_24
*957 FILLER_0_240
*958 FILLER_0_243
*959 FILLER_0_261
*960 FILLER_0_264
*961 FILLER_0_267
*962 FILLER_0_27
*963 FILLER_0_270
*964 FILLER_0_273
*965 FILLER_0_276
*966 FILLER_0_279
*967 FILLER_0_281
*968 FILLER_0_284
*969 FILLER_0_287
*970 FILLER_0_29
*971 FILLER_0_290
*972 FILLER_0_293
*973 FILLER_0_3
*974 FILLER_0_32
*975 FILLER_0_35
*976 FILLER_0_38
*977 FILLER_0_41
*978 FILLER_0_44
*979 FILLER_0_57
*980 FILLER_0_6
*981 FILLER_0_67
*982 FILLER_0_76
*983 FILLER_0_79
*984 FILLER_0_85
*985 FILLER_0_9
*986 FILLER_0_95
*987 FILLER_0_98
*988 FILLER_10_102
*989 FILLER_10_141
*990 FILLER_10_144
*991 FILLER_10_147
*992 FILLER_10_151
*993 FILLER_10_154
*994 FILLER_10_190
*995 FILLER_10_193
*996 FILLER_10_197
*997 FILLER_10_200
*998 FILLER_10_22
*999 FILLER_10_227
*1000 FILLER_10_230
*1001 FILLER_10_233
*1002 FILLER_10_236
*1003 FILLER_10_239
*1004 FILLER_10_242
*1005 FILLER_10_245
*1006 FILLER_10_248
*1007 FILLER_10_25
*1008 FILLER_10_251
*1009 FILLER_10_253
*1010 FILLER_10_256
*1011 FILLER_10_259
*1012 FILLER_10_262
*1013 FILLER_10_265
*1014 FILLER_10_268
*1015 FILLER_10_271
*1016 FILLER_10_274
*1017 FILLER_10_277
*1018 FILLER_10_280
*1019 FILLER_10_283
*1020 FILLER_10_286
*1021 FILLER_10_289
*1022 FILLER_10_29
*1023 FILLER_10_292
*1024 FILLER_10_295
*1025 FILLER_10_3
*1026 FILLER_10_32
*1027 FILLER_10_51
*1028 FILLER_10_61
*1029 FILLER_10_64
*1030 FILLER_11_109
*1031 FILLER_11_113
*1032 FILLER_11_131
*1033 FILLER_11_142
*1034 FILLER_11_145
*1035 FILLER_11_148
*1036 FILLER_11_151
*1037 FILLER_11_154
*1038 FILLER_11_157
*1039 FILLER_11_160
*1040 FILLER_11_163
*1041 FILLER_11_178
*1042 FILLER_11_181
*1043 FILLER_11_184
*1044 FILLER_11_187
*1045 FILLER_11_190
*1046 FILLER_11_193
*1047 FILLER_11_20
*1048 FILLER_11_220
*1049 FILLER_11_223
*1050 FILLER_11_23
*1051 FILLER_11_233
*1052 FILLER_11_236
*1053 FILLER_11_248
*1054 FILLER_11_258
*1055 FILLER_11_26
*1056 FILLER_11_264
*1057 FILLER_11_271
*1058 FILLER_11_274
*1059 FILLER_11_277
*1060 FILLER_11_288
*1061 FILLER_11_29
*1062 FILLER_11_291
*1063 FILLER_11_294
*1064 FILLER_11_3
*1065 FILLER_11_32
*1066 FILLER_11_35
*1067 FILLER_11_38
*1068 FILLER_11_41
*1069 FILLER_11_51
*1070 FILLER_11_54
*1071 FILLER_11_57
*1072 FILLER_11_60
*1073 FILLER_11_83
*1074 FILLER_11_86
*1075 FILLER_11_96
*1076 FILLER_12_111
*1077 FILLER_12_114
*1078 FILLER_12_12
*1079 FILLER_12_120
*1080 FILLER_12_123
*1081 FILLER_12_126
*1082 FILLER_12_129
*1083 FILLER_12_148
*1084 FILLER_12_15
*1085 FILLER_12_151
*1086 FILLER_12_154
*1087 FILLER_12_157
*1088 FILLER_12_160
*1089 FILLER_12_163
*1090 FILLER_12_166
*1091 FILLER_12_169
*1092 FILLER_12_172
*1093 FILLER_12_175
*1094 FILLER_12_178
*1095 FILLER_12_18
*1096 FILLER_12_181
*1097 FILLER_12_184
*1098 FILLER_12_187
*1099 FILLER_12_190
*1100 FILLER_12_193
*1101 FILLER_12_197
*1102 FILLER_12_226
*1103 FILLER_12_229
*1104 FILLER_12_261
*1105 FILLER_12_269
*1106 FILLER_12_272
*1107 FILLER_12_275
*1108 FILLER_12_29
*1109 FILLER_12_293
*1110 FILLER_12_3
*1111 FILLER_12_32
*1112 FILLER_12_35
*1113 FILLER_12_38
*1114 FILLER_12_41
*1115 FILLER_12_44
*1116 FILLER_12_47
*1117 FILLER_12_6
*1118 FILLER_12_68
*1119 FILLER_12_71
*1120 FILLER_12_74
*1121 FILLER_12_77
*1122 FILLER_12_80
*1123 FILLER_12_83
*1124 FILLER_12_85
*1125 FILLER_12_88
*1126 FILLER_12_9
*1127 FILLER_12_91
*1128 FILLER_12_94
*1129 FILLER_12_97
*1130 FILLER_13_100
*1131 FILLER_13_103
*1132 FILLER_13_106
*1133 FILLER_13_109
*1134 FILLER_13_113
*1135 FILLER_13_116
*1136 FILLER_13_119
*1137 FILLER_13_12
*1138 FILLER_13_122
*1139 FILLER_13_125
*1140 FILLER_13_128
*1141 FILLER_13_15
*1142 FILLER_13_150
*1143 FILLER_13_160
*1144 FILLER_13_163
*1145 FILLER_13_166
*1146 FILLER_13_169
*1147 FILLER_13_172
*1148 FILLER_13_175
*1149 FILLER_13_178
*1150 FILLER_13_181
*1151 FILLER_13_184
*1152 FILLER_13_187
*1153 FILLER_13_212
*1154 FILLER_13_215
*1155 FILLER_13_218
*1156 FILLER_13_221
*1157 FILLER_13_225
*1158 FILLER_13_228
*1159 FILLER_13_231
*1160 FILLER_13_234
*1161 FILLER_13_258
*1162 FILLER_13_3
*1163 FILLER_13_34
*1164 FILLER_13_46
*1165 FILLER_13_57
*1166 FILLER_13_6
*1167 FILLER_13_69
*1168 FILLER_13_72
*1169 FILLER_13_75
*1170 FILLER_13_78
*1171 FILLER_13_81
*1172 FILLER_13_84
*1173 FILLER_13_9
*1174 FILLER_13_94
*1175 FILLER_13_97
*1176 FILLER_14_106
*1177 FILLER_14_109
*1178 FILLER_14_112
*1179 FILLER_14_115
*1180 FILLER_14_118
*1181 FILLER_14_121
*1182 FILLER_14_141
*1183 FILLER_14_144
*1184 FILLER_14_167
*1185 FILLER_14_170
*1186 FILLER_14_173
*1187 FILLER_14_179
*1188 FILLER_14_182
*1189 FILLER_14_185
*1190 FILLER_14_188
*1191 FILLER_14_191
*1192 FILLER_14_194
*1193 FILLER_14_197
*1194 FILLER_14_203
*1195 FILLER_14_206
*1196 FILLER_14_209
*1197 FILLER_14_212
*1198 FILLER_14_215
*1199 FILLER_14_218
*1200 FILLER_14_221
*1201 FILLER_14_224
*1202 FILLER_14_227
*1203 FILLER_14_230
*1204 FILLER_14_233
*1205 FILLER_14_236
*1206 FILLER_14_239
*1207 FILLER_14_249
*1208 FILLER_14_253
*1209 FILLER_14_256
*1210 FILLER_14_3
*1211 FILLER_14_49
*1212 FILLER_14_6
*1213 FILLER_14_77
*1214 FILLER_14_80
*1215 FILLER_14_83
*1216 FILLER_15_116
*1217 FILLER_15_119
*1218 FILLER_15_144
*1219 FILLER_15_186
*1220 FILLER_15_189
*1221 FILLER_15_192
*1222 FILLER_15_195
*1223 FILLER_15_198
*1224 FILLER_15_215
*1225 FILLER_15_218
*1226 FILLER_15_225
*1227 FILLER_15_228
*1228 FILLER_15_250
*1229 FILLER_15_253
*1230 FILLER_15_256
*1231 FILLER_15_259
*1232 FILLER_15_262
*1233 FILLER_15_265
*1234 FILLER_15_268
*1235 FILLER_15_278
*1236 FILLER_15_281
*1237 FILLER_15_284
*1238 FILLER_15_287
*1239 FILLER_15_3
*1240 FILLER_15_31
*1241 FILLER_15_52
*1242 FILLER_15_57
*1243 FILLER_16_114
*1244 FILLER_16_12
*1245 FILLER_16_135
*1246 FILLER_16_138
*1247 FILLER_16_187
*1248 FILLER_16_207
*1249 FILLER_16_210
*1250 FILLER_16_224
*1251 FILLER_16_227
*1252 FILLER_16_23
*1253 FILLER_16_250
*1254 FILLER_16_26
*1255 FILLER_16_266
*1256 FILLER_16_289
*1257 FILLER_16_29
*1258 FILLER_16_292
*1259 FILLER_16_295
*1260 FILLER_16_3
*1261 FILLER_16_6
*1262 FILLER_16_73
*1263 FILLER_16_76
*1264 FILLER_16_85
*1265 FILLER_16_9
*1266 FILLER_17_113
*1267 FILLER_17_140
*1268 FILLER_17_143
*1269 FILLER_17_146
*1270 FILLER_17_149
*1271 FILLER_17_152
*1272 FILLER_17_220
*1273 FILLER_17_223
*1274 FILLER_17_225
*1275 FILLER_17_228
*1276 FILLER_17_231
*1277 FILLER_17_255
*1278 FILLER_17_258
*1279 FILLER_17_28
*1280 FILLER_17_290
*1281 FILLER_17_3
*1282 FILLER_17_31
*1283 FILLER_17_34
*1284 FILLER_17_37
*1285 FILLER_17_57
*1286 FILLER_17_6
*1287 FILLER_17_62
*1288 FILLER_17_65
*1289 FILLER_17_68
*1290 FILLER_17_71
*1291 FILLER_17_74
*1292 FILLER_17_77
*1293 FILLER_17_80
*1294 FILLER_17_83
*1295 FILLER_18_108
*1296 FILLER_18_111
*1297 FILLER_18_114
*1298 FILLER_18_117
*1299 FILLER_18_120
*1300 FILLER_18_123
*1301 FILLER_18_126
*1302 FILLER_18_129
*1303 FILLER_18_134
*1304 FILLER_18_137
*1305 FILLER_18_141
*1306 FILLER_18_144
*1307 FILLER_18_147
*1308 FILLER_18_150
*1309 FILLER_18_153
*1310 FILLER_18_156
*1311 FILLER_18_159
*1312 FILLER_18_164
*1313 FILLER_18_167
*1314 FILLER_18_178
*1315 FILLER_18_181
*1316 FILLER_18_184
*1317 FILLER_18_187
*1318 FILLER_18_206
*1319 FILLER_18_248
*1320 FILLER_18_251
*1321 FILLER_18_253
*1322 FILLER_18_26
*1323 FILLER_18_273
*1324 FILLER_18_3
*1325 FILLER_18_46
*1326 FILLER_18_49
*1327 FILLER_18_52
*1328 FILLER_18_55
*1329 FILLER_18_58
*1330 FILLER_18_70
*1331 FILLER_18_73
*1332 FILLER_18_76
*1333 FILLER_18_79
*1334 FILLER_18_82
*1335 FILLER_18_85
*1336 FILLER_18_88
*1337 FILLER_18_93
*1338 FILLER_18_96
*1339 FILLER_19_101
*1340 FILLER_19_104
*1341 FILLER_19_107
*1342 FILLER_19_110
*1343 FILLER_19_113
*1344 FILLER_19_116
*1345 FILLER_19_119
*1346 FILLER_19_122
*1347 FILLER_19_125
*1348 FILLER_19_132
*1349 FILLER_19_150
*1350 FILLER_19_156
*1351 FILLER_19_159
*1352 FILLER_19_184
*1353 FILLER_19_195
*1354 FILLER_19_198
*1355 FILLER_19_207
*1356 FILLER_19_211
*1357 FILLER_19_214
*1358 FILLER_19_238
*1359 FILLER_19_272
*1360 FILLER_19_275
*1361 FILLER_19_278
*1362 FILLER_19_281
*1363 FILLER_19_38
*1364 FILLER_19_41
*1365 FILLER_19_44
*1366 FILLER_19_57
*1367 FILLER_19_60
*1368 FILLER_19_74
*1369 FILLER_19_77
*1370 FILLER_19_80
*1371 FILLER_19_83
*1372 FILLER_19_86
*1373 FILLER_19_89
*1374 FILLER_19_92
*1375 FILLER_19_95
*1376 FILLER_19_98
*1377 FILLER_1_102
*1378 FILLER_1_105
*1379 FILLER_1_108
*1380 FILLER_1_111
*1381 FILLER_1_12
*1382 FILLER_1_139
*1383 FILLER_1_142
*1384 FILLER_1_145
*1385 FILLER_1_15
*1386 FILLER_1_162
*1387 FILLER_1_178
*1388 FILLER_1_18
*1389 FILLER_1_181
*1390 FILLER_1_184
*1391 FILLER_1_206
*1392 FILLER_1_209
*1393 FILLER_1_21
*1394 FILLER_1_225
*1395 FILLER_1_228
*1396 FILLER_1_231
*1397 FILLER_1_234
*1398 FILLER_1_237
*1399 FILLER_1_24
*1400 FILLER_1_240
*1401 FILLER_1_264
*1402 FILLER_1_267
*1403 FILLER_1_27
*1404 FILLER_1_270
*1405 FILLER_1_273
*1406 FILLER_1_279
*1407 FILLER_1_281
*1408 FILLER_1_284
*1409 FILLER_1_287
*1410 FILLER_1_3
*1411 FILLER_1_30
*1412 FILLER_1_33
*1413 FILLER_1_36
*1414 FILLER_1_55
*1415 FILLER_1_6
*1416 FILLER_1_74
*1417 FILLER_1_9
*1418 FILLER_1_96
*1419 FILLER_1_99
*1420 FILLER_20_114
*1421 FILLER_20_117
*1422 FILLER_20_120
*1423 FILLER_20_150
*1424 FILLER_20_161
*1425 FILLER_20_182
*1426 FILLER_20_185
*1427 FILLER_20_188
*1428 FILLER_20_191
*1429 FILLER_20_194
*1430 FILLER_20_219
*1431 FILLER_20_222
*1432 FILLER_20_231
*1433 FILLER_20_234
*1434 FILLER_20_242
*1435 FILLER_20_245
*1436 FILLER_20_248
*1437 FILLER_20_251
*1438 FILLER_20_295
*1439 FILLER_20_3
*1440 FILLER_20_49
*1441 FILLER_20_76
*1442 FILLER_20_79
*1443 FILLER_20_82
*1444 FILLER_20_85
*1445 FILLER_21_116
*1446 FILLER_21_156
*1447 FILLER_21_169
*1448 FILLER_21_184
*1449 FILLER_21_187
*1450 FILLER_21_190
*1451 FILLER_21_193
*1452 FILLER_21_196
*1453 FILLER_21_199
*1454 FILLER_21_202
*1455 FILLER_21_225
*1456 FILLER_21_23
*1457 FILLER_21_243
*1458 FILLER_21_246
*1459 FILLER_21_249
*1460 FILLER_21_281
*1461 FILLER_21_284
*1462 FILLER_21_287
*1463 FILLER_21_290
*1464 FILLER_21_293
*1465 FILLER_21_57
*1466 FILLER_22_12
*1467 FILLER_22_129
*1468 FILLER_22_139
*1469 FILLER_22_147
*1470 FILLER_22_15
*1471 FILLER_22_165
*1472 FILLER_22_18
*1473 FILLER_22_188
*1474 FILLER_22_191
*1475 FILLER_22_194
*1476 FILLER_22_197
*1477 FILLER_22_21
*1478 FILLER_22_219
*1479 FILLER_22_24
*1480 FILLER_22_253
*1481 FILLER_22_256
*1482 FILLER_22_259
*1483 FILLER_22_27
*1484 FILLER_22_281
*1485 FILLER_22_284
*1486 FILLER_22_287
*1487 FILLER_22_290
*1488 FILLER_22_293
*1489 FILLER_22_49
*1490 FILLER_22_71
*1491 FILLER_22_74
*1492 FILLER_22_77
*1493 FILLER_23_121
*1494 FILLER_23_124
*1495 FILLER_23_15
*1496 FILLER_23_156
*1497 FILLER_23_166
*1498 FILLER_23_169
*1499 FILLER_23_188
*1500 FILLER_23_19
*1501 FILLER_23_191
*1502 FILLER_23_215
*1503 FILLER_23_218
*1504 FILLER_23_22
*1505 FILLER_23_221
*1506 FILLER_23_225
*1507 FILLER_23_25
*1508 FILLER_23_254
*1509 FILLER_23_257
*1510 FILLER_23_28
*1511 FILLER_23_281
*1512 FILLER_23_284
*1513 FILLER_23_287
*1514 FILLER_23_290
*1515 FILLER_23_293
*1516 FILLER_23_31
*1517 FILLER_23_34
*1518 FILLER_23_54
*1519 FILLER_23_57
*1520 FILLER_23_60
*1521 FILLER_23_71
*1522 FILLER_23_74
*1523 FILLER_23_77
*1524 FILLER_23_80
*1525 FILLER_24_108
*1526 FILLER_24_111
*1527 FILLER_24_114
*1528 FILLER_24_117
*1529 FILLER_24_120
*1530 FILLER_24_123
*1531 FILLER_24_126
*1532 FILLER_24_129
*1533 FILLER_24_141
*1534 FILLER_24_150
*1535 FILLER_24_168
*1536 FILLER_24_171
*1537 FILLER_24_174
*1538 FILLER_24_185
*1539 FILLER_24_188
*1540 FILLER_24_191
*1541 FILLER_24_194
*1542 FILLER_24_238
*1543 FILLER_24_24
*1544 FILLER_24_253
*1545 FILLER_24_256
*1546 FILLER_24_259
*1547 FILLER_24_267
*1548 FILLER_24_27
*1549 FILLER_24_270
*1550 FILLER_24_29
*1551 FILLER_24_294
*1552 FILLER_24_32
*1553 FILLER_24_35
*1554 FILLER_24_47
*1555 FILLER_24_50
*1556 FILLER_24_53
*1557 FILLER_24_56
*1558 FILLER_24_59
*1559 FILLER_24_62
*1560 FILLER_24_65
*1561 FILLER_24_68
*1562 FILLER_24_71
*1563 FILLER_24_74
*1564 FILLER_24_77
*1565 FILLER_24_80
*1566 FILLER_24_83
*1567 FILLER_24_85
*1568 FILLER_24_88
*1569 FILLER_24_9
*1570 FILLER_24_93
*1571 FILLER_24_96
*1572 FILLER_25_113
*1573 FILLER_25_116
*1574 FILLER_25_127
*1575 FILLER_25_130
*1576 FILLER_25_133
*1577 FILLER_25_136
*1578 FILLER_25_139
*1579 FILLER_25_142
*1580 FILLER_25_145
*1581 FILLER_25_169
*1582 FILLER_25_187
*1583 FILLER_25_190
*1584 FILLER_25_21
*1585 FILLER_25_214
*1586 FILLER_25_217
*1587 FILLER_25_220
*1588 FILLER_25_223
*1589 FILLER_25_24
*1590 FILLER_25_246
*1591 FILLER_25_249
*1592 FILLER_25_252
*1593 FILLER_25_255
*1594 FILLER_25_258
*1595 FILLER_25_27
*1596 FILLER_25_281
*1597 FILLER_25_284
*1598 FILLER_25_287
*1599 FILLER_25_290
*1600 FILLER_25_293
*1601 FILLER_25_3
*1602 FILLER_25_30
*1603 FILLER_25_33
*1604 FILLER_25_36
*1605 FILLER_25_39
*1606 FILLER_25_42
*1607 FILLER_25_45
*1608 FILLER_25_48
*1609 FILLER_25_51
*1610 FILLER_25_54
*1611 FILLER_25_57
*1612 FILLER_25_60
*1613 FILLER_25_71
*1614 FILLER_25_74
*1615 FILLER_25_84
*1616 FILLER_25_87
*1617 FILLER_25_90
*1618 FILLER_25_93
*1619 FILLER_25_96
*1620 FILLER_26_102
*1621 FILLER_26_112
*1622 FILLER_26_115
*1623 FILLER_26_136
*1624 FILLER_26_139
*1625 FILLER_26_141
*1626 FILLER_26_144
*1627 FILLER_26_152
*1628 FILLER_26_155
*1629 FILLER_26_169
*1630 FILLER_26_183
*1631 FILLER_26_186
*1632 FILLER_26_189
*1633 FILLER_26_192
*1634 FILLER_26_195
*1635 FILLER_26_197
*1636 FILLER_26_200
*1637 FILLER_26_203
*1638 FILLER_26_206
*1639 FILLER_26_209
*1640 FILLER_26_212
*1641 FILLER_26_215
*1642 FILLER_26_218
*1643 FILLER_26_221
*1644 FILLER_26_227
*1645 FILLER_26_230
*1646 FILLER_26_239
*1647 FILLER_26_242
*1648 FILLER_26_245
*1649 FILLER_26_248
*1650 FILLER_26_251
*1651 FILLER_26_253
*1652 FILLER_26_256
*1653 FILLER_26_259
*1654 FILLER_26_262
*1655 FILLER_26_265
*1656 FILLER_26_289
*1657 FILLER_26_292
*1658 FILLER_26_295
*1659 FILLER_26_38
*1660 FILLER_26_41
*1661 FILLER_26_44
*1662 FILLER_26_47
*1663 FILLER_26_50
*1664 FILLER_26_57
*1665 FILLER_26_68
*1666 FILLER_26_80
*1667 FILLER_26_9
*1668 FILLER_26_96
*1669 FILLER_26_99
*1670 FILLER_27_105
*1671 FILLER_27_113
*1672 FILLER_27_116
*1673 FILLER_27_153
*1674 FILLER_27_156
*1675 FILLER_27_180
*1676 FILLER_27_183
*1677 FILLER_27_186
*1678 FILLER_27_211
*1679 FILLER_27_214
*1680 FILLER_27_217
*1681 FILLER_27_220
*1682 FILLER_27_223
*1683 FILLER_27_225
*1684 FILLER_27_228
*1685 FILLER_27_231
*1686 FILLER_27_234
*1687 FILLER_27_237
*1688 FILLER_27_281
*1689 FILLER_27_287
*1690 FILLER_27_3
*1691 FILLER_27_47
*1692 FILLER_27_6
*1693 FILLER_28_129
*1694 FILLER_28_132
*1695 FILLER_28_135
*1696 FILLER_28_139
*1697 FILLER_28_185
*1698 FILLER_28_188
*1699 FILLER_28_191
*1700 FILLER_28_194
*1701 FILLER_28_218
*1702 FILLER_28_221
*1703 FILLER_28_224
*1704 FILLER_28_227
*1705 FILLER_28_23
*1706 FILLER_28_230
*1707 FILLER_28_253
*1708 FILLER_28_85
*1709 FILLER_28_88
*1710 FILLER_29_101
*1711 FILLER_29_116
*1712 FILLER_29_119
*1713 FILLER_29_138
*1714 FILLER_29_141
*1715 FILLER_29_144
*1716 FILLER_29_147
*1717 FILLER_29_150
*1718 FILLER_29_153
*1719 FILLER_29_169
*1720 FILLER_29_178
*1721 FILLER_29_181
*1722 FILLER_29_184
*1723 FILLER_29_187
*1724 FILLER_29_193
*1725 FILLER_29_196
*1726 FILLER_29_199
*1727 FILLER_29_202
*1728 FILLER_29_23
*1729 FILLER_29_238
*1730 FILLER_29_26
*1731 FILLER_29_275
*1732 FILLER_29_278
*1733 FILLER_29_281
*1734 FILLER_29_284
*1735 FILLER_29_287
*1736 FILLER_29_29
*1737 FILLER_29_290
*1738 FILLER_29_40
*1739 FILLER_29_43
*1740 FILLER_29_46
*1741 FILLER_29_49
*1742 FILLER_29_74
*1743 FILLER_29_9
*1744 FILLER_29_93
*1745 FILLER_29_96
*1746 FILLER_2_102
*1747 FILLER_2_105
*1748 FILLER_2_141
*1749 FILLER_2_144
*1750 FILLER_2_181
*1751 FILLER_2_184
*1752 FILLER_2_187
*1753 FILLER_2_190
*1754 FILLER_2_193
*1755 FILLER_2_197
*1756 FILLER_2_216
*1757 FILLER_2_233
*1758 FILLER_2_243
*1759 FILLER_2_246
*1760 FILLER_2_249
*1761 FILLER_2_295
*1762 FILLER_2_3
*1763 FILLER_2_38
*1764 FILLER_2_6
*1765 FILLER_2_66
*1766 FILLER_2_9
*1767 FILLER_30_100
*1768 FILLER_30_103
*1769 FILLER_30_12
*1770 FILLER_30_122
*1771 FILLER_30_127
*1772 FILLER_30_130
*1773 FILLER_30_139
*1774 FILLER_30_141
*1775 FILLER_30_144
*1776 FILLER_30_147
*1777 FILLER_30_15
*1778 FILLER_30_150
*1779 FILLER_30_175
*1780 FILLER_30_178
*1781 FILLER_30_18
*1782 FILLER_30_181
*1783 FILLER_30_184
*1784 FILLER_30_187
*1785 FILLER_30_190
*1786 FILLER_30_197
*1787 FILLER_30_205
*1788 FILLER_30_208
*1789 FILLER_30_21
*1790 FILLER_30_211
*1791 FILLER_30_235
*1792 FILLER_30_24
*1793 FILLER_30_251
*1794 FILLER_30_27
*1795 FILLER_30_272
*1796 FILLER_30_29
*1797 FILLER_30_32
*1798 FILLER_30_35
*1799 FILLER_30_38
*1800 FILLER_30_41
*1801 FILLER_30_44
*1802 FILLER_30_47
*1803 FILLER_30_67
*1804 FILLER_30_70
*1805 FILLER_30_73
*1806 FILLER_30_83
*1807 FILLER_30_9
*1808 FILLER_30_94
*1809 FILLER_30_97
*1810 FILLER_31_113
*1811 FILLER_31_116
*1812 FILLER_31_119
*1813 FILLER_31_122
*1814 FILLER_31_125
*1815 FILLER_31_128
*1816 FILLER_31_131
*1817 FILLER_31_134
*1818 FILLER_31_137
*1819 FILLER_31_140
*1820 FILLER_31_143
*1821 FILLER_31_146
*1822 FILLER_31_149
*1823 FILLER_31_15
*1824 FILLER_31_178
*1825 FILLER_31_181
*1826 FILLER_31_184
*1827 FILLER_31_187
*1828 FILLER_31_190
*1829 FILLER_31_193
*1830 FILLER_31_200
*1831 FILLER_31_208
*1832 FILLER_31_225
*1833 FILLER_31_281
*1834 FILLER_31_35
*1835 FILLER_31_38
*1836 FILLER_31_41
*1837 FILLER_31_44
*1838 FILLER_31_51
*1839 FILLER_31_54
*1840 FILLER_31_57
*1841 FILLER_31_6
*1842 FILLER_31_60
*1843 FILLER_31_63
*1844 FILLER_31_66
*1845 FILLER_31_69
*1846 FILLER_31_72
*1847 FILLER_31_75
*1848 FILLER_31_78
*1849 FILLER_31_81
*1850 FILLER_31_84
*1851 FILLER_31_87
*1852 FILLER_31_9
*1853 FILLER_31_90
*1854 FILLER_31_93
*1855 FILLER_31_96
*1856 FILLER_31_99
*1857 FILLER_32_112
*1858 FILLER_32_115
*1859 FILLER_32_118
*1860 FILLER_32_121
*1861 FILLER_32_124
*1862 FILLER_32_127
*1863 FILLER_32_130
*1864 FILLER_32_133
*1865 FILLER_32_136
*1866 FILLER_32_139
*1867 FILLER_32_141
*1868 FILLER_32_144
*1869 FILLER_32_185
*1870 FILLER_32_188
*1871 FILLER_32_209
*1872 FILLER_32_212
*1873 FILLER_32_215
*1874 FILLER_32_26
*1875 FILLER_32_274
*1876 FILLER_32_29
*1877 FILLER_32_48
*1878 FILLER_32_83
*1879 FILLER_32_85
*1880 FILLER_32_88
*1881 FILLER_32_91
*1882 FILLER_32_94
*1883 FILLER_33_107
*1884 FILLER_33_110
*1885 FILLER_33_113
*1886 FILLER_33_131
*1887 FILLER_33_134
*1888 FILLER_33_137
*1889 FILLER_33_160
*1890 FILLER_33_163
*1891 FILLER_33_166
*1892 FILLER_33_169
*1893 FILLER_33_172
*1894 FILLER_33_175
*1895 FILLER_33_178
*1896 FILLER_33_181
*1897 FILLER_33_184
*1898 FILLER_33_201
*1899 FILLER_33_215
*1900 FILLER_33_218
*1901 FILLER_33_221
*1902 FILLER_33_225
*1903 FILLER_33_228
*1904 FILLER_33_231
*1905 FILLER_33_234
*1906 FILLER_33_238
*1907 FILLER_33_241
*1908 FILLER_33_244
*1909 FILLER_33_247
*1910 FILLER_33_250
*1911 FILLER_33_253
*1912 FILLER_33_256
*1913 FILLER_33_279
*1914 FILLER_33_281
*1915 FILLER_33_291
*1916 FILLER_33_50
*1917 FILLER_33_69
*1918 FILLER_34_141
*1919 FILLER_34_164
*1920 FILLER_34_167
*1921 FILLER_34_179
*1922 FILLER_34_197
*1923 FILLER_34_207
*1924 FILLER_34_210
*1925 FILLER_34_213
*1926 FILLER_34_216
*1927 FILLER_34_219
*1928 FILLER_34_222
*1929 FILLER_34_233
*1930 FILLER_34_236
*1931 FILLER_34_239
*1932 FILLER_34_242
*1933 FILLER_34_245
*1934 FILLER_34_248
*1935 FILLER_34_251
*1936 FILLER_34_253
*1937 FILLER_34_256
*1938 FILLER_34_259
*1939 FILLER_34_262
*1940 FILLER_34_265
*1941 FILLER_34_268
*1942 FILLER_34_291
*1943 FILLER_34_294
*1944 FILLER_34_9
*1945 FILLER_34_94
*1946 FILLER_35_113
*1947 FILLER_35_116
*1948 FILLER_35_135
*1949 FILLER_35_138
*1950 FILLER_35_141
*1951 FILLER_35_144
*1952 FILLER_35_147
*1953 FILLER_35_150
*1954 FILLER_35_160
*1955 FILLER_35_163
*1956 FILLER_35_192
*1957 FILLER_35_212
*1958 FILLER_35_215
*1959 FILLER_35_218
*1960 FILLER_35_221
*1961 FILLER_35_225
*1962 FILLER_35_228
*1963 FILLER_35_231
*1964 FILLER_35_234
*1965 FILLER_35_237
*1966 FILLER_35_259
*1967 FILLER_35_262
*1968 FILLER_35_265
*1969 FILLER_35_279
*1970 FILLER_35_281
*1971 FILLER_35_292
*1972 FILLER_35_295
*1973 FILLER_35_3
*1974 FILLER_35_38
*1975 FILLER_35_41
*1976 FILLER_35_44
*1977 FILLER_35_47
*1978 FILLER_35_50
*1979 FILLER_35_53
*1980 FILLER_35_6
*1981 FILLER_35_66
*1982 FILLER_35_69
*1983 FILLER_35_88
*1984 FILLER_35_91
*1985 FILLER_35_94
*1986 FILLER_36_11
*1987 FILLER_36_124
*1988 FILLER_36_127
*1989 FILLER_36_130
*1990 FILLER_36_133
*1991 FILLER_36_136
*1992 FILLER_36_139
*1993 FILLER_36_14
*1994 FILLER_36_141
*1995 FILLER_36_144
*1996 FILLER_36_148
*1997 FILLER_36_151
*1998 FILLER_36_154
*1999 FILLER_36_157
*2000 FILLER_36_17
*2001 FILLER_36_176
*2002 FILLER_36_179
*2003 FILLER_36_182
*2004 FILLER_36_185
*2005 FILLER_36_207
*2006 FILLER_36_210
*2007 FILLER_36_213
*2008 FILLER_36_233
*2009 FILLER_36_236
*2010 FILLER_36_239
*2011 FILLER_36_242
*2012 FILLER_36_245
*2013 FILLER_36_258
*2014 FILLER_36_261
*2015 FILLER_36_264
*2016 FILLER_36_277
*2017 FILLER_36_280
*2018 FILLER_36_283
*2019 FILLER_36_286
*2020 FILLER_36_289
*2021 FILLER_36_29
*2022 FILLER_36_292
*2023 FILLER_36_295
*2024 FILLER_36_34
*2025 FILLER_36_37
*2026 FILLER_36_40
*2027 FILLER_36_43
*2028 FILLER_36_46
*2029 FILLER_36_49
*2030 FILLER_36_52
*2031 FILLER_36_66
*2032 FILLER_36_69
*2033 FILLER_36_72
*2034 FILLER_36_75
*2035 FILLER_36_78
*2036 FILLER_36_81
*2037 FILLER_36_85
*2038 FILLER_36_88
*2039 FILLER_36_91
*2040 FILLER_36_94
*2041 FILLER_36_97
*2042 FILLER_37_105
*2043 FILLER_37_108
*2044 FILLER_37_111
*2045 FILLER_37_113
*2046 FILLER_37_149
*2047 FILLER_37_169
*2048 FILLER_37_172
*2049 FILLER_37_175
*2050 FILLER_37_178
*2051 FILLER_37_18
*2052 FILLER_37_181
*2053 FILLER_37_184
*2054 FILLER_37_187
*2055 FILLER_37_207
*2056 FILLER_37_21
*2057 FILLER_37_210
*2058 FILLER_37_213
*2059 FILLER_37_225
*2060 FILLER_37_232
*2061 FILLER_37_235
*2062 FILLER_37_238
*2063 FILLER_37_241
*2064 FILLER_37_244
*2065 FILLER_37_247
*2066 FILLER_37_260
*2067 FILLER_37_263
*2068 FILLER_37_272
*2069 FILLER_37_281
*2070 FILLER_37_293
*2071 FILLER_37_3
*2072 FILLER_37_49
*2073 FILLER_37_52
*2074 FILLER_37_55
*2075 FILLER_37_57
*2076 FILLER_37_6
*2077 FILLER_37_71
*2078 FILLER_37_74
*2079 FILLER_37_77
*2080 FILLER_37_80
*2081 FILLER_37_83
*2082 FILLER_37_86
*2083 FILLER_38_112
*2084 FILLER_38_125
*2085 FILLER_38_128
*2086 FILLER_38_181
*2087 FILLER_38_184
*2088 FILLER_38_187
*2089 FILLER_38_197
*2090 FILLER_38_200
*2091 FILLER_38_203
*2092 FILLER_38_206
*2093 FILLER_38_209
*2094 FILLER_38_212
*2095 FILLER_38_215
*2096 FILLER_38_218
*2097 FILLER_38_237
*2098 FILLER_38_240
*2099 FILLER_38_243
*2100 FILLER_38_246
*2101 FILLER_38_249
*2102 FILLER_38_26
*2103 FILLER_38_264
*2104 FILLER_38_274
*2105 FILLER_38_277
*2106 FILLER_38_288
*2107 FILLER_38_291
*2108 FILLER_38_294
*2109 FILLER_38_3
*2110 FILLER_38_46
*2111 FILLER_38_49
*2112 FILLER_38_52
*2113 FILLER_38_79
*2114 FILLER_38_82
*2115 FILLER_38_85
*2116 FILLER_39_109
*2117 FILLER_39_122
*2118 FILLER_39_125
*2119 FILLER_39_128
*2120 FILLER_39_131
*2121 FILLER_39_134
*2122 FILLER_39_137
*2123 FILLER_39_140
*2124 FILLER_39_169
*2125 FILLER_39_172
*2126 FILLER_39_175
*2127 FILLER_39_178
*2128 FILLER_39_181
*2129 FILLER_39_184
*2130 FILLER_39_215
*2131 FILLER_39_218
*2132 FILLER_39_22
*2133 FILLER_39_221
*2134 FILLER_39_225
*2135 FILLER_39_245
*2136 FILLER_39_248
*2137 FILLER_39_25
*2138 FILLER_39_251
*2139 FILLER_39_254
*2140 FILLER_39_277
*2141 FILLER_39_286
*2142 FILLER_39_289
*2143 FILLER_39_292
*2144 FILLER_39_295
*2145 FILLER_39_3
*2146 FILLER_39_60
*2147 FILLER_39_82
*2148 FILLER_39_85
*2149 FILLER_3_101
*2150 FILLER_3_104
*2151 FILLER_3_107
*2152 FILLER_3_119
*2153 FILLER_3_143
*2154 FILLER_3_146
*2155 FILLER_3_210
*2156 FILLER_3_221
*2157 FILLER_3_231
*2158 FILLER_3_234
*2159 FILLER_3_248
*2160 FILLER_3_251
*2161 FILLER_3_254
*2162 FILLER_3_257
*2163 FILLER_3_260
*2164 FILLER_3_273
*2165 FILLER_3_276
*2166 FILLER_3_279
*2167 FILLER_3_281
*2168 FILLER_3_284
*2169 FILLER_3_287
*2170 FILLER_3_290
*2171 FILLER_3_293
*2172 FILLER_3_3
*2173 FILLER_3_55
*2174 FILLER_3_57
*2175 FILLER_3_6
*2176 FILLER_3_60
*2177 FILLER_3_71
*2178 FILLER_3_9
*2179 FILLER_3_95
*2180 FILLER_3_98
*2181 FILLER_40_135
*2182 FILLER_40_138
*2183 FILLER_40_141
*2184 FILLER_40_144
*2185 FILLER_40_147
*2186 FILLER_40_150
*2187 FILLER_40_153
*2188 FILLER_40_156
*2189 FILLER_40_165
*2190 FILLER_40_168
*2191 FILLER_40_171
*2192 FILLER_40_174
*2193 FILLER_40_177
*2194 FILLER_40_214
*2195 FILLER_40_238
*2196 FILLER_40_241
*2197 FILLER_40_244
*2198 FILLER_40_247
*2199 FILLER_40_250
*2200 FILLER_40_253
*2201 FILLER_40_256
*2202 FILLER_40_278
*2203 FILLER_40_281
*2204 FILLER_40_284
*2205 FILLER_40_287
*2206 FILLER_40_290
*2207 FILLER_40_293
*2208 FILLER_40_3
*2209 FILLER_40_32
*2210 FILLER_40_35
*2211 FILLER_40_38
*2212 FILLER_40_6
*2213 FILLER_40_79
*2214 FILLER_40_82
*2215 FILLER_40_85
*2216 FILLER_41_107
*2217 FILLER_41_11
*2218 FILLER_41_113
*2219 FILLER_41_116
*2220 FILLER_41_119
*2221 FILLER_41_14
*2222 FILLER_41_157
*2223 FILLER_41_160
*2224 FILLER_41_163
*2225 FILLER_41_166
*2226 FILLER_41_169
*2227 FILLER_41_17
*2228 FILLER_41_172
*2229 FILLER_41_175
*2230 FILLER_41_178
*2231 FILLER_41_181
*2232 FILLER_41_212
*2233 FILLER_41_225
*2234 FILLER_41_232
*2235 FILLER_41_235
*2236 FILLER_41_238
*2237 FILLER_41_241
*2238 FILLER_41_244
*2239 FILLER_41_26
*2240 FILLER_41_281
*2241 FILLER_41_284
*2242 FILLER_41_287
*2243 FILLER_41_29
*2244 FILLER_41_290
*2245 FILLER_41_293
*2246 FILLER_41_32
*2247 FILLER_41_35
*2248 FILLER_41_38
*2249 FILLER_41_57
*2250 FILLER_41_60
*2251 FILLER_41_80
*2252 FILLER_41_83
*2253 FILLER_41_86
*2254 FILLER_41_89
*2255 FILLER_42_112
*2256 FILLER_42_12
*2257 FILLER_42_122
*2258 FILLER_42_125
*2259 FILLER_42_141
*2260 FILLER_42_15
*2261 FILLER_42_151
*2262 FILLER_42_154
*2263 FILLER_42_157
*2264 FILLER_42_176
*2265 FILLER_42_179
*2266 FILLER_42_18
*2267 FILLER_42_182
*2268 FILLER_42_185
*2269 FILLER_42_188
*2270 FILLER_42_191
*2271 FILLER_42_194
*2272 FILLER_42_197
*2273 FILLER_42_21
*2274 FILLER_42_211
*2275 FILLER_42_214
*2276 FILLER_42_24
*2277 FILLER_42_242
*2278 FILLER_42_245
*2279 FILLER_42_248
*2280 FILLER_42_251
*2281 FILLER_42_253
*2282 FILLER_42_256
*2283 FILLER_42_259
*2284 FILLER_42_27
*2285 FILLER_42_279
*2286 FILLER_42_282
*2287 FILLER_42_285
*2288 FILLER_42_288
*2289 FILLER_42_29
*2290 FILLER_42_291
*2291 FILLER_42_294
*2292 FILLER_42_3
*2293 FILLER_42_32
*2294 FILLER_42_35
*2295 FILLER_42_38
*2296 FILLER_42_41
*2297 FILLER_42_44
*2298 FILLER_42_6
*2299 FILLER_42_65
*2300 FILLER_42_77
*2301 FILLER_42_80
*2302 FILLER_42_83
*2303 FILLER_42_85
*2304 FILLER_42_88
*2305 FILLER_42_9
*2306 FILLER_42_91
*2307 FILLER_43_113
*2308 FILLER_43_116
*2309 FILLER_43_119
*2310 FILLER_43_122
*2311 FILLER_43_125
*2312 FILLER_43_140
*2313 FILLER_43_143
*2314 FILLER_43_146
*2315 FILLER_43_149
*2316 FILLER_43_172
*2317 FILLER_43_175
*2318 FILLER_43_178
*2319 FILLER_43_181
*2320 FILLER_43_184
*2321 FILLER_43_187
*2322 FILLER_43_20
*2323 FILLER_43_204
*2324 FILLER_43_221
*2325 FILLER_43_225
*2326 FILLER_43_229
*2327 FILLER_43_232
*2328 FILLER_43_235
*2329 FILLER_43_238
*2330 FILLER_43_241
*2331 FILLER_43_244
*2332 FILLER_43_247
*2333 FILLER_43_250
*2334 FILLER_43_253
*2335 FILLER_43_256
*2336 FILLER_43_259
*2337 FILLER_43_281
*2338 FILLER_43_284
*2339 FILLER_43_287
*2340 FILLER_43_290
*2341 FILLER_43_293
*2342 FILLER_43_3
*2343 FILLER_43_40
*2344 FILLER_43_43
*2345 FILLER_43_46
*2346 FILLER_43_52
*2347 FILLER_43_55
*2348 FILLER_43_57
*2349 FILLER_43_6
*2350 FILLER_43_60
*2351 FILLER_43_63
*2352 FILLER_43_66
*2353 FILLER_43_69
*2354 FILLER_43_72
*2355 FILLER_43_75
*2356 FILLER_43_78
*2357 FILLER_43_81
*2358 FILLER_43_84
*2359 FILLER_43_87
*2360 FILLER_43_90
*2361 FILLER_43_93
*2362 FILLER_43_96
*2363 FILLER_43_99
*2364 FILLER_44_101
*2365 FILLER_44_104
*2366 FILLER_44_116
*2367 FILLER_44_119
*2368 FILLER_44_122
*2369 FILLER_44_141
*2370 FILLER_44_144
*2371 FILLER_44_147
*2372 FILLER_44_183
*2373 FILLER_44_186
*2374 FILLER_44_189
*2375 FILLER_44_192
*2376 FILLER_44_195
*2377 FILLER_44_197
*2378 FILLER_44_200
*2379 FILLER_44_203
*2380 FILLER_44_22
*2381 FILLER_44_221
*2382 FILLER_44_224
*2383 FILLER_44_230
*2384 FILLER_44_242
*2385 FILLER_44_245
*2386 FILLER_44_248
*2387 FILLER_44_251
*2388 FILLER_44_253
*2389 FILLER_44_3
*2390 FILLER_44_38
*2391 FILLER_44_41
*2392 FILLER_44_51
*2393 FILLER_44_54
*2394 FILLER_44_57
*2395 FILLER_44_60
*2396 FILLER_44_83
*2397 FILLER_44_85
*2398 FILLER_44_88
*2399 FILLER_44_91
*2400 FILLER_45_113
*2401 FILLER_45_144
*2402 FILLER_45_147
*2403 FILLER_45_150
*2404 FILLER_45_153
*2405 FILLER_45_177
*2406 FILLER_45_180
*2407 FILLER_45_183
*2408 FILLER_45_225
*2409 FILLER_45_236
*2410 FILLER_45_239
*2411 FILLER_45_242
*2412 FILLER_45_245
*2413 FILLER_45_248
*2414 FILLER_45_251
*2415 FILLER_45_254
*2416 FILLER_45_257
*2417 FILLER_45_260
*2418 FILLER_45_278
*2419 FILLER_45_281
*2420 FILLER_45_284
*2421 FILLER_45_287
*2422 FILLER_45_3
*2423 FILLER_45_37
*2424 FILLER_45_40
*2425 FILLER_45_43
*2426 FILLER_45_46
*2427 FILLER_45_50
*2428 FILLER_45_53
*2429 FILLER_45_57
*2430 FILLER_45_6
*2431 FILLER_45_60
*2432 FILLER_45_73
*2433 FILLER_45_76
*2434 FILLER_46_129
*2435 FILLER_46_132
*2436 FILLER_46_135
*2437 FILLER_46_138
*2438 FILLER_46_141
*2439 FILLER_46_144
*2440 FILLER_46_147
*2441 FILLER_46_150
*2442 FILLER_46_153
*2443 FILLER_46_156
*2444 FILLER_46_159
*2445 FILLER_46_178
*2446 FILLER_46_181
*2447 FILLER_46_184
*2448 FILLER_46_187
*2449 FILLER_46_190
*2450 FILLER_46_193
*2451 FILLER_46_234
*2452 FILLER_46_24
*2453 FILLER_46_242
*2454 FILLER_46_261
*2455 FILLER_46_269
*2456 FILLER_46_27
*2457 FILLER_46_29
*2458 FILLER_46_291
*2459 FILLER_46_3
*2460 FILLER_46_32
*2461 FILLER_46_50
*2462 FILLER_46_6
*2463 FILLER_46_78
*2464 FILLER_46_85
*2465 FILLER_46_88
*2466 FILLER_47_121
*2467 FILLER_47_148
*2468 FILLER_47_187
*2469 FILLER_47_190
*2470 FILLER_47_212
*2471 FILLER_47_225
*2472 FILLER_47_281
*2473 FILLER_47_3
*2474 FILLER_47_6
*2475 FILLER_47_77
*2476 FILLER_47_80
*2477 FILLER_47_83
*2478 FILLER_47_9
*2479 FILLER_48_11
*2480 FILLER_48_120
*2481 FILLER_48_123
*2482 FILLER_48_126
*2483 FILLER_48_141
*2484 FILLER_48_144
*2485 FILLER_48_147
*2486 FILLER_48_150
*2487 FILLER_48_153
*2488 FILLER_48_156
*2489 FILLER_48_179
*2490 FILLER_48_182
*2491 FILLER_48_185
*2492 FILLER_48_188
*2493 FILLER_48_191
*2494 FILLER_48_194
*2495 FILLER_48_226
*2496 FILLER_48_229
*2497 FILLER_48_232
*2498 FILLER_48_235
*2499 FILLER_48_238
*2500 FILLER_48_245
*2501 FILLER_48_248
*2502 FILLER_48_251
*2503 FILLER_48_253
*2504 FILLER_48_256
*2505 FILLER_48_259
*2506 FILLER_48_26
*2507 FILLER_48_262
*2508 FILLER_48_265
*2509 FILLER_48_268
*2510 FILLER_48_271
*2511 FILLER_48_29
*2512 FILLER_48_32
*2513 FILLER_48_35
*2514 FILLER_48_38
*2515 FILLER_48_75
*2516 FILLER_48_78
*2517 FILLER_48_81
*2518 FILLER_48_85
*2519 FILLER_48_97
*2520 FILLER_49_101
*2521 FILLER_49_113
*2522 FILLER_49_116
*2523 FILLER_49_119
*2524 FILLER_49_12
*2525 FILLER_49_122
*2526 FILLER_49_125
*2527 FILLER_49_128
*2528 FILLER_49_144
*2529 FILLER_49_147
*2530 FILLER_49_15
*2531 FILLER_49_150
*2532 FILLER_49_159
*2533 FILLER_49_162
*2534 FILLER_49_169
*2535 FILLER_49_172
*2536 FILLER_49_175
*2537 FILLER_49_178
*2538 FILLER_49_18
*2539 FILLER_49_181
*2540 FILLER_49_184
*2541 FILLER_49_187
*2542 FILLER_49_190
*2543 FILLER_49_193
*2544 FILLER_49_21
*2545 FILLER_49_213
*2546 FILLER_49_216
*2547 FILLER_49_219
*2548 FILLER_49_222
*2549 FILLER_49_225
*2550 FILLER_49_228
*2551 FILLER_49_231
*2552 FILLER_49_234
*2553 FILLER_49_237
*2554 FILLER_49_24
*2555 FILLER_49_240
*2556 FILLER_49_251
*2557 FILLER_49_253
*2558 FILLER_49_256
*2559 FILLER_49_259
*2560 FILLER_49_262
*2561 FILLER_49_265
*2562 FILLER_49_268
*2563 FILLER_49_27
*2564 FILLER_49_271
*2565 FILLER_49_274
*2566 FILLER_49_277
*2567 FILLER_49_281
*2568 FILLER_49_284
*2569 FILLER_49_287
*2570 FILLER_49_29
*2571 FILLER_49_3
*2572 FILLER_49_32
*2573 FILLER_49_35
*2574 FILLER_49_38
*2575 FILLER_49_41
*2576 FILLER_49_44
*2577 FILLER_49_47
*2578 FILLER_49_50
*2579 FILLER_49_53
*2580 FILLER_49_57
*2581 FILLER_49_6
*2582 FILLER_49_60
*2583 FILLER_49_63
*2584 FILLER_49_66
*2585 FILLER_49_69
*2586 FILLER_49_72
*2587 FILLER_49_75
*2588 FILLER_49_78
*2589 FILLER_49_81
*2590 FILLER_49_85
*2591 FILLER_49_88
*2592 FILLER_49_9
*2593 FILLER_4_100
*2594 FILLER_4_12
*2595 FILLER_4_136
*2596 FILLER_4_139
*2597 FILLER_4_141
*2598 FILLER_4_144
*2599 FILLER_4_147
*2600 FILLER_4_150
*2601 FILLER_4_153
*2602 FILLER_4_188
*2603 FILLER_4_197
*2604 FILLER_4_200
*2605 FILLER_4_210
*2606 FILLER_4_213
*2607 FILLER_4_216
*2608 FILLER_4_219
*2609 FILLER_4_222
*2610 FILLER_4_225
*2611 FILLER_4_228
*2612 FILLER_4_231
*2613 FILLER_4_234
*2614 FILLER_4_242
*2615 FILLER_4_245
*2616 FILLER_4_248
*2617 FILLER_4_251
*2618 FILLER_4_258
*2619 FILLER_4_261
*2620 FILLER_4_29
*2621 FILLER_4_3
*2622 FILLER_4_32
*2623 FILLER_4_35
*2624 FILLER_4_38
*2625 FILLER_4_41
*2626 FILLER_4_51
*2627 FILLER_4_54
*2628 FILLER_4_57
*2629 FILLER_4_6
*2630 FILLER_4_60
*2631 FILLER_4_63
*2632 FILLER_4_66
*2633 FILLER_4_69
*2634 FILLER_4_72
*2635 FILLER_4_9
*2636 FILLER_4_94
*2637 FILLER_4_97
*2638 FILLER_5_102
*2639 FILLER_5_105
*2640 FILLER_5_12
*2641 FILLER_5_133
*2642 FILLER_5_136
*2643 FILLER_5_139
*2644 FILLER_5_142
*2645 FILLER_5_145
*2646 FILLER_5_148
*2647 FILLER_5_15
*2648 FILLER_5_151
*2649 FILLER_5_154
*2650 FILLER_5_157
*2651 FILLER_5_18
*2652 FILLER_5_186
*2653 FILLER_5_189
*2654 FILLER_5_192
*2655 FILLER_5_195
*2656 FILLER_5_21
*2657 FILLER_5_233
*2658 FILLER_5_24
*2659 FILLER_5_249
*2660 FILLER_5_252
*2661 FILLER_5_255
*2662 FILLER_5_258
*2663 FILLER_5_261
*2664 FILLER_5_264
*2665 FILLER_5_267
*2666 FILLER_5_27
*2667 FILLER_5_270
*2668 FILLER_5_273
*2669 FILLER_5_276
*2670 FILLER_5_279
*2671 FILLER_5_281
*2672 FILLER_5_284
*2673 FILLER_5_287
*2674 FILLER_5_290
*2675 FILLER_5_293
*2676 FILLER_5_3
*2677 FILLER_5_30
*2678 FILLER_5_33
*2679 FILLER_5_36
*2680 FILLER_5_39
*2681 FILLER_5_42
*2682 FILLER_5_45
*2683 FILLER_5_48
*2684 FILLER_5_51
*2685 FILLER_5_54
*2686 FILLER_5_57
*2687 FILLER_5_6
*2688 FILLER_5_60
*2689 FILLER_5_63
*2690 FILLER_5_66
*2691 FILLER_5_69
*2692 FILLER_5_72
*2693 FILLER_5_75
*2694 FILLER_5_78
*2695 FILLER_5_81
*2696 FILLER_5_84
*2697 FILLER_5_87
*2698 FILLER_5_9
*2699 FILLER_5_90
*2700 FILLER_5_93
*2701 FILLER_5_96
*2702 FILLER_5_99
*2703 FILLER_6_100
*2704 FILLER_6_103
*2705 FILLER_6_106
*2706 FILLER_6_109
*2707 FILLER_6_112
*2708 FILLER_6_12
*2709 FILLER_6_123
*2710 FILLER_6_136
*2711 FILLER_6_139
*2712 FILLER_6_141
*2713 FILLER_6_144
*2714 FILLER_6_147
*2715 FILLER_6_15
*2716 FILLER_6_163
*2717 FILLER_6_166
*2718 FILLER_6_18
*2719 FILLER_6_182
*2720 FILLER_6_185
*2721 FILLER_6_188
*2722 FILLER_6_191
*2723 FILLER_6_194
*2724 FILLER_6_197
*2725 FILLER_6_201
*2726 FILLER_6_21
*2727 FILLER_6_231
*2728 FILLER_6_234
*2729 FILLER_6_24
*2730 FILLER_6_244
*2731 FILLER_6_247
*2732 FILLER_6_250
*2733 FILLER_6_253
*2734 FILLER_6_256
*2735 FILLER_6_27
*2736 FILLER_6_272
*2737 FILLER_6_29
*2738 FILLER_6_3
*2739 FILLER_6_32
*2740 FILLER_6_35
*2741 FILLER_6_38
*2742 FILLER_6_41
*2743 FILLER_6_44
*2744 FILLER_6_6
*2745 FILLER_6_64
*2746 FILLER_6_67
*2747 FILLER_6_83
*2748 FILLER_6_85
*2749 FILLER_6_88
*2750 FILLER_6_9
*2751 FILLER_7_106
*2752 FILLER_7_109
*2753 FILLER_7_113
*2754 FILLER_7_116
*2755 FILLER_7_119
*2756 FILLER_7_12
*2757 FILLER_7_122
*2758 FILLER_7_136
*2759 FILLER_7_139
*2760 FILLER_7_142
*2761 FILLER_7_15
*2762 FILLER_7_167
*2763 FILLER_7_172
*2764 FILLER_7_18
*2765 FILLER_7_185
*2766 FILLER_7_188
*2767 FILLER_7_191
*2768 FILLER_7_194
*2769 FILLER_7_218
*2770 FILLER_7_221
*2771 FILLER_7_225
*2772 FILLER_7_228
*2773 FILLER_7_231
*2774 FILLER_7_234
*2775 FILLER_7_237
*2776 FILLER_7_261
*2777 FILLER_7_264
*2778 FILLER_7_267
*2779 FILLER_7_281
*2780 FILLER_7_284
*2781 FILLER_7_3
*2782 FILLER_7_36
*2783 FILLER_7_39
*2784 FILLER_7_42
*2785 FILLER_7_45
*2786 FILLER_7_6
*2787 FILLER_7_66
*2788 FILLER_7_84
*2789 FILLER_7_9
*2790 FILLER_8_103
*2791 FILLER_8_106
*2792 FILLER_8_109
*2793 FILLER_8_112
*2794 FILLER_8_150
*2795 FILLER_8_190
*2796 FILLER_8_193
*2797 FILLER_8_197
*2798 FILLER_8_21
*2799 FILLER_8_211
*2800 FILLER_8_214
*2801 FILLER_8_222
*2802 FILLER_8_225
*2803 FILLER_8_228
*2804 FILLER_8_231
*2805 FILLER_8_234
*2806 FILLER_8_237
*2807 FILLER_8_240
*2808 FILLER_8_250
*2809 FILLER_8_253
*2810 FILLER_8_256
*2811 FILLER_8_262
*2812 FILLER_8_27
*2813 FILLER_8_286
*2814 FILLER_8_289
*2815 FILLER_8_3
*2816 FILLER_8_6
*2817 FILLER_8_61
*2818 FILLER_9_100
*2819 FILLER_9_103
*2820 FILLER_9_106
*2821 FILLER_9_113
*2822 FILLER_9_187
*2823 FILLER_9_190
*2824 FILLER_9_193
*2825 FILLER_9_196
*2826 FILLER_9_215
*2827 FILLER_9_218
*2828 FILLER_9_221
*2829 FILLER_9_225
*2830 FILLER_9_228
*2831 FILLER_9_23
*2832 FILLER_9_231
*2833 FILLER_9_234
*2834 FILLER_9_237
*2835 FILLER_9_240
*2836 FILLER_9_249
*2837 FILLER_9_252
*2838 FILLER_9_255
*2839 FILLER_9_258
*2840 FILLER_9_26
*2841 FILLER_9_261
*2842 FILLER_9_264
*2843 FILLER_9_281
*2844 FILLER_9_284
*2845 FILLER_9_287
*2846 FILLER_9_29
*2847 FILLER_9_290
*2848 FILLER_9_293
*2849 FILLER_9_3
*2850 FILLER_9_60
*2851 FILLER_9_63
*2852 FILLER_9_66
*2853 FILLER_9_69
*2854 FILLER_9_94
*2855 FILLER_9_97
*2856 PHY_EDGE_ROW_0_Left_50
*2857 PHY_EDGE_ROW_0_Right_0
*2858 PHY_EDGE_ROW_10_Left_60
*2859 PHY_EDGE_ROW_10_Right_10
*2860 PHY_EDGE_ROW_11_Left_61
*2861 PHY_EDGE_ROW_11_Right_11
*2862 PHY_EDGE_ROW_12_Left_62
*2863 PHY_EDGE_ROW_12_Right_12
*2864 PHY_EDGE_ROW_13_Left_63
*2865 PHY_EDGE_ROW_13_Right_13
*2866 PHY_EDGE_ROW_14_Left_64
*2867 PHY_EDGE_ROW_14_Right_14
*2868 PHY_EDGE_ROW_15_Left_65
*2869 PHY_EDGE_ROW_15_Right_15
*2870 PHY_EDGE_ROW_16_Left_66
*2871 PHY_EDGE_ROW_16_Right_16
*2872 PHY_EDGE_ROW_17_Left_67
*2873 PHY_EDGE_ROW_17_Right_17
*2874 PHY_EDGE_ROW_18_Left_68
*2875 PHY_EDGE_ROW_18_Right_18
*2876 PHY_EDGE_ROW_19_Left_69
*2877 PHY_EDGE_ROW_19_Right_19
*2878 PHY_EDGE_ROW_1_Left_51
*2879 PHY_EDGE_ROW_1_Right_1
*2880 PHY_EDGE_ROW_20_Left_70
*2881 PHY_EDGE_ROW_20_Right_20
*2882 PHY_EDGE_ROW_21_Left_71
*2883 PHY_EDGE_ROW_21_Right_21
*2884 PHY_EDGE_ROW_22_Left_72
*2885 PHY_EDGE_ROW_22_Right_22
*2886 PHY_EDGE_ROW_23_Left_73
*2887 PHY_EDGE_ROW_23_Right_23
*2888 PHY_EDGE_ROW_24_Left_74
*2889 PHY_EDGE_ROW_24_Right_24
*2890 PHY_EDGE_ROW_25_Left_75
*2891 PHY_EDGE_ROW_25_Right_25
*2892 PHY_EDGE_ROW_26_Left_76
*2893 PHY_EDGE_ROW_26_Right_26
*2894 PHY_EDGE_ROW_27_Left_77
*2895 PHY_EDGE_ROW_27_Right_27
*2896 PHY_EDGE_ROW_28_Left_78
*2897 PHY_EDGE_ROW_28_Right_28
*2898 PHY_EDGE_ROW_29_Left_79
*2899 PHY_EDGE_ROW_29_Right_29
*2900 PHY_EDGE_ROW_2_Left_52
*2901 PHY_EDGE_ROW_2_Right_2
*2902 PHY_EDGE_ROW_30_Left_80
*2903 PHY_EDGE_ROW_30_Right_30
*2904 PHY_EDGE_ROW_31_Left_81
*2905 PHY_EDGE_ROW_31_Right_31
*2906 PHY_EDGE_ROW_32_Left_82
*2907 PHY_EDGE_ROW_32_Right_32
*2908 PHY_EDGE_ROW_33_Left_83
*2909 PHY_EDGE_ROW_33_Right_33
*2910 PHY_EDGE_ROW_34_Left_84
*2911 PHY_EDGE_ROW_34_Right_34
*2912 PHY_EDGE_ROW_35_Left_85
*2913 PHY_EDGE_ROW_35_Right_35
*2914 PHY_EDGE_ROW_36_Left_86
*2915 PHY_EDGE_ROW_36_Right_36
*2916 PHY_EDGE_ROW_37_Left_87
*2917 PHY_EDGE_ROW_37_Right_37
*2918 PHY_EDGE_ROW_38_Left_88
*2919 PHY_EDGE_ROW_38_Right_38
*2920 PHY_EDGE_ROW_39_Left_89
*2921 PHY_EDGE_ROW_39_Right_39
*2922 PHY_EDGE_ROW_3_Left_53
*2923 PHY_EDGE_ROW_3_Right_3
*2924 PHY_EDGE_ROW_40_Left_90
*2925 PHY_EDGE_ROW_40_Right_40
*2926 PHY_EDGE_ROW_41_Left_91
*2927 PHY_EDGE_ROW_41_Right_41
*2928 PHY_EDGE_ROW_42_Left_92
*2929 PHY_EDGE_ROW_42_Right_42
*2930 PHY_EDGE_ROW_43_Left_93
*2931 PHY_EDGE_ROW_43_Right_43
*2932 PHY_EDGE_ROW_44_Left_94
*2933 PHY_EDGE_ROW_44_Right_44
*2934 PHY_EDGE_ROW_45_Left_95
*2935 PHY_EDGE_ROW_45_Right_45
*2936 PHY_EDGE_ROW_46_Left_96
*2937 PHY_EDGE_ROW_46_Right_46
*2938 PHY_EDGE_ROW_47_Left_97
*2939 PHY_EDGE_ROW_47_Right_47
*2940 PHY_EDGE_ROW_48_Left_98
*2941 PHY_EDGE_ROW_48_Right_48
*2942 PHY_EDGE_ROW_49_Left_99
*2943 PHY_EDGE_ROW_49_Right_49
*2944 PHY_EDGE_ROW_4_Left_54
*2945 PHY_EDGE_ROW_4_Right_4
*2946 PHY_EDGE_ROW_5_Left_55
*2947 PHY_EDGE_ROW_5_Right_5
*2948 PHY_EDGE_ROW_6_Left_56
*2949 PHY_EDGE_ROW_6_Right_6
*2950 PHY_EDGE_ROW_7_Left_57
*2951 PHY_EDGE_ROW_7_Right_7
*2952 PHY_EDGE_ROW_8_Left_58
*2953 PHY_EDGE_ROW_8_Right_8
*2954 PHY_EDGE_ROW_9_Left_59
*2955 PHY_EDGE_ROW_9_Right_9
*2956 TAP_TAPCELL_ROW_0_100
*2957 TAP_TAPCELL_ROW_0_101
*2958 TAP_TAPCELL_ROW_0_102
*2959 TAP_TAPCELL_ROW_0_103
*2960 TAP_TAPCELL_ROW_0_104
*2961 TAP_TAPCELL_ROW_0_105
*2962 TAP_TAPCELL_ROW_0_106
*2963 TAP_TAPCELL_ROW_0_107
*2964 TAP_TAPCELL_ROW_0_108
*2965 TAP_TAPCELL_ROW_0_109
*2966 TAP_TAPCELL_ROW_10_155
*2967 TAP_TAPCELL_ROW_10_156
*2968 TAP_TAPCELL_ROW_10_157
*2969 TAP_TAPCELL_ROW_10_158
*2970 TAP_TAPCELL_ROW_10_159
*2971 TAP_TAPCELL_ROW_11_160
*2972 TAP_TAPCELL_ROW_11_161
*2973 TAP_TAPCELL_ROW_11_162
*2974 TAP_TAPCELL_ROW_11_163
*2975 TAP_TAPCELL_ROW_11_164
*2976 TAP_TAPCELL_ROW_12_165
*2977 TAP_TAPCELL_ROW_12_166
*2978 TAP_TAPCELL_ROW_12_167
*2979 TAP_TAPCELL_ROW_12_168
*2980 TAP_TAPCELL_ROW_12_169
*2981 TAP_TAPCELL_ROW_13_170
*2982 TAP_TAPCELL_ROW_13_171
*2983 TAP_TAPCELL_ROW_13_172
*2984 TAP_TAPCELL_ROW_13_173
*2985 TAP_TAPCELL_ROW_13_174
*2986 TAP_TAPCELL_ROW_14_175
*2987 TAP_TAPCELL_ROW_14_176
*2988 TAP_TAPCELL_ROW_14_177
*2989 TAP_TAPCELL_ROW_14_178
*2990 TAP_TAPCELL_ROW_14_179
*2991 TAP_TAPCELL_ROW_15_180
*2992 TAP_TAPCELL_ROW_15_181
*2993 TAP_TAPCELL_ROW_15_182
*2994 TAP_TAPCELL_ROW_15_183
*2995 TAP_TAPCELL_ROW_15_184
*2996 TAP_TAPCELL_ROW_16_185
*2997 TAP_TAPCELL_ROW_16_186
*2998 TAP_TAPCELL_ROW_16_187
*2999 TAP_TAPCELL_ROW_16_188
*3000 TAP_TAPCELL_ROW_16_189
*3001 TAP_TAPCELL_ROW_17_190
*3002 TAP_TAPCELL_ROW_17_191
*3003 TAP_TAPCELL_ROW_17_192
*3004 TAP_TAPCELL_ROW_17_193
*3005 TAP_TAPCELL_ROW_17_194
*3006 TAP_TAPCELL_ROW_18_195
*3007 TAP_TAPCELL_ROW_18_196
*3008 TAP_TAPCELL_ROW_18_197
*3009 TAP_TAPCELL_ROW_18_198
*3010 TAP_TAPCELL_ROW_18_199
*3011 TAP_TAPCELL_ROW_19_200
*3012 TAP_TAPCELL_ROW_19_201
*3013 TAP_TAPCELL_ROW_19_202
*3014 TAP_TAPCELL_ROW_19_203
*3015 TAP_TAPCELL_ROW_19_204
*3016 TAP_TAPCELL_ROW_1_110
*3017 TAP_TAPCELL_ROW_1_111
*3018 TAP_TAPCELL_ROW_1_112
*3019 TAP_TAPCELL_ROW_1_113
*3020 TAP_TAPCELL_ROW_1_114
*3021 TAP_TAPCELL_ROW_20_205
*3022 TAP_TAPCELL_ROW_20_206
*3023 TAP_TAPCELL_ROW_20_207
*3024 TAP_TAPCELL_ROW_20_208
*3025 TAP_TAPCELL_ROW_20_209
*3026 TAP_TAPCELL_ROW_21_210
*3027 TAP_TAPCELL_ROW_21_211
*3028 TAP_TAPCELL_ROW_21_212
*3029 TAP_TAPCELL_ROW_21_213
*3030 TAP_TAPCELL_ROW_21_214
*3031 TAP_TAPCELL_ROW_22_215
*3032 TAP_TAPCELL_ROW_22_216
*3033 TAP_TAPCELL_ROW_22_217
*3034 TAP_TAPCELL_ROW_22_218
*3035 TAP_TAPCELL_ROW_22_219
*3036 TAP_TAPCELL_ROW_23_220
*3037 TAP_TAPCELL_ROW_23_221
*3038 TAP_TAPCELL_ROW_23_222
*3039 TAP_TAPCELL_ROW_23_223
*3040 TAP_TAPCELL_ROW_23_224
*3041 TAP_TAPCELL_ROW_24_225
*3042 TAP_TAPCELL_ROW_24_226
*3043 TAP_TAPCELL_ROW_24_227
*3044 TAP_TAPCELL_ROW_24_228
*3045 TAP_TAPCELL_ROW_24_229
*3046 TAP_TAPCELL_ROW_25_230
*3047 TAP_TAPCELL_ROW_25_231
*3048 TAP_TAPCELL_ROW_25_232
*3049 TAP_TAPCELL_ROW_25_233
*3050 TAP_TAPCELL_ROW_25_234
*3051 TAP_TAPCELL_ROW_26_235
*3052 TAP_TAPCELL_ROW_26_236
*3053 TAP_TAPCELL_ROW_26_237
*3054 TAP_TAPCELL_ROW_26_238
*3055 TAP_TAPCELL_ROW_26_239
*3056 TAP_TAPCELL_ROW_27_240
*3057 TAP_TAPCELL_ROW_27_241
*3058 TAP_TAPCELL_ROW_27_242
*3059 TAP_TAPCELL_ROW_27_243
*3060 TAP_TAPCELL_ROW_27_244
*3061 TAP_TAPCELL_ROW_28_245
*3062 TAP_TAPCELL_ROW_28_246
*3063 TAP_TAPCELL_ROW_28_247
*3064 TAP_TAPCELL_ROW_28_248
*3065 TAP_TAPCELL_ROW_28_249
*3066 TAP_TAPCELL_ROW_29_250
*3067 TAP_TAPCELL_ROW_29_251
*3068 TAP_TAPCELL_ROW_29_252
*3069 TAP_TAPCELL_ROW_29_253
*3070 TAP_TAPCELL_ROW_29_254
*3071 TAP_TAPCELL_ROW_2_115
*3072 TAP_TAPCELL_ROW_2_116
*3073 TAP_TAPCELL_ROW_2_117
*3074 TAP_TAPCELL_ROW_2_118
*3075 TAP_TAPCELL_ROW_2_119
*3076 TAP_TAPCELL_ROW_30_255
*3077 TAP_TAPCELL_ROW_30_256
*3078 TAP_TAPCELL_ROW_30_257
*3079 TAP_TAPCELL_ROW_30_258
*3080 TAP_TAPCELL_ROW_30_259
*3081 TAP_TAPCELL_ROW_31_260
*3082 TAP_TAPCELL_ROW_31_261
*3083 TAP_TAPCELL_ROW_31_262
*3084 TAP_TAPCELL_ROW_31_263
*3085 TAP_TAPCELL_ROW_31_264
*3086 TAP_TAPCELL_ROW_32_265
*3087 TAP_TAPCELL_ROW_32_266
*3088 TAP_TAPCELL_ROW_32_267
*3089 TAP_TAPCELL_ROW_32_268
*3090 TAP_TAPCELL_ROW_32_269
*3091 TAP_TAPCELL_ROW_33_270
*3092 TAP_TAPCELL_ROW_33_271
*3093 TAP_TAPCELL_ROW_33_272
*3094 TAP_TAPCELL_ROW_33_273
*3095 TAP_TAPCELL_ROW_33_274
*3096 TAP_TAPCELL_ROW_34_275
*3097 TAP_TAPCELL_ROW_34_276
*3098 TAP_TAPCELL_ROW_34_277
*3099 TAP_TAPCELL_ROW_34_278
*3100 TAP_TAPCELL_ROW_34_279
*3101 TAP_TAPCELL_ROW_35_280
*3102 TAP_TAPCELL_ROW_35_281
*3103 TAP_TAPCELL_ROW_35_282
*3104 TAP_TAPCELL_ROW_35_283
*3105 TAP_TAPCELL_ROW_35_284
*3106 TAP_TAPCELL_ROW_36_285
*3107 TAP_TAPCELL_ROW_36_286
*3108 TAP_TAPCELL_ROW_36_287
*3109 TAP_TAPCELL_ROW_36_288
*3110 TAP_TAPCELL_ROW_36_289
*3111 TAP_TAPCELL_ROW_37_290
*3112 TAP_TAPCELL_ROW_37_291
*3113 TAP_TAPCELL_ROW_37_292
*3114 TAP_TAPCELL_ROW_37_293
*3115 TAP_TAPCELL_ROW_37_294
*3116 TAP_TAPCELL_ROW_38_295
*3117 TAP_TAPCELL_ROW_38_296
*3118 TAP_TAPCELL_ROW_38_297
*3119 TAP_TAPCELL_ROW_38_298
*3120 TAP_TAPCELL_ROW_38_299
*3121 TAP_TAPCELL_ROW_39_300
*3122 TAP_TAPCELL_ROW_39_301
*3123 TAP_TAPCELL_ROW_39_302
*3124 TAP_TAPCELL_ROW_39_303
*3125 TAP_TAPCELL_ROW_39_304
*3126 TAP_TAPCELL_ROW_3_120
*3127 TAP_TAPCELL_ROW_3_121
*3128 TAP_TAPCELL_ROW_3_122
*3129 TAP_TAPCELL_ROW_3_123
*3130 TAP_TAPCELL_ROW_3_124
*3131 TAP_TAPCELL_ROW_40_305
*3132 TAP_TAPCELL_ROW_40_306
*3133 TAP_TAPCELL_ROW_40_307
*3134 TAP_TAPCELL_ROW_40_308
*3135 TAP_TAPCELL_ROW_40_309
*3136 TAP_TAPCELL_ROW_41_310
*3137 TAP_TAPCELL_ROW_41_311
*3138 TAP_TAPCELL_ROW_41_312
*3139 TAP_TAPCELL_ROW_41_313
*3140 TAP_TAPCELL_ROW_41_314
*3141 TAP_TAPCELL_ROW_42_315
*3142 TAP_TAPCELL_ROW_42_316
*3143 TAP_TAPCELL_ROW_42_317
*3144 TAP_TAPCELL_ROW_42_318
*3145 TAP_TAPCELL_ROW_42_319
*3146 TAP_TAPCELL_ROW_43_320
*3147 TAP_TAPCELL_ROW_43_321
*3148 TAP_TAPCELL_ROW_43_322
*3149 TAP_TAPCELL_ROW_43_323
*3150 TAP_TAPCELL_ROW_43_324
*3151 TAP_TAPCELL_ROW_44_325
*3152 TAP_TAPCELL_ROW_44_326
*3153 TAP_TAPCELL_ROW_44_327
*3154 TAP_TAPCELL_ROW_44_328
*3155 TAP_TAPCELL_ROW_44_329
*3156 TAP_TAPCELL_ROW_45_330
*3157 TAP_TAPCELL_ROW_45_331
*3158 TAP_TAPCELL_ROW_45_332
*3159 TAP_TAPCELL_ROW_45_333
*3160 TAP_TAPCELL_ROW_45_334
*3161 TAP_TAPCELL_ROW_46_335
*3162 TAP_TAPCELL_ROW_46_336
*3163 TAP_TAPCELL_ROW_46_337
*3164 TAP_TAPCELL_ROW_46_338
*3165 TAP_TAPCELL_ROW_46_339
*3166 TAP_TAPCELL_ROW_47_340
*3167 TAP_TAPCELL_ROW_47_341
*3168 TAP_TAPCELL_ROW_47_342
*3169 TAP_TAPCELL_ROW_47_343
*3170 TAP_TAPCELL_ROW_47_344
*3171 TAP_TAPCELL_ROW_48_345
*3172 TAP_TAPCELL_ROW_48_346
*3173 TAP_TAPCELL_ROW_48_347
*3174 TAP_TAPCELL_ROW_48_348
*3175 TAP_TAPCELL_ROW_48_349
*3176 TAP_TAPCELL_ROW_49_350
*3177 TAP_TAPCELL_ROW_49_351
*3178 TAP_TAPCELL_ROW_49_352
*3179 TAP_TAPCELL_ROW_49_353
*3180 TAP_TAPCELL_ROW_49_354
*3181 TAP_TAPCELL_ROW_49_355
*3182 TAP_TAPCELL_ROW_49_356
*3183 TAP_TAPCELL_ROW_49_357
*3184 TAP_TAPCELL_ROW_49_358
*3185 TAP_TAPCELL_ROW_49_359
*3186 TAP_TAPCELL_ROW_4_125
*3187 TAP_TAPCELL_ROW_4_126
*3188 TAP_TAPCELL_ROW_4_127
*3189 TAP_TAPCELL_ROW_4_128
*3190 TAP_TAPCELL_ROW_4_129
*3191 TAP_TAPCELL_ROW_5_130
*3192 TAP_TAPCELL_ROW_5_131
*3193 TAP_TAPCELL_ROW_5_132
*3194 TAP_TAPCELL_ROW_5_133
*3195 TAP_TAPCELL_ROW_5_134
*3196 TAP_TAPCELL_ROW_6_135
*3197 TAP_TAPCELL_ROW_6_136
*3198 TAP_TAPCELL_ROW_6_137
*3199 TAP_TAPCELL_ROW_6_138
*3200 TAP_TAPCELL_ROW_6_139
*3201 TAP_TAPCELL_ROW_7_140
*3202 TAP_TAPCELL_ROW_7_141
*3203 TAP_TAPCELL_ROW_7_142
*3204 TAP_TAPCELL_ROW_7_143
*3205 TAP_TAPCELL_ROW_7_144
*3206 TAP_TAPCELL_ROW_8_145
*3207 TAP_TAPCELL_ROW_8_146
*3208 TAP_TAPCELL_ROW_8_147
*3209 TAP_TAPCELL_ROW_8_148
*3210 TAP_TAPCELL_ROW_8_149
*3211 TAP_TAPCELL_ROW_9_150
*3212 TAP_TAPCELL_ROW_9_151
*3213 TAP_TAPCELL_ROW_9_152
*3214 TAP_TAPCELL_ROW_9_153
*3215 TAP_TAPCELL_ROW_9_154
*3216 _0518_
*3217 _0519_
*3218 _0520_
*3219 _0521_
*3220 _0522_
*3221 _0523_
*3222 _0524_
*3223 _0525_
*3224 _0526_
*3225 _0527_
*3226 _0528_
*3227 _0529_
*3228 _0530_
*3229 _0531_
*3230 _0532_
*3231 _0533_
*3232 _0534_
*3233 _0535_
*3234 _0536_
*3235 _0537_
*3236 _0538_
*3237 _0539_
*3238 _0540_
*3239 _0541_
*3240 _0542_
*3241 _0543_
*3242 _0544_
*3243 _0545_
*3244 _0546_
*3245 _0547_
*3246 _0548_
*3247 _0549_
*3248 _0550_
*3249 _0551_
*3250 _0552_
*3251 _0553_
*3252 _0554_
*3253 _0555_
*3254 _0556_
*3255 _0557_
*3256 _0558_
*3257 _0559_
*3258 _0560_
*3259 _0561_
*3260 _0562_
*3261 _0563_
*3262 _0564_
*3263 _0565_
*3264 _0566_
*3265 _0567_
*3266 _0568_
*3267 _0569_
*3268 _0570_
*3269 _0571_
*3270 _0572_
*3271 _0573_
*3272 _0574_
*3273 _0575_
*3274 _0576_
*3275 _0577_
*3276 _0578_
*3277 _0579_
*3278 _0580_
*3279 _0581_
*3280 _0582_
*3281 _0583_
*3282 _0584_
*3283 _0585_
*3284 _0586_
*3285 _0587_
*3286 _0588_
*3287 _0589_
*3288 _0590_
*3289 _0591_
*3290 _0592_
*3291 _0593_
*3292 _0594_
*3293 _0595_
*3294 _0596_
*3295 _0597_
*3296 _0598_
*3297 _0599_
*3298 _0600_
*3299 _0601_
*3300 _0602_
*3301 _0603_
*3302 _0604_
*3303 _0605_
*3304 _0606_
*3305 _0607_
*3306 _0608_
*3307 _0609_
*3308 _0610_
*3309 _0611_
*3310 _0612_
*3311 _0613_
*3312 _0614_
*3313 _0615_
*3314 _0616_
*3315 _0617_
*3316 _0618_
*3317 _0619_
*3318 _0620_
*3319 _0621_
*3320 _0622_
*3321 _0623_
*3322 _0624_
*3323 _0625_
*3324 _0626_
*3325 _0627_
*3326 _0628_
*3327 _0629_
*3328 _0630_
*3329 _0631_
*3330 _0632_
*3331 _0633_
*3332 _0634_
*3333 _0635_
*3334 _0636_
*3335 _0637_
*3336 _0638_
*3337 _0639_
*3338 _0640_
*3339 _0641_
*3340 _0642_
*3341 _0643_
*3342 _0644_
*3343 _0645_
*3344 _0646_
*3345 _0647_
*3346 _0648_
*3347 _0649_
*3348 _0650_
*3349 _0651_
*3350 _0652_
*3351 _0653_
*3352 _0654_
*3353 _0655_
*3354 _0656_
*3355 _0657_
*3356 _0658_
*3357 _0659_
*3358 _0660_
*3359 _0661_
*3360 _0662_
*3361 _0663_
*3362 _0664_
*3363 _0665_
*3364 _0666_
*3365 _0667_
*3366 _0668_
*3367 _0669_
*3368 _0670_
*3369 _0671_
*3370 _0672_
*3371 _0673_
*3372 _0674_
*3373 _0675_
*3374 _0676_
*3375 _0677_
*3376 _0678_
*3377 _0679_
*3378 _0680_
*3379 _0681_
*3380 _0682_
*3381 _0683_
*3382 _0684_
*3383 _0685_
*3384 _0686_
*3385 _0687_
*3386 _0688_
*3387 _0689_
*3388 _0690_
*3389 _0691_
*3390 _0692_
*3391 _0693_
*3392 _0694_
*3393 _0695_
*3394 _0696_
*3395 _0697_
*3396 _0698_
*3397 _0699_
*3398 _0700_
*3399 _0701_
*3400 _0702_
*3401 _0703_
*3402 _0704_
*3403 _0705_
*3404 _0706_
*3405 _0707_
*3406 _0708_
*3407 _0709_
*3408 _0710_
*3409 _0711_
*3410 _0712_
*3411 _0713_
*3412 _0714_
*3413 _0715_
*3414 _0716_
*3415 _0717_
*3416 _0718_
*3417 _0719_
*3418 _0720_
*3419 _0721_
*3420 _0722_
*3421 _0723_
*3422 _0724_
*3423 _0725_
*3424 _0726_
*3425 _0727_
*3426 _0728_
*3427 _0729_
*3428 _0730_
*3429 _0731_
*3430 _0732_
*3431 _0733_
*3432 _0734_
*3433 _0735_
*3434 _0736_
*3435 _0737_
*3436 _0738_
*3437 _0739_
*3438 _0740_
*3439 _0741_
*3440 _0742_
*3441 _0743_
*3442 _0744_
*3443 _0745_
*3444 _0746_
*3445 _0747_
*3446 _0748_
*3447 _0749_
*3448 _0750_
*3449 _0751_
*3450 _0752_
*3451 _0753_
*3452 _0754_
*3453 _0755_
*3454 _0756_
*3455 _0757_
*3456 _0758_
*3457 _0759_
*3458 _0760_
*3459 _0761_
*3460 _0762_
*3461 _0763_
*3462 _0764_
*3463 _0765_
*3464 _0766_
*3465 _0767_
*3466 _0768_
*3467 _0769_
*3468 _0770_
*3469 _0771_
*3470 _0772_
*3471 _0773_
*3472 _0774_
*3473 _0775_
*3474 _0776_
*3475 _0777_
*3476 _0778_
*3477 _0779_
*3478 _0780_
*3479 _0781_
*3480 _0782_
*3481 _0783_
*3482 _0784_
*3483 _0785_
*3484 _0786_
*3485 _0787_
*3486 _0788_
*3487 _0789_
*3488 _0790_
*3489 _0791_
*3490 _0792_
*3491 _0793_
*3492 _0794_
*3493 _0795_
*3494 _0796_
*3495 _0797_
*3496 _0798_
*3497 _0799_
*3498 _0800_
*3499 _0801_
*3500 _0802_
*3501 _0803_
*3502 _0804_
*3503 _0805_
*3504 _0806_
*3505 _0807_
*3506 _0808_
*3507 _0809_
*3508 _0810_
*3509 _0811_
*3510 _0812_
*3511 _0813_
*3512 _0814_
*3513 _0815_
*3514 _0816_
*3515 _0817_
*3516 _0818_
*3517 _0819_
*3518 _0820_
*3519 _0821_
*3520 _0822_
*3521 _0823_
*3522 _0824_
*3523 _0825_
*3524 _0826_
*3525 _0827_
*3526 _0828_
*3527 _0829_
*3528 _0830_
*3529 _0831_
*3530 _0832_
*3531 _0833_
*3532 _0834_
*3533 _0835_
*3534 _0836_
*3535 _0837_
*3536 _0838_
*3537 _0839_
*3538 _0840_
*3539 _0841_
*3540 _0842_
*3541 _0843_
*3542 _0844_
*3543 _0845_
*3544 _0846_
*3545 _0847_
*3546 _0848_
*3547 _0849_
*3548 _0850_
*3549 _0851_
*3550 _0852_
*3551 _0853_
*3552 _0854_
*3553 _0855_
*3554 _0856_
*3555 _0857_
*3556 _0858_
*3557 _0859_
*3558 _0860_
*3559 _0861_
*3560 _0862_
*3561 _0863_
*3562 _0864_
*3563 _0865_
*3564 _0866_
*3565 _0867_
*3566 _0868_
*3567 _0869_
*3568 _0870_
*3569 _0871_
*3570 _0872_
*3571 _0873_
*3572 _0874_
*3573 _0875_
*3574 _0876_
*3575 _0877_
*3576 _0878_
*3577 _0879_
*3578 _0880_
*3579 _0881_
*3580 _0882_
*3581 _0883_
*3582 _0884_
*3583 _0885_
*3584 _0886_
*3585 _0887_
*3586 _0888_
*3587 _0889_
*3588 _0890_
*3589 _0891_
*3590 _0892_
*3591 _0893_
*3592 _0894_
*3593 _0895_
*3594 _0896_
*3595 _0897_
*3596 _0898_
*3597 _0899_
*3598 _0900_
*3599 _0901_
*3600 _0902_
*3601 _0903_
*3602 _0904_
*3603 _0905_
*3604 _0906_
*3605 _0907_
*3606 _0908_
*3607 _0909_
*3608 _0910_
*3609 _0911_
*3610 _0912_
*3611 _0913_
*3612 _0914_
*3613 _0915_
*3614 _0916_
*3615 _0917_
*3616 _0918_
*3617 _0919_
*3618 _0920_
*3619 _0921_
*3620 _0922_
*3621 _0923_
*3622 _0924_
*3623 _0925_
*3624 _0926_
*3625 _0927_
*3626 _0928_
*3627 _0929_
*3628 _0930_
*3629 _0931_
*3630 _0932_
*3631 _0933_
*3632 _0934_
*3633 _0935_
*3634 _0936_
*3635 _0937_
*3636 _0938_
*3637 _0939_
*3638 _0940_
*3639 _0941_
*3640 _0942_
*3641 _0943_
*3642 _0944_
*3643 _0945_
*3644 _0946_
*3645 _0947_
*3646 _0948_
*3647 _0949_
*3648 _0950_
*3649 _0951_
*3650 _0952_
*3651 _0953_
*3652 _0954_
*3653 _0955_
*3654 _0956_
*3655 _0957_
*3656 _0958_
*3657 _0959_
*3658 _0960_
*3659 _0961_
*3660 _0962_
*3661 _0963_
*3662 _0964_
*3663 _0965_
*3664 _0966_
*3665 _0967_
*3666 _0968_
*3667 _0969_
*3668 _0970_
*3669 _0971_
*3670 _0972_
*3671 _0973_
*3672 _0974_
*3673 _0975_
*3674 _0976_
*3675 _0977_
*3676 _0978_
*3677 _0979_
*3678 _0980_
*3679 _0981_
*3680 _0982_
*3681 _0983_
*3682 _0984_
*3683 _0985_
*3684 _0986_
*3685 _0987_
*3686 _0988_
*3687 _0989_
*3688 _0990_
*3689 _0991_
*3690 _0992_
*3691 _0993_
*3692 _0994_
*3693 _0995_
*3694 _0996_
*3695 _0997_
*3696 _0998_
*3697 _0999_
*3698 _1000_
*3699 _1001_
*3700 _1002_
*3701 _1003_
*3702 _1004_
*3703 _1005_
*3704 _1006_
*3705 _1007_
*3706 _1008_
*3707 _1009_
*3708 _1010_
*3709 _1011_
*3710 _1012_
*3711 _1013_
*3712 _1014_
*3713 _1015_
*3714 _1016_
*3715 _1017_
*3716 _1018_
*3717 _1019_
*3718 _1020_
*3719 _1021_
*3720 _1022_
*3721 _1023_
*3722 _1024_
*3723 _1025_
*3724 _1026_
*3725 _1027_
*3726 _1028_
*3727 _1029_
*3728 _1030_
*3729 _1031_
*3730 _1032_
*3731 _1033_
*3732 _1034_
*3733 _1035_
*3734 _1036_
*3735 _1037_
*3736 _1038_
*3737 _1039_
*3738 _1040_
*3739 _1041_
*3740 _1042_
*3741 _1043_
*3742 _1044_
*3743 _1045_
*3744 _1046_
*3745 _1047_
*3746 _1048_
*3747 _1049_
*3748 _1050_
*3749 _1051_
*3750 _1052_
*3751 _1053_
*3752 _1054_
*3753 _1055_
*3754 _1056_
*3755 _1057_
*3756 _1058_
*3757 _1059_
*3758 _1060_
*3759 _1061_
*3760 _1062_
*3761 _1063_
*3762 _1064_
*3763 _1065_
*3764 _1066_
*3765 _1067_
*3766 _1068_
*3767 _1069_
*3768 _1070_
*3769 _1071_
*3770 _1072_
*3771 _1073_
*3772 _1074_
*3773 _1075_
*3774 _1076_
*3775 _1077_
*3776 _1078_
*3777 _1079_
*3778 _1080_
*3779 _1081_
*3780 _1082_
*3781 _1083_
*3782 _1084_
*3783 _1085_
*3784 _1086_
*3785 _1087_
*3786 _1088_
*3787 _1089_
*3788 _1090_
*3789 _1091_
*3790 _1092_
*3791 _1093_
*3792 _1094_
*3793 _1095_
*3794 _1096_
*3795 _1097_
*3796 _1098_
*3797 _1099_
*3798 _1100_
*3799 _1101_
*3800 _1102_
*3801 _1103_
*3802 _1104_
*3803 _1105_
*3804 _1106_
*3805 _1107_
*3806 _1108_
*3807 _1109_
*3808 _1110_
*3809 _1111_
*3810 _1112_
*3811 _1113_
*3812 _1114_
*3813 _1115_
*3814 _1116_
*3815 _1117_
*3816 _1118_
*3817 _1119_
*3818 _1120_
*3819 _1121_
*3820 _1122_
*3821 _1123_
*3822 _1124_
*3823 _1125_
*3824 _1126_
*3825 _1127_
*3826 _1128_
*3827 _1129_
*3828 _1130_
*3829 _1131_
*3830 _1132_
*3831 _1133_
*3832 _1134_
*3833 _1135_
*3834 _1136_
*3835 _1137_
*3836 _1138_
*3837 _1139_
*3838 _1140_
*3839 _1141_
*3840 _1142_
*3841 _1143_
*3842 _1144_
*3843 _1145_
*3844 _1146_
*3845 _1147_
*3846 _1148_
*3847 _1149_
*3848 _1150_
*3849 _1151_
*3850 _1152_
*3851 _1153_
*3852 _1154_
*3853 _1155_
*3854 _1156_
*3855 _1157_
*3856 _1158_
*3857 _1159_
*3858 _1160_
*3859 _1161_
*3860 _1162_
*3861 _1163_
*3862 _1164_
*3863 _1165_
*3864 _1166_
*3865 _1167_
*3866 _1168_
*3867 _1169_
*3868 _1170_
*3869 _1171_
*3870 _1172_
*3871 _1173_
*3872 _1174_
*3873 _1175_
*3874 _1176_
*3875 _1177_
*3876 _1178_
*3877 _1179_
*3878 _1180_
*3879 _1181_
*3880 _1182_
*3881 _1183_
*3882 _1184_
*3883 _1185_
*3884 _1186_
*3885 _1187_
*3886 _1188_
*3887 _1189_
*3888 _1190_
*3889 _1191_
*3890 _1192_
*3891 _1193_
*3892 _1194_
*3893 _1195_
*3894 _1196_
*3895 _1197_
*3896 _1198_
*3897 _1199_
*3898 _1200_
*3899 _1200__109
*3900 _1201_
*3901 _1202_
*3902 _1202__110
*3903 _1203_
*3904 _1204_
*3905 _1205_
*3906 _1206_
*3907 _1207_
*3908 _1208_
*3909 _1209_
*3910 _1210_
*3911 _1211_
*3912 _1212_
*3913 _1213_
*3914 _1214_
*3915 _1215_
*3916 _1216_
*3917 _1217_
*3918 _1218_
*3919 _1219_
*3920 _1220_
*3921 _1221_
*3922 _1222_
*3923 _1223_
*3924 _1224_
*3925 _1225_
*3926 _1226_
*3927 _1227_
*3928 _1228_
*3929 _1229_
*3930 _1230_
*3931 _1231_
*3932 _1232_
*3933 _1233_
*3934 _1234_
*3935 _1235_
*3936 _1236_
*3937 _1237_
*3938 _1238_
*3939 _1239_
*3940 _1240_
*3941 _1241_
*3942 _1242_
*3943 _1243_
*3944 clkbuf_0_rd_clk
*3945 clkbuf_0_wr_clk
*3946 clkbuf_2_0__f_rd_clk
*3947 clkbuf_2_1__f_rd_clk
*3948 clkbuf_2_2__f_rd_clk
*3949 clkbuf_2_3__f_rd_clk
*3950 clkbuf_4_0_0_wr_clk
*3951 clkbuf_4_10_0_wr_clk
*3952 clkbuf_4_11_0_wr_clk
*3953 clkbuf_4_12_0_wr_clk
*3954 clkbuf_4_13_0_wr_clk
*3955 clkbuf_4_14_0_wr_clk
*3956 clkbuf_4_15_0_wr_clk
*3957 clkbuf_4_1_0_wr_clk
*3958 clkbuf_4_2_0_wr_clk
*3959 clkbuf_4_3_0_wr_clk
*3960 clkbuf_4_4_0_wr_clk
*3961 clkbuf_4_5_0_wr_clk
*3962 clkbuf_4_6_0_wr_clk
*3963 clkbuf_4_7_0_wr_clk
*3964 clkbuf_4_8_0_wr_clk
*3965 clkbuf_4_9_0_wr_clk
*3966 clkbuf_5_0__f_wr_clk
*3967 clkbuf_5_10__f_wr_clk
*3968 clkbuf_5_11__f_wr_clk
*3969 clkbuf_5_12__f_wr_clk
*3970 clkbuf_5_13__f_wr_clk
*3971 clkbuf_5_14__f_wr_clk
*3972 clkbuf_5_15__f_wr_clk
*3973 clkbuf_5_16__f_wr_clk
*3974 clkbuf_5_17__f_wr_clk
*3975 clkbuf_5_18__f_wr_clk
*3976 clkbuf_5_19__f_wr_clk
*3977 clkbuf_5_1__f_wr_clk
*3978 clkbuf_5_20__f_wr_clk
*3979 clkbuf_5_21__f_wr_clk
*3980 clkbuf_5_22__f_wr_clk
*3981 clkbuf_5_23__f_wr_clk
*3982 clkbuf_5_24__f_wr_clk
*3983 clkbuf_5_25__f_wr_clk
*3984 clkbuf_5_26__f_wr_clk
*3985 clkbuf_5_27__f_wr_clk
*3986 clkbuf_5_28__f_wr_clk
*3987 clkbuf_5_29__f_wr_clk
*3988 clkbuf_5_2__f_wr_clk
*3989 clkbuf_5_30__f_wr_clk
*3990 clkbuf_5_31__f_wr_clk
*3991 clkbuf_5_3__f_wr_clk
*3992 clkbuf_5_4__f_wr_clk
*3993 clkbuf_5_5__f_wr_clk
*3994 clkbuf_5_6__f_wr_clk
*3995 clkbuf_5_7__f_wr_clk
*3996 clkbuf_5_8__f_wr_clk
*3997 clkbuf_5_9__f_wr_clk
*3998 clkload0
*3999 clkload1
*4000 clkload2
*4001 clkload3
*4002 clkload4
*4003 clkload5
*4004 clkload6
*4005 clkload7
*4006 clkload8
*4007 clkload9
*4008 fanout100
*4009 fanout101
*4010 fanout102
*4011 fanout103
*4012 fanout104
*4013 fanout105
*4014 fanout106
*4015 fanout107
*4016 fanout108
*4017 fanout59
*4018 fanout60
*4019 fanout61
*4020 fanout62
*4021 fanout63
*4022 fanout64
*4023 fanout65
*4024 fanout66
*4025 fanout68
*4026 fanout70
*4027 fanout72
*4028 fanout74
*4029 fanout75
*4030 fanout76
*4031 fanout77
*4032 fanout78
*4033 fanout79
*4034 fanout80
*4035 fanout81
*4036 fanout82
*4037 fanout83
*4038 fanout84
*4039 fanout85
*4040 fanout86
*4041 fanout87
*4042 fanout88
*4043 fanout89
*4044 fanout90
*4045 fanout91
*4046 fanout92
*4047 fanout93
*4048 fanout94
*4049 fanout95
*4050 fanout96
*4051 fanout97
*4052 fanout98
*4053 fanout99
*4054 hold111
*4055 input1
*4056 input10
*4057 input11
*4058 input12
*4059 input13
*4060 input14
*4061 input15
*4062 input16
*4063 input17
*4064 input18
*4065 input19
*4066 input2
*4067 input20
*4068 input3
*4069 input4
*4070 input5
*4071 input6
*4072 input7
*4073 input8
*4074 input9
*4075 load_slew67
*4076 load_slew69
*4077 load_slew71
*4078 load_slew73
*4079 max_cap41
*4080 max_cap42
*4081 max_cap44
*4082 max_cap45
*4083 max_cap46
*4084 max_cap47
*4085 max_cap48
*4086 max_cap50
*4087 max_cap52
*4088 max_cap53
*4089 max_cap54
*4090 output21
*4091 output22
*4092 output23
*4093 output24
*4094 output25
*4095 output26
*4096 output27
*4097 output28
*4098 output29
*4099 output30
*4100 output31
*4101 output32
*4102 wire33
*4103 wire34
*4104 wire35
*4105 wire36
*4106 wire37
*4107 wire38
*4108 wire39
*4109 wire40
*4110 wire43
*4111 wire49
*4112 wire51
*4113 wire55
*4114 wire56
*4115 wire57
*4116 wire58

*PORTS
aempty O
aempty_thresh[0] I
aempty_thresh[1] I
aempty_thresh[2] I
aempty_thresh[3] I
afull O
afull_thresh[0] I
afull_thresh[1] I
afull_thresh[2] I
afull_thresh[3] I
empty O
full O
rd_clk I
rd_data[0] O
rd_data[1] O
rd_data[2] O
rd_data[3] O
rd_data[4] O
rd_data[5] O
rd_data[6] O
rd_data[7] O
rd_en I
rd_rst_n I
wr_clk I
wr_data[0] I
wr_data[1] I
wr_data[2] I
wr_data[3] I
wr_data[4] I
wr_data[5] I
wr_data[6] I
wr_data[7] I
wr_en I
wr_rst_n I

*D_NET *3 0.00147431
*CONN
*P aempty O
*I *4116:X O *D sky130_fd_sc_hd__clkbuf_4
*CAP
1 aempty 0.000645232
2 *4116:X 0.000645232
3 aempty *3901:RESET_B 9.58678e-06
4 aempty *4056:A 0.000174256
5 aempty *4069:A 0
*RES
1 *4116:X aempty 5.81323 
*END

*D_NET *4 0.00203214
*CONN
*P aempty_thresh[0] I
*I *4055:A I *D sky130_fd_sc_hd__clkdlybuf4s25_1
*CAP
1 aempty_thresh[0] 0.00048377
2 *4055:A 0.00048377
3 *4055:A *4066:A 0.000533199
4 *4055:A *4074:A 0.000531402
*RES
1 aempty_thresh[0] *4055:A 18.3075 
*END

*D_NET *5 0.00155464
*CONN
*P aempty_thresh[1] I
*I *4066:A I *D sky130_fd_sc_hd__clkdlybuf4s25_1
*CAP
1 aempty_thresh[1] 0.000510719
2 *4066:A 0.000510719
3 *4055:A *4066:A 0.000533199
*RES
1 aempty_thresh[1] *4066:A 15.6675 
*END

*D_NET *6 0.0012144
*CONN
*P aempty_thresh[2] I
*I *4068:A I *D sky130_fd_sc_hd__clkdlybuf4s25_1
*CAP
1 aempty_thresh[2] 0.000607199
2 *4068:A 0.000607199
*RES
1 aempty_thresh[2] *4068:A 14.2875 
*END

*D_NET *7 0.000679725
*CONN
*P aempty_thresh[3] I
*I *4069:A I *D sky130_fd_sc_hd__clkdlybuf4s25_1
*CAP
1 aempty_thresh[3] 0.000329341
2 *4069:A 0.000329341
3 *4069:A *713:12 2.10433e-05
4 aempty *4069:A 0
*RES
1 aempty_thresh[3] *4069:A 5.23057 
*END

*D_NET *8 0.00099202
*CONN
*P afull O
*I *4115:X O *D sky130_fd_sc_hd__clkbuf_4
*CAP
1 afull 0.00049601
2 *4115:X 0.00049601
3 afull *4045:A 0
4 afull *4046:A 0
*RES
1 *4115:X afull 9.35097 
*END

*D_NET *9 0.00122941
*CONN
*P afull_thresh[0] I
*I *4070:A I *D sky130_fd_sc_hd__clkdlybuf4s25_1
*CAP
1 afull_thresh[0] 0.00059056
2 *4070:A 0.00059056
3 *4070:A *4071:A 4.82919e-05
*RES
1 afull_thresh[0] *4070:A 13.845 
*END

*D_NET *10 0.00129574
*CONN
*P afull_thresh[1] I
*I *4071:A I *D sky130_fd_sc_hd__clkdlybuf4s25_1
*CAP
1 afull_thresh[1] 0.000623723
2 *4071:A 0.000623723
3 *4070:A *4071:A 4.82919e-05
*RES
1 afull_thresh[1] *4071:A 14.43 
*END

*D_NET *11 0.00100973
*CONN
*P afull_thresh[2] I
*I *4072:A I *D sky130_fd_sc_hd__clkdlybuf4s25_1
*CAP
1 afull_thresh[2] 0.000504863
2 *4072:A 0.000504863
3 *4072:A *4073:A 0
*RES
1 afull_thresh[2] *4072:A 12.6 
*END

*D_NET *12 0.00108045
*CONN
*P afull_thresh[3] I
*I *4073:A I *D sky130_fd_sc_hd__clkdlybuf4s25_1
*CAP
1 afull_thresh[3] 0.000540223
2 *4073:A 0.000540223
3 *4072:A *4073:A 0
*RES
1 afull_thresh[3] *4073:A 13.05 
*END

*D_NET *13 0.00146483
*CONN
*P empty O
*I *4114:X O *D sky130_fd_sc_hd__clkbuf_4
*CAP
1 empty 0.000722981
2 *4114:X 0.000722981
3 empty *710:14 1.88656e-05
4 empty *896:10 0
*RES
1 *4114:X empty 5.81323 
*END

*D_NET *14 0.00157108
*CONN
*P full O
*I *4113:X O *D sky130_fd_sc_hd__clkbuf_4
*CAP
1 full 0.000646411
2 *4113:X 0.000646411
3 full *4065:A 9.66021e-05
4 full *4113:A 0.000157711
5 full *637:12 2.39461e-05
*RES
1 *4113:X full 11.5525 
*END

*D_NET *15 0.00629081
*CONN
*P rd_clk I
*I *3944:A I *D sky130_fd_sc_hd__clkbuf_16
*CAP
1 rd_clk 0.00206193
2 *3944:A 9.02175e-05
3 *15:30 0.00215215
4 *15:30 rd_data[3] 0.000353474
5 *15:30 *3357:B 1.39252e-05
6 *15:30 *3395:A 3.69196e-05
7 *15:30 *3395:B 0.000139163
8 *15:30 *3407:B1 7.8306e-05
9 *15:30 *3937:RESET_B 0.000221957
10 *15:30 *3943:CLK 0.000214591
11 *15:30 *327:6 2.82103e-05
12 *15:30 *564:8 0.000140181
13 *15:30 *564:10 0.000213078
14 *15:30 *564:16 5.45555e-05
15 *15:30 *564:71 8.64855e-05
16 *15:30 *711:12 9.15694e-05
17 *15:30 *711:14 0.000123583
18 *15:30 *711:16 0.000134379
19 *15:30 *898:10 5.6131e-05
*RES
1 rd_clk *15:30 25.9567 
2 *15:30 *3944:A 3.0175 
*END

*D_NET *16 0.00105339
*CONN
*P rd_data[0] O
*I *4105:X O *D sky130_fd_sc_hd__clkbuf_4
*CAP
1 rd_data[0] 0.000417149
2 *4105:X 0.000417149
3 rd_data[0] rd_data[2] 0.000188914
4 rd_data[0] rd_data[4] 0
5 rd_data[0] *4094:A 2.65814e-06
6 rd_data[0] *4105:A 2.75229e-05
*RES
1 *4105:X rd_data[0] 8.24203 
*END

*D_NET *17 0.000994721
*CONN
*P rd_data[1] O
*I *4104:X O *D sky130_fd_sc_hd__clkbuf_4
*CAP
1 rd_data[1] 0.000389536
2 *4104:X 0.000389536
3 rd_data[1] *4064:A 0.000215648
*RES
1 *4104:X rd_data[1] 7.73203 
*END

*D_NET *18 0.00108506
*CONN
*P rd_data[2] O
*I *4103:X O *D sky130_fd_sc_hd__clkbuf_4
*CAP
1 rd_data[2] 0.000448075
2 *4103:X 0.000448075
3 rd_data[2] *4105:A 0
4 rd_data[0] rd_data[2] 0.000188914
*RES
1 *4103:X rd_data[2] 9.20377 
*END

*D_NET *19 0.000822547
*CONN
*P rd_data[3] O
*I *4109:X O *D sky130_fd_sc_hd__clkbuf_4
*CAP
1 rd_data[3] 0.00023021
2 *4109:X 0.00023021
3 rd_data[3] *3911:D 4.21447e-06
4 rd_data[3] *4109:A 4.43871e-06
5 *15:30 rd_data[3] 0.000353474
*RES
1 *4109:X rd_data[3] 5.23057 
*END

*D_NET *20 0.00130174
*CONN
*P rd_data[4] O
*I *4108:X O *D sky130_fd_sc_hd__clkbuf_4
*CAP
1 rd_data[4] 0.000641677
2 *4108:X 0.000641677
3 rd_data[4] rd_data[5] 0
4 rd_data[4] *4108:A 1.83847e-05
5 rd_data[0] rd_data[4] 0
*RES
1 *4108:X rd_data[4] 11.302 
*END

*D_NET *21 0.00121546
*CONN
*P rd_data[5] O
*I *4107:X O *D sky130_fd_sc_hd__clkbuf_4
*CAP
1 rd_data[5] 0.000499692
2 *4107:X 0.000499692
3 rd_data[5] rd_data[7] 0.00021242
4 rd_data[5] *3780:CLK 3.64998e-06
5 rd_data[5] *4108:A 0
6 rd_data[4] rd_data[5] 0
*RES
1 *4107:X rd_data[5] 9.93703 
*END

*D_NET *22 0.0011177
*CONN
*P rd_data[6] O
*I *4102:X O *D sky130_fd_sc_hd__clkbuf_4
*CAP
1 rd_data[6] 0.000558852
2 *4102:X 0.000558852
*RES
1 *4102:X rd_data[6] 13.5825 
*END

*D_NET *23 0.00102852
*CONN
*P rd_data[7] O
*I *4106:X O *D sky130_fd_sc_hd__clkbuf_4
*CAP
1 rd_data[7] 0.000351964
2 *4106:X 0.000351964
3 rd_data[7] *4107:A 5.60879e-05
4 rd_data[7] *4108:A 5.60879e-05
5 rd_data[5] rd_data[7] 0.00021242
*RES
1 *4106:X rd_data[7] 6.35317 
*END

*D_NET *24 0.00137036
*CONN
*P rd_en I
*I *4074:A I *D sky130_fd_sc_hd__clkdlybuf4s25_1
*CAP
1 rd_en 0.00041948
2 *4074:A 0.00041948
3 *4055:A *4074:A 0.000531402
*RES
1 rd_en *4074:A 14.2875 
*END

*D_NET *25 0.00119322
*CONN
*P rd_rst_n I
*I *4056:A I *D sky130_fd_sc_hd__clkdlybuf4s25_1
*CAP
1 rd_rst_n 0.000509481
2 *4056:A 0.000509481
3 aempty *4056:A 0.000174256
*RES
1 rd_rst_n *4056:A 11.4544 
*END

*D_NET *26 0.0169691
*CONN
*P wr_clk I
*I *3945:A I *D sky130_fd_sc_hd__clkbuf_16
*CAP
1 wr_clk 0.00603949
2 *3945:A 0
3 *26:22 0.000842082
4 *26:20 0.00688157
5 *26:20 *3467:S0 4.04828e-05
6 *26:20 *3473:A2 4.95134e-05
7 *26:20 *3473:B1_N 0.00039848
8 *26:20 *3530:S 0
9 *26:20 *3596:A 0.000336826
10 *26:20 *3601:S 0
11 *26:20 *3811:D 5.95506e-05
12 *26:20 *4057:A 0.000356688
13 *26:20 *4100:A 0.000259967
14 *26:20 *587:10 0
15 *26:20 *587:12 0
16 *26:22 *3472:A1 0.000101517
17 *26:22 *3472:A2 8.49475e-05
18 *26:22 *3473:B1_N 0.00103703
19 *26:22 *3508:A 0
20 *26:22 *3525:A 1.03663e-05
21 *26:22 *3571:A 0
22 *26:22 *3596:A 1.22891e-05
23 *26:22 *3737:A0 3.15127e-05
24 *26:22 *3737:A1 0.000194847
25 *26:22 *3811:D 2.12839e-05
26 *26:22 *3877:D 0
27 *26:22 *422:39 0
28 *26:22 *570:10 0
29 *26:22 *662:34 0.000142928
30 *26:22 *666:10 0
31 *26:22 *666:16 0
32 *26:22 *729:80 6.77667e-05
*RES
1 wr_clk *26:20 32.9934 
2 *26:20 *26:22 22.3425 
3 *26:22 *3945:A 3.6 
*END

*D_NET *27 0.00123238
*CONN
*P wr_data[0] I
*I *4057:A I *D sky130_fd_sc_hd__clkdlybuf4s25_1
*CAP
1 wr_data[0] 0.000437847
2 *4057:A 0.000437847
3 *4057:A *3880:CLK 0
4 *26:20 *4057:A 0.000356688
*RES
1 wr_data[0] *4057:A 8.78663 
*END

*D_NET *28 0.00114869
*CONN
*P wr_data[1] I
*I *4058:A I *D sky130_fd_sc_hd__clkdlybuf4s25_1
*CAP
1 wr_data[1] 0.000574343
2 *4058:A 0.000574343
*RES
1 wr_data[1] *4058:A 13.8375 
*END

*D_NET *29 0.00101494
*CONN
*P wr_data[2] I
*I *4059:A I *D sky130_fd_sc_hd__clkdlybuf4s25_1
*CAP
1 wr_data[2] 0.000507469
2 *4059:A 0.000507469
*RES
1 wr_data[2] *4059:A 10.1338 
*END

*D_NET *30 0.00112983
*CONN
*P wr_data[3] I
*I *4060:A I *D sky130_fd_sc_hd__clkdlybuf4s25_1
*CAP
1 wr_data[3] 0.00056343
2 *4060:A 0.00056343
3 *4060:A *3491:A 2.97004e-06
*RES
1 wr_data[3] *4060:A 13.395 
*END

*D_NET *31 0.00111413
*CONN
*P wr_data[4] I
*I *4061:A I *D sky130_fd_sc_hd__clkdlybuf4s25_1
*CAP
1 wr_data[4] 0.000532921
2 *4061:A 0.000532921
3 *4061:A *3488:A0 0
4 *4061:A *3488:S 4.82919e-05
*RES
1 wr_data[4] *4061:A 13.05 
*END

*D_NET *32 0.00112125
*CONN
*P wr_data[5] I
*I *4062:A I *D sky130_fd_sc_hd__clkdlybuf4s25_1
*CAP
1 wr_data[5] 0.000536735
2 *4062:A 0.000536735
3 *4062:A *672:32 4.77757e-05
*RES
1 wr_data[5] *4062:A 13.05 
*END

*D_NET *33 0.00121247
*CONN
*P wr_data[6] I
*I *4063:A I *D sky130_fd_sc_hd__clkdlybuf4s25_1
*CAP
1 wr_data[6] 0.000606237
2 *4063:A 0.000606237
*RES
1 wr_data[6] *4063:A 14.2875 
*END

*D_NET *34 0.00152881
*CONN
*P wr_data[7] I
*I *4064:A I *D sky130_fd_sc_hd__clkdlybuf4s25_1
*CAP
1 wr_data[7] 0.000548892
2 *4064:A 0.000548892
3 *4064:A *3533:A 8.87475e-05
4 *4064:A *4104:A 0.00012663
5 rd_data[1] *4064:A 0.000215648
*RES
1 wr_data[7] *4064:A 10.8266 
*END

*D_NET *35 0.00143071
*CONN
*P wr_en I
*I *4065:A I *D sky130_fd_sc_hd__clkdlybuf4s25_1
*CAP
1 wr_en 0.000667052
2 *4065:A 0.000667052
3 *4065:A *3922:CLK 0
4 *4065:A *3923:CLK 0
5 *4065:A *4113:A 0
6 full *4065:A 9.66021e-05
*RES
1 wr_en *4065:A 13.4944 
*END

*D_NET *36 0.000845318
*CONN
*P wr_rst_n I
*I *4067:A I *D sky130_fd_sc_hd__clkdlybuf4s25_1
*CAP
1 wr_rst_n 0.000413132
2 *4067:A 0.000413132
3 *4067:A *639:10 1.90535e-05
*RES
1 wr_rst_n *4067:A 6.25057 
*END

*D_NET *37 0.000955551
*CONN
*I *3888:D I *D sky130_fd_sc_hd__dfstp_2
*I *3401:X O *D sky130_fd_sc_hd__o311a_4
*CAP
1 *3888:D 0.000377213
2 *3401:X 0.000377213
3 *3888:D *3888:CLK 7.09016e-05
4 *3888:D *3901:RESET_B 0
5 *3888:D *3903:RESET_B 1.73877e-05
6 *3888:D *566:61 0
7 *3888:D *566:74 0.000112836
*RES
1 *3401:X *3888:D 13.965 
*END

*D_NET *38 0.000682917
*CONN
*I *3893:D I *D sky130_fd_sc_hd__dfrtp_2
*I *3338:Y O *D sky130_fd_sc_hd__nand3_4
*CAP
1 *3893:D 0.000259744
2 *3338:Y 0.000259744
3 *3893:D *3337:A1_N 1.23331e-05
4 *3893:D *3337:A2_N 0.000118513
5 *3893:D *3338:A 0
6 *3893:D *3338:B 3.25831e-05
7 *3893:D *4115:A 0
*RES
1 *3338:Y *3893:D 11.835 
*END

*D_NET *39 0.00160204
*CONN
*I *3760:D I *D sky130_fd_sc_hd__dfxtp_2
*I *3485:X O *D sky130_fd_sc_hd__buf_1
*CAP
1 *3760:D 0.000246412
2 *3485:X 0.000246412
3 *3760:D *3420:S0 0.000481487
4 *3760:D *3479:S0 0
5 *3760:D *3640:S 4.82319e-06
6 *3760:D *3760:CLK 6.23119e-05
7 *3760:D *3856:D 4.66108e-05
8 *3760:D *4011:A 0.000129969
9 *3760:D *669:24 1.54049e-05
10 *3760:D *684:27 0.000265416
11 *3760:D *684:31 0.000103192
*RES
1 *3485:X *3760:D 15.5437 
*END

*D_NET *40 0.00135913
*CONN
*I *3761:D I *D sky130_fd_sc_hd__dfxtp_2
*I *3487:X O *D sky130_fd_sc_hd__buf_1
*CAP
1 *3761:D 0.00059244
2 *3487:X 0.00059244
3 *3761:D *488:27 0.000126471
4 *3761:D *593:24 4.77757e-05
*RES
1 *3487:X *3761:D 15.2587 
*END

*D_NET *41 0.000401497
*CONN
*I *3762:D I *D sky130_fd_sc_hd__dfxtp_2
*I *3489:X O *D sky130_fd_sc_hd__buf_1
*CAP
1 *3762:D 0.00014958
2 *3489:X 0.00014958
3 *3762:D *664:48 4.90227e-05
4 *3762:D *798:8 5.33142e-05
*RES
1 *3489:X *3762:D 9.76875 
*END

*D_NET *42 0.0015929
*CONN
*I *3763:D I *D sky130_fd_sc_hd__dfxtp_2
*I *3491:X O *D sky130_fd_sc_hd__buf_1
*CAP
1 *3763:D 0.00063819
2 *3491:X 0.00063819
3 *3763:D *3446:A0 0
4 *3763:D *3446:A3 4.96649e-05
5 *3763:D *3490:A0 7.79249e-05
6 *3763:D *3491:A 0
7 *3763:D *3612:A0 5.07293e-05
8 *3763:D *3819:D 0
9 *3763:D *619:21 0.000138196
10 *3763:D *619:94 0
*RES
1 *3491:X *3763:D 18.165 
*END

*D_NET *43 0.000712688
*CONN
*I *3764:D I *D sky130_fd_sc_hd__dfxtp_2
*I *3493:X O *D sky130_fd_sc_hd__buf_1
*CAP
1 *3764:D 0.000313693
2 *3493:X 0.000313693
3 *3764:D *3492:A0 0
4 *3764:D *3764:CLK 8.53011e-05
*RES
1 *3493:X *3764:D 12.0787 
*END

*D_NET *44 0.000775258
*CONN
*I *3765:D I *D sky130_fd_sc_hd__dfxtp_2
*I *3495:X O *D sky130_fd_sc_hd__buf_1
*CAP
1 *3765:D 0.000258054
2 *3495:X 0.000258054
3 *3765:D *634:10 0.00013629
4 *3765:D *634:31 0.00012286
*RES
1 *3495:X *3765:D 11.5387 
*END

*D_NET *45 0.000379167
*CONN
*I *3766:D I *D sky130_fd_sc_hd__dfxtp_2
*I *3497:X O *D sky130_fd_sc_hd__buf_1
*CAP
1 *3766:D 3.99649e-05
2 *3497:X 3.99649e-05
3 *3766:D *3496:A1 1.43717e-05
4 *3766:D *3715:S 0.000143266
5 *3766:D *663:16 0.000141599
*RES
1 *3497:X *3766:D 8.97375 
*END

*D_NET *46 0.000982252
*CONN
*I *3767:D I *D sky130_fd_sc_hd__dfxtp_2
*I *3499:X O *D sky130_fd_sc_hd__buf_1
*CAP
1 *3767:D 0.000385449
2 *3499:X 0.000385449
3 *3767:D *3479:A0 8.23457e-05
4 *3767:D *605:14 0.00012901
*RES
1 *3499:X *3767:D 8.87375 
*END

*D_NET *47 0.000178233
*CONN
*I *3768:D I *D sky130_fd_sc_hd__dfxtp_2
*I *3502:X O *D sky130_fd_sc_hd__buf_2
*CAP
1 *3768:D 8.73601e-05
2 *3502:X 8.73601e-05
3 *3768:D *3768:CLK 3.51254e-06
*RES
1 *3502:X *3768:D 8.46375 
*END

*D_NET *48 0.00122168
*CONN
*I *3769:D I *D sky130_fd_sc_hd__dfxtp_2
*I *3504:X O *D sky130_fd_sc_hd__buf_2
*CAP
1 *3769:D 0.000345854
2 *3504:X 0.000345854
3 *3769:D *3435:S0 1.56428e-05
4 *3769:D *3521:A 0.000111607
5 *3769:D *3540:S 8.82872e-05
6 *3769:D *3554:S 0
7 *3769:D *3746:S 0.000131525
8 *3769:D *3777:D 7.03219e-05
9 *3769:D *3810:CLK 0.000112589
*RES
1 *3504:X *3769:D 13.8938 
*END

*D_NET *49 0.000460565
*CONN
*I *3770:D I *D sky130_fd_sc_hd__dfxtp_2
*I *3506:X O *D sky130_fd_sc_hd__buf_2
*CAP
1 *3770:D 0.0001356
2 *3506:X 0.0001356
3 *3770:D *3506:A 0.000147071
4 *3770:D *3770:CLK 4.22944e-05
*RES
1 *3506:X *3770:D 5.61875 
*END

*D_NET *50 0.000399896
*CONN
*I *3771:D I *D sky130_fd_sc_hd__dfxtp_2
*I *3508:X O *D sky130_fd_sc_hd__buf_2
*CAP
1 *3771:D 0.000174682
2 *3508:X 0.000174682
3 *3771:D *3508:A 7.28902e-06
4 *3771:D *3771:CLK 4.32434e-05
*RES
1 *3508:X *3771:D 5.72375 
*END

*D_NET *51 0.00167443
*CONN
*I *3772:D I *D sky130_fd_sc_hd__dfxtp_2
*I *3510:X O *D sky130_fd_sc_hd__buf_2
*CAP
1 *3772:D 0.000427176
2 *3510:X 0.000427176
3 *3772:D *3510:A 0.000607173
4 *3772:D *3527:A 4.89295e-05
5 *3772:D *4107:A 0
6 *3772:D *609:25 0.000163979
*RES
1 *3510:X *3772:D 16.4137 
*END

*D_NET *52 0.000445829
*CONN
*I *3773:D I *D sky130_fd_sc_hd__dfxtp_2
*I *3512:X O *D sky130_fd_sc_hd__buf_2
*CAP
1 *3773:D 0.000154367
2 *3512:X 0.000154367
3 *3773:D *3433:B1_N 0.000137095
4 *3773:D *3788:CLK 0
*RES
1 *3512:X *3773:D 10.0087 
*END

*D_NET *53 0.000672312
*CONN
*I *3774:D I *D sky130_fd_sc_hd__dfxtp_2
*I *3514:X O *D sky130_fd_sc_hd__buf_2
*CAP
1 *3774:D 0.00020168
2 *3514:X 0.00020168
3 *3774:D *3806:CLK 9.54469e-05
4 *3774:D *3873:D 1.41813e-05
5 *3774:D *413:85 0.000159325
*RES
1 *3514:X *3774:D 10.2937 
*END

*D_NET *54 0.000557029
*CONN
*I *3775:D I *D sky130_fd_sc_hd__dfxtp_2
*I *3516:X O *D sky130_fd_sc_hd__buf_2
*CAP
1 *3775:D 0.000156452
2 *3516:X 0.000156452
3 *3775:D *3516:A 0.000117659
4 *3775:D *613:18 0.000126467
*RES
1 *3516:X *3775:D 9.94875 
*END

*D_NET *55 0.000297152
*CONN
*I *3776:D I *D sky130_fd_sc_hd__dfxtp_2
*I *3519:X O *D sky130_fd_sc_hd__buf_1
*CAP
1 *3776:D 0.00010178
2 *3519:X 0.00010178
3 *3776:D *3519:A 2.86975e-05
4 *3776:D *3768:CLK 5.05228e-05
5 *3776:D *584:16 1.43717e-05
*RES
1 *3519:X *3776:D 8.91375 
*END

*D_NET *56 0.000901328
*CONN
*I *3777:D I *D sky130_fd_sc_hd__dfxtp_2
*I *3521:X O *D sky130_fd_sc_hd__buf_1
*CAP
1 *3777:D 0.000280841
2 *3521:X 0.000280841
3 *3777:D *3540:S 0.000101469
4 *3777:D *3554:S 0
5 *3777:D *3777:CLK 0.00011029
6 *3777:D *688:85 5.75645e-05
7 *3769:D *3777:D 7.03219e-05
*RES
1 *3521:X *3777:D 12.8438 
*END

*D_NET *57 0.000313632
*CONN
*I *3778:D I *D sky130_fd_sc_hd__dfxtp_2
*I *3523:X O *D sky130_fd_sc_hd__buf_1
*CAP
1 *3778:D 0.00014963
2 *3523:X 0.00014963
3 *3778:D *3778:CLK 1.43717e-05
*RES
1 *3523:X *3778:D 9.16875 
*END

*D_NET *58 0.000317435
*CONN
*I *3779:D I *D sky130_fd_sc_hd__dfxtp_2
*I *3525:X O *D sky130_fd_sc_hd__buf_1
*CAP
1 *3779:D 9.6908e-05
2 *3525:X 9.6908e-05
3 *3779:D *3459:S0 1.33293e-05
4 *3779:D *3779:CLK 0.00011029
*RES
1 *3525:X *3779:D 4.92875 
*END

*D_NET *59 0.00096263
*CONN
*I *3780:D I *D sky130_fd_sc_hd__dfxtp_2
*I *3527:X O *D sky130_fd_sc_hd__buf_1
*CAP
1 *3780:D 0.000183192
2 *3527:X 0.000183192
3 *3780:D *3527:A 4.2857e-05
4 *3780:D *3780:CLK 0.000141599
5 *3780:D *4107:A 0.000139843
6 *3780:D *4108:A 0.000174839
7 *3780:D *609:12 9.71067e-05
*RES
1 *3527:X *3780:D 13.0837 
*END

*D_NET *60 0.000443376
*CONN
*I *3781:D I *D sky130_fd_sc_hd__dfxtp_2
*I *3529:X O *D sky130_fd_sc_hd__buf_1
*CAP
1 *3781:D 0.00011156
2 *3529:X 0.00011156
3 *3781:D *630:16 9.37846e-05
4 *3781:D *724:32 0.000126471
*RES
1 *3529:X *3781:D 9.49875 
*END

*D_NET *61 0.000901427
*CONN
*I *3782:D I *D sky130_fd_sc_hd__dfxtp_2
*I *3531:X O *D sky130_fd_sc_hd__buf_1
*CAP
1 *3782:D 0.000181548
2 *3531:X 0.000181548
3 *3782:D *3531:A 7.00889e-06
4 *3782:D *3806:CLK 0
5 *3782:D *3806:D 0.000202581
6 *3782:D *452:117 0.000319855
7 *3782:D *688:51 8.88687e-06
*RES
1 *3531:X *3782:D 11.8088 
*END

*D_NET *62 0.000259185
*CONN
*I *3783:D I *D sky130_fd_sc_hd__dfxtp_2
*I *3533:X O *D sky130_fd_sc_hd__buf_1
*CAP
1 *3783:D 0.000124155
2 *3533:X 0.000124155
3 *3783:D *3533:A 1.08758e-05
*RES
1 *3533:X *3783:D 4.92875 
*END

*D_NET *63 0.00133161
*CONN
*I *3784:D I *D sky130_fd_sc_hd__dfxtp_2
*I *3537:X O *D sky130_fd_sc_hd__buf_1
*CAP
1 *3784:D 0.000469656
2 *3537:X 0.000469656
3 *3784:D *3417:A1 0.00015639
4 *3784:D *3537:A 9.21373e-05
5 *3784:D *3555:A 0
6 *3784:D *686:122 2.83649e-05
7 *3784:D *772:10 0.000115408
*RES
1 *3537:X *3784:D 14.5688 
*END

*D_NET *64 0.000305354
*CONN
*I *3785:D I *D sky130_fd_sc_hd__dfxtp_2
*I *3539:X O *D sky130_fd_sc_hd__buf_1
*CAP
1 *3785:D 9.51295e-05
2 *3539:X 9.51295e-05
3 *3785:D *3539:A 0.000115095
*RES
1 *3539:X *3785:D 4.92875 
*END

*D_NET *65 0.000231777
*CONN
*I *3786:D I *D sky130_fd_sc_hd__dfxtp_2
*I *3541:X O *D sky130_fd_sc_hd__buf_1
*CAP
1 *3786:D 4.48906e-05
2 *3541:X 4.48906e-05
3 *3786:D *3554:S 4.89078e-05
4 *3786:D *3558:A0 9.30878e-05
*RES
1 *3541:X *3786:D 8.46375 
*END

*D_NET *66 0.00153295
*CONN
*I *3787:D I *D sky130_fd_sc_hd__dfxtp_2
*I *3543:X O *D sky130_fd_sc_hd__buf_1
*CAP
1 *3787:D 0.000248819
2 *3543:X 0.000248819
3 *3787:D *3561:A 0.000156791
4 *3787:D *3795:D 0.000103764
5 *3787:D *4049:A 0.000133068
6 *3787:D *442:24 0.00053692
7 *3787:D *442:37 0.000104767
8 *3787:D *535:26 0
*RES
1 *3543:X *3787:D 15.0938 
*END

*D_NET *67 0.000455067
*CONN
*I *3788:D I *D sky130_fd_sc_hd__dfxtp_2
*I *3545:X O *D sky130_fd_sc_hd__buf_1
*CAP
1 *3788:D 6.02569e-05
2 *3545:X 6.02569e-05
3 *3788:D *3477:A1 0.000115464
4 *3788:D *3746:S 0.000113797
5 *3788:D *3788:CLK 7.56999e-05
6 *3788:D *768:10 2.95923e-05
*RES
1 *3545:X *3788:D 9.3 
*END

*D_NET *68 0.00097324
*CONN
*I *3789:D I *D sky130_fd_sc_hd__dfxtp_2
*I *3547:X O *D sky130_fd_sc_hd__buf_1
*CAP
1 *3789:D 0.000303754
2 *3547:X 0.000303754
3 *3789:D *3565:A 0.000122797
4 *3789:D *452:27 0.000182962
5 *3789:D *461:168 5.14416e-05
6 *3789:D *724:115 8.53113e-06
*RES
1 *3547:X *3789:D 12.7537 
*END

*D_NET *69 0.000252916
*CONN
*I *3790:D I *D sky130_fd_sc_hd__dfxtp_2
*I *3549:X O *D sky130_fd_sc_hd__buf_1
*CAP
1 *3790:D 7.91148e-05
2 *3549:X 7.91148e-05
3 *3790:D *3566:S 1.50897e-05
4 *3790:D *3790:CLK 3.75882e-06
5 *3790:D *635:10 7.58382e-05
*RES
1 *3549:X *3790:D 8.97375 
*END

*D_NET *70 0.000526828
*CONN
*I *3791:D I *D sky130_fd_sc_hd__dfxtp_2
*I *3551:X O *D sky130_fd_sc_hd__buf_1
*CAP
1 *3791:D 0.00021126
2 *3551:X 0.00021126
3 *3791:D *3474:S1 1.43717e-05
4 *3791:D *3603:S 1.43717e-05
5 *3791:D *3791:CLK 0
6 *3791:D *3799:D 2.10025e-05
7 *3791:D *686:35 5.45625e-05
*RES
1 *3551:X *3791:D 10.1287 
*END

*D_NET *71 0.000296124
*CONN
*I *3792:D I *D sky130_fd_sc_hd__dfxtp_2
*I *3555:X O *D sky130_fd_sc_hd__buf_1
*CAP
1 *3792:D 0.00010117
2 *3555:X 0.00010117
3 *3792:D *3792:CLK 9.37846e-05
*RES
1 *3555:X *3792:D 9.00375 
*END

*D_NET *72 0.00134841
*CONN
*I *3793:D I *D sky130_fd_sc_hd__dfxtp_2
*I *3557:X O *D sky130_fd_sc_hd__buf_1
*CAP
1 *3793:D 0.000279432
2 *3557:X 0.000279432
3 *3793:D *3427:S1 1.15688e-05
4 *3793:D *3556:A0 0.000366547
5 *3793:D *3557:A 5.01076e-05
6 *3793:D *3591:A1 9.66848e-05
7 *3793:D *624:14 3.6951e-05
8 *3793:D *624:96 3.32593e-05
9 *3793:D *773:10 0.000115464
10 *3793:D *789:10 7.89611e-05
*RES
1 *3557:X *3793:D 14.8387 
*END

*D_NET *73 0.00143227
*CONN
*I *3794:D I *D sky130_fd_sc_hd__dfxtp_2
*I *3559:X O *D sky130_fd_sc_hd__buf_1
*CAP
1 *3794:D 0.000335576
2 *3559:X 0.000335576
3 *3794:D *3435:A1 0.000137895
4 *3794:D *3436:A1 0.000191882
5 *3794:D *3540:A0 0
6 *3794:D *3540:A1 0.00030843
7 *3794:D *688:85 0.000122911
*RES
1 *3559:X *3794:D 13.8787 
*END

*D_NET *74 0.00125382
*CONN
*I *3795:D I *D sky130_fd_sc_hd__dfxtp_2
*I *3561:X O *D sky130_fd_sc_hd__buf_1
*CAP
1 *3795:D 0.000266828
2 *3561:X 0.000266828
3 *3795:D *3443:A2 8.83522e-05
4 *3795:D *3561:A 8.79638e-05
5 *3795:D *3739:S 6.90254e-05
6 *3795:D *535:26 0.000371059
7 *3787:D *3795:D 0.000103764
*RES
1 *3561:X *3795:D 14.2688 
*END

*D_NET *75 0.0014296
*CONN
*I *3796:D I *D sky130_fd_sc_hd__dfxtp_2
*I *3563:X O *D sky130_fd_sc_hd__buf_1
*CAP
1 *3796:D 0.000400525
2 *3563:X 0.000400525
3 *3796:D *3453:A2 0
4 *3796:D *3477:A1 6.33761e-05
5 *3796:D *3544:A0 0
6 *3796:D *3773:CLK 7.49328e-05
7 *3796:D *3865:CLK 0.00016506
8 *3796:D *4008:A 6.23669e-05
9 *3796:D *562:43 1.08758e-05
10 *3796:D *562:47 4.47125e-05
11 *3796:D *562:56 0.000114753
12 *3796:D *668:20 9.24693e-05
*RES
1 *3563:X *3796:D 16.5037 
*END

*D_NET *76 0.00142117
*CONN
*I *3797:D I *D sky130_fd_sc_hd__dfxtp_2
*I *3565:X O *D sky130_fd_sc_hd__buf_1
*CAP
1 *3797:D 0.000391179
2 *3565:X 0.000391179
3 *3797:D *3459:A2 7.4027e-05
4 *3797:D *3789:CLK 0.000229904
5 *3797:D *3803:CLK 7.71334e-05
6 *3797:D *586:47 0.000116952
7 *3797:D *630:16 0.000140791
*RES
1 *3565:X *3797:D 15.675 
*END

*D_NET *77 0.00111465
*CONN
*I *3798:D I *D sky130_fd_sc_hd__dfxtp_2
*I *3567:X O *D sky130_fd_sc_hd__buf_1
*CAP
1 *3798:D 0.000223142
2 *3567:X 0.000223142
3 *3798:D *3468:A1 0.000162325
4 *3798:D *3556:S 2.62526e-05
5 *3798:D *3566:S 4.66108e-05
6 *3798:D *442:37 0.000332279
7 *3798:D *602:49 1.43717e-05
8 *3798:D *635:10 2.61744e-05
9 *3798:D *667:31 1.54049e-05
10 *3798:D *722:76 4.49465e-05
*RES
1 *3567:X *3798:D 12.4087 
*END

*D_NET *78 0.00183815
*CONN
*I *3799:D I *D sky130_fd_sc_hd__dfxtp_2
*I *3569:X O *D sky130_fd_sc_hd__buf_1
*CAP
1 *3799:D 0.000328597
2 *3569:X 0.000328597
3 *3799:D *3586:A0 0.000194044
4 *3799:D *3791:CLK 0.000116151
5 *3799:D *3799:CLK 0.000304979
6 *3799:D *452:37 0.000226205
7 *3799:D *662:34 8.77498e-05
8 *3799:D *686:22 0
9 *3799:D *787:10 0.000230822
10 *3791:D *3799:D 2.10025e-05
*RES
1 *3569:X *3799:D 15.81 
*END

*D_NET *79 0.000293425
*CONN
*I *3800:D I *D sky130_fd_sc_hd__dfxtp_2
*I *3573:X O *D sky130_fd_sc_hd__buf_2
*CAP
1 *3800:D 0.000103219
2 *3573:X 0.000103219
3 *3800:D *3416:S1 1.54049e-05
4 *3800:D *3808:CLK 5.72091e-05
5 *3800:D *584:14 1.43717e-05
6 *3800:D *626:10 0
*RES
1 *3573:X *3800:D 9.22875 
*END

*D_NET *80 0.000173423
*CONN
*I *3801:D I *D sky130_fd_sc_hd__dfxtp_2
*I *3575:X O *D sky130_fd_sc_hd__buf_2
*CAP
1 *3801:D 8.40313e-05
2 *3575:X 8.40313e-05
3 *3801:D *686:122 5.36069e-06
*RES
1 *3575:X *3801:D 8.46375 
*END

*D_NET *81 0.000533882
*CONN
*I *3802:D I *D sky130_fd_sc_hd__dfxtp_2
*I *3577:X O *D sky130_fd_sc_hd__buf_2
*CAP
1 *3802:D 0.000211226
2 *3577:X 0.000211226
3 *3802:D *3418:S 0
4 *3802:D *3727:S 0.000111431
*RES
1 *3577:X *3802:D 11.1938 
*END

*D_NET *82 0.000853273
*CONN
*I *3803:D I *D sky130_fd_sc_hd__dfxtp_2
*I *3579:X O *D sky130_fd_sc_hd__buf_2
*CAP
1 *3803:D 0.000282649
2 *3579:X 0.000282649
3 *3803:D *3578:A0 0.000157401
4 *3803:D *3578:A1 7.5687e-06
5 *3803:D *3579:A 2.10905e-05
6 *3803:D *422:39 4.83032e-05
7 *3803:D *452:111 5.01003e-05
8 *3803:D *777:12 3.51254e-06
*RES
1 *3579:X *3803:D 11.3287 
*END

*D_NET *83 0.000490293
*CONN
*I *3804:D I *D sky130_fd_sc_hd__dfxtp_2
*I *3581:X O *D sky130_fd_sc_hd__buf_2
*CAP
1 *3804:D 6.02153e-05
2 *3581:X 6.02153e-05
3 *3804:D *3465:A 3.51254e-06
4 *3804:D *3475:A 0.00017664
5 *3804:D *3481:A2 0.000175338
6 *3804:D *4101:A 1.43717e-05
*RES
1 *3581:X *3804:D 9.48375 
*END

*D_NET *84 0.00183127
*CONN
*I *3805:D I *D sky130_fd_sc_hd__dfxtp_2
*I *3583:X O *D sky130_fd_sc_hd__buf_2
*CAP
1 *3805:D 0.000221731
2 *3583:X 0.000221731
3 *3805:D *3433:B1_N 4.6657e-05
4 *3805:D *3476:S0 0.00024756
5 *3805:D *3583:A 9.42224e-05
6 *3805:D *3600:A 0.000494374
7 *3805:D *3813:D 0.000335865
8 *3805:D *662:34 4.39443e-05
9 *3805:D *666:16 0.000125185
*RES
1 *3583:X *3805:D 16.1287 
*END

*D_NET *85 0.00140285
*CONN
*I *3806:D I *D sky130_fd_sc_hd__dfxtp_2
*I *3585:X O *D sky130_fd_sc_hd__buf_2
*CAP
1 *3806:D 0.000483116
2 *3585:X 0.000483116
3 *3806:D *3574:S 7.54589e-05
4 *3806:D *3806:CLK 0
5 *3806:D *452:117 0.000158578
6 *3806:D *589:10 0
7 *3806:D *589:32 0
8 *3782:D *3806:D 0.000202581
*RES
1 *3585:X *3806:D 16.1287 
*END

*D_NET *86 0.000350053
*CONN
*I *3807:D I *D sky130_fd_sc_hd__dfxtp_2
*I *3587:X O *D sky130_fd_sc_hd__buf_2
*CAP
1 *3807:D 0.000162337
2 *3587:X 0.000162337
3 *3807:D *3440:A0 0
4 *3807:D *3474:S1 2.05568e-05
5 *3807:D *3580:S 0
6 *3807:D *662:34 4.82319e-06
*RES
1 *3587:X *3807:D 9.42375 
*END

*D_NET *87 0.000907251
*CONN
*I *3808:D I *D sky130_fd_sc_hd__dfxtp_2
*I *3590:X O *D sky130_fd_sc_hd__buf_1
*CAP
1 *3808:D 0.000262011
2 *3590:X 0.000262011
3 *3808:D *3572:A0 0.000160513
4 *3808:D *3572:S 7.64046e-05
5 *3808:D *3590:A 8.34348e-05
6 *3808:D *584:12 6.28765e-05
*RES
1 *3590:X *3808:D 12.7388 
*END

*D_NET *88 0.00105803
*CONN
*I *3809:D I *D sky130_fd_sc_hd__dfxtp_2
*I *3592:X O *D sky130_fd_sc_hd__buf_1
*CAP
1 *3809:D 0.000266978
2 *3592:X 0.000266978
3 *3809:D *3592:A 0.000308634
4 *3809:D *624:8 0.000197969
5 *3809:D *789:10 1.74678e-05
*RES
1 *3592:X *3809:D 8.52875 
*END

*D_NET *89 0.000688263
*CONN
*I *3810:D I *D sky130_fd_sc_hd__dfxtp_2
*I *3594:X O *D sky130_fd_sc_hd__buf_1
*CAP
1 *3810:D 0.000225833
2 *3594:X 0.000225833
3 *3810:D *3434:S0 7.58994e-05
4 *3810:D *3436:A1 2.33079e-05
5 *3810:D *3559:A 0.00013739
*RES
1 *3594:X *3810:D 11.4937 
*END

*D_NET *90 0.00123054
*CONN
*I *3811:D I *D sky130_fd_sc_hd__dfxtp_2
*I *3596:X O *D sky130_fd_sc_hd__buf_1
*CAP
1 *3811:D 0.000314995
2 *3596:X 0.000314995
3 *3811:D *3596:A 0.000326088
4 *3811:D *3729:S 8.89101e-06
5 *3811:D *3795:CLK 0.000179421
6 *3811:D *422:39 0
7 *3811:D *587:12 5.31158e-06
8 *26:20 *3811:D 5.95506e-05
9 *26:22 *3811:D 2.12839e-05
*RES
1 *3596:X *3811:D 15.3337 
*END

*D_NET *91 0.000305877
*CONN
*I *3812:D I *D sky130_fd_sc_hd__dfxtp_2
*I *3598:X O *D sky130_fd_sc_hd__buf_1
*CAP
1 *3812:D 0.000123357
2 *3598:X 0.000123357
3 *3812:D *3598:A 1.08758e-05
4 *3812:D *3812:CLK 4.82863e-05
*RES
1 *3598:X *3812:D 4.92875 
*END

*D_NET *92 0.00117856
*CONN
*I *3813:D I *D sky130_fd_sc_hd__dfxtp_2
*I *3600:X O *D sky130_fd_sc_hd__buf_1
*CAP
1 *3813:D 0.000164258
2 *3600:X 0.000164258
3 *3813:D *3433:B1_N 0.000443492
4 *3813:D *3476:S0 1.22464e-05
5 *3813:D *3600:A 5.84378e-05
6 *3805:D *3813:D 0.000335865
*RES
1 *3600:X *3813:D 12.8888 
*END

*D_NET *93 0.000633607
*CONN
*I *3814:D I *D sky130_fd_sc_hd__dfxtp_2
*I *3602:X O *D sky130_fd_sc_hd__buf_1
*CAP
1 *3814:D 0.000195716
2 *3602:X 0.000195716
3 *3814:D *3574:S 6.90757e-05
4 *3814:D *3584:A0 6.50844e-06
5 *3814:D *3584:A1 7.70553e-06
6 *3814:D *3601:A0 8.41575e-05
7 *3814:D *3602:A 2.41307e-05
8 *3814:D *722:33 5.05981e-05
*RES
1 *3602:X *3814:D 11.2087 
*END

*D_NET *94 0.000577431
*CONN
*I *3815:D I *D sky130_fd_sc_hd__dfxtp_2
*I *3604:X O *D sky130_fd_sc_hd__buf_1
*CAP
1 *3815:D 0.000117322
2 *3604:X 0.000117322
3 *3815:D *3440:A0 9.21068e-05
4 *3815:D *3474:S0 0.000202686
5 *3815:D *3587:A 4.79946e-05
*RES
1 *3604:X *3815:D 10.1888 
*END

*D_NET *95 0.00118649
*CONN
*I *3816:D I *D sky130_fd_sc_hd__dfxtp_2
*I *3607:X O *D sky130_fd_sc_hd__buf_2
*CAP
1 *3816:D 0.000424197
2 *3607:X 0.000424197
3 *3816:D *3607:A 8.50645e-05
4 *3816:D *3623:A0 0
5 *3816:D *3624:A 0.000190893
6 *3816:D *3640:A0 0
7 *3816:D *3641:A 4.77719e-05
8 *3816:D *608:10 1.43717e-05
9 *3816:D *812:8 0
*RES
1 *3607:X *3816:D 13.7137 
*END

*D_NET *96 0.000818756
*CONN
*I *3817:D I *D sky130_fd_sc_hd__dfxtp_2
*I *3609:X O *D sky130_fd_sc_hd__buf_2
*CAP
1 *3817:D 0.00016799
2 *3609:X 0.00016799
3 *3817:D *3975:A 8.77684e-05
4 *3817:D *3976:A 0.00014294
5 *3817:D *507:46 0.000162318
6 *3817:D *633:25 8.97486e-05
*RES
1 *3609:X *3817:D 11.2987 
*END

*D_NET *97 0.000319997
*CONN
*I *3818:D I *D sky130_fd_sc_hd__dfxtp_2
*I *3611:X O *D sky130_fd_sc_hd__buf_2
*CAP
1 *3818:D 0.00013611
2 *3611:X 0.00013611
3 *3818:D *3644:A1 4.77769e-05
*RES
1 *3611:X *3818:D 9.16875 
*END

*D_NET *98 0.00112946
*CONN
*I *3819:D I *D sky130_fd_sc_hd__dfxtp_2
*I *3613:X O *D sky130_fd_sc_hd__buf_2
*CAP
1 *3819:D 0.000233665
2 *3613:X 0.000233665
3 *3819:D *3446:A3 0.000136804
4 *3819:D *3491:A 0.000433584
5 *3819:D *3629:A1 4.77807e-05
6 *3819:D *3646:A1 1.43717e-05
7 *3819:D *619:21 1.52184e-05
8 *3819:D *632:14 1.43717e-05
9 *3763:D *3819:D 0
*RES
1 *3613:X *3819:D 12.9937 
*END

*D_NET *99 0.00121692
*CONN
*I *3820:D I *D sky130_fd_sc_hd__dfxtp_2
*I *3615:X O *D sky130_fd_sc_hd__buf_2
*CAP
1 *3820:D 0.00028891
2 *3615:X 0.00028891
3 *3820:D *3615:A 3.112e-05
4 *3820:D *3631:A0 1.99551e-05
5 *3820:D *3820:CLK 7.10734e-05
6 *3820:D *3836:D 9.23578e-05
7 *3820:D *594:10 7.41023e-05
8 *3820:D *664:34 8.81793e-05
9 *3820:D *808:12 0.00026231
*RES
1 *3615:X *3820:D 13.2188 
*END

*D_NET *100 0.00124462
*CONN
*I *3821:D I *D sky130_fd_sc_hd__dfxtp_2
*I *3617:X O *D sky130_fd_sc_hd__buf_2
*CAP
1 *3821:D 0.000235428
2 *3617:X 0.000235428
3 *3821:D *3462:A3 0.000185781
4 *3821:D *3648:S 0.000133408
5 *3821:D *3837:D 8.53113e-06
6 *3821:D *591:14 9.93391e-05
7 *3821:D *591:18 0.000346707
8 *3821:D *633:25 0
*RES
1 *3617:X *3821:D 12.9038 
*END

*D_NET *101 0.00032653
*CONN
*I *3822:D I *D sky130_fd_sc_hd__dfxtp_2
*I *3619:X O *D sky130_fd_sc_hd__buf_2
*CAP
1 *3822:D 0.000123777
2 *3619:X 0.000123777
3 *3822:D *3619:A 0
4 *3822:D *674:8 7.89767e-05
*RES
1 *3619:X *3822:D 9.555 
*END

*D_NET *102 0.000534868
*CONN
*I *3823:D I *D sky130_fd_sc_hd__dfxtp_2
*I *3621:X O *D sky130_fd_sc_hd__buf_2
*CAP
1 *3823:D 0.000151586
2 *3621:X 0.000151586
3 *3823:D *3621:A 0.000143583
4 *3823:D *3823:CLK 7.53557e-05
5 *3823:D *605:22 1.27575e-05
*RES
1 *3621:X *3823:D 10.005 
*END

*D_NET *103 0.000414943
*CONN
*I *3824:D I *D sky130_fd_sc_hd__dfxtp_2
*I *3624:X O *D sky130_fd_sc_hd__buf_4
*CAP
1 *3824:D 8.98125e-05
2 *3624:X 8.98125e-05
3 *3824:D *3824:CLK 0.000118724
4 *3824:D *3832:D 0.000116594
*RES
1 *3624:X *3824:D 9.42375 
*END

*D_NET *104 0.0010098
*CONN
*I *3825:D I *D sky130_fd_sc_hd__dfxtp_2
*I *3626:X O *D sky130_fd_sc_hd__buf_4
*CAP
1 *3825:D 0.000225807
2 *3626:X 0.000225807
3 *3825:D *3478:S0 0.000174636
4 *3825:D *3626:A 0.000139853
5 *3825:D *3825:CLK 4.72329e-05
6 *3825:D *525:60 0.000196464
*RES
1 *3626:X *3825:D 13.92 
*END

*D_NET *105 0.000330365
*CONN
*I *3826:D I *D sky130_fd_sc_hd__dfxtp_2
*I *3628:X O *D sky130_fd_sc_hd__buf_4
*CAP
1 *3826:D 0.000153434
2 *3628:X 0.000153434
3 *3826:D *3826:CLK 1.43717e-05
4 *3826:D *3834:CLK 9.12494e-06
*RES
1 *3628:X *3826:D 9.73875 
*END

*D_NET *106 0.000207731
*CONN
*I *3827:D I *D sky130_fd_sc_hd__dfxtp_2
*I *3630:X O *D sky130_fd_sc_hd__buf_4
*CAP
1 *3827:D 9.53325e-05
2 *3630:X 9.53325e-05
3 *3827:D *3446:S0 1.43717e-05
4 *3827:D *3446:S1 2.69443e-06
*RES
1 *3630:X *3827:D 8.71875 
*END

*D_NET *107 0.000395382
*CONN
*I *3828:D I *D sky130_fd_sc_hd__dfxtp_2
*I *3632:X O *D sky130_fd_sc_hd__buf_4
*CAP
1 *3828:D 0.000145779
2 *3632:X 0.000145779
3 *3828:D *3762:CLK 4.8962e-05
4 *3828:D *3828:CLK 5.48619e-05
*RES
1 *3632:X *3828:D 9.76875 
*END

*D_NET *108 0.000757112
*CONN
*I *3829:D I *D sky130_fd_sc_hd__dfxtp_2
*I *3634:X O *D sky130_fd_sc_hd__buf_4
*CAP
1 *3829:D 0.000199604
2 *3634:X 0.000199604
3 *3829:D *3634:A 0.000178952
4 *3829:D *723:38 0.000178952
*RES
1 *3634:X *3829:D 11.5538 
*END

*D_NET *109 0.000481039
*CONN
*I *3830:D I *D sky130_fd_sc_hd__dfxtp_2
*I *3636:X O *D sky130_fd_sc_hd__buf_4
*CAP
1 *3830:D 0.000159357
2 *3636:X 0.000159357
3 *3830:D *593:24 0.000162325
*RES
1 *3636:X *3830:D 10.065 
*END

*D_NET *110 0.000364021
*CONN
*I *3831:D I *D sky130_fd_sc_hd__dfxtp_2
*I *3638:X O *D sky130_fd_sc_hd__buf_4
*CAP
1 *3831:D 0.000117943
2 *3638:X 0.000117943
3 *3831:D *3831:CLK 1.43717e-05
4 *3831:D *605:22 0.000113763
*RES
1 *3638:X *3831:D 9.73875 
*END

*D_NET *111 0.00122798
*CONN
*I *3832:D I *D sky130_fd_sc_hd__dfxtp_2
*I *3641:X O *D sky130_fd_sc_hd__buf_2
*CAP
1 *3832:D 0.000457394
2 *3641:X 0.000457394
3 *3832:D *3641:A 8.57469e-05
4 *3832:D *3824:CLK 2.39947e-05
5 *3832:D *3832:CLK 8.68523e-05
6 *3824:D *3832:D 0.000116594
*RES
1 *3641:X *3832:D 15.6488 
*END

*D_NET *112 0.000337585
*CONN
*I *3833:D I *D sky130_fd_sc_hd__dfxtp_2
*I *3643:X O *D sky130_fd_sc_hd__buf_2
*CAP
1 *3833:D 8.2172e-05
2 *3643:X 8.2172e-05
3 *3833:D *3484:S 8.84163e-05
4 *3833:D *3640:S 3.09451e-05
5 *3833:D *3643:A 4.94404e-05
6 *3833:D *623:28 4.43871e-06
*RES
1 *3643:X *3833:D 9.15375 
*END

*D_NET *113 0.000492044
*CONN
*I *3834:D I *D sky130_fd_sc_hd__dfxtp_2
*I *3645:X O *D sky130_fd_sc_hd__buf_2
*CAP
1 *3834:D 0.000180907
2 *3645:X 0.000180907
3 *3834:D *3627:A0 6.45236e-05
4 *3834:D *664:48 3.47837e-05
5 *3834:D *806:8 3.09233e-05
*RES
1 *3645:X *3834:D 10.1888 
*END

*D_NET *114 0.000614453
*CONN
*I *3835:D I *D sky130_fd_sc_hd__dfxtp_2
*I *3647:X O *D sky130_fd_sc_hd__buf_2
*CAP
1 *3835:D 0.000211722
2 *3647:X 0.000211722
3 *3835:D *3462:S1 7.30505e-05
4 *3835:D *3629:S 0
5 *3835:D *3835:CLK 4.47884e-05
6 *3835:D *672:24 7.31702e-05
*RES
1 *3647:X *3835:D 10.3837 
*END

*D_NET *115 0.000799184
*CONN
*I *3836:D I *D sky130_fd_sc_hd__dfxtp_2
*I *3649:X O *D sky130_fd_sc_hd__buf_2
*CAP
1 *3836:D 0.000170753
2 *3649:X 0.000170753
3 *3836:D *3764:CLK 3.57349e-05
4 *3836:D *3820:CLK 9.23578e-05
5 *3836:D *594:25 0.000237227
6 *3820:D *3836:D 9.23578e-05
*RES
1 *3649:X *3836:D 10.8787 
*END

*D_NET *116 0.000649009
*CONN
*I *3837:D I *D sky130_fd_sc_hd__dfxtp_2
*I *3651:X O *D sky130_fd_sc_hd__buf_2
*CAP
1 *3837:D 0.000124284
2 *3651:X 0.000124284
3 *3837:D *3648:S 0.000166058
4 *3837:D *591:18 0.000164382
5 *3837:D *633:25 6.14689e-05
6 *3821:D *3837:D 8.53113e-06
*RES
1 *3651:X *3837:D 10.6088 
*END

*D_NET *117 0.00119368
*CONN
*I *3838:D I *D sky130_fd_sc_hd__dfxtp_2
*I *3653:X O *D sky130_fd_sc_hd__buf_2
*CAP
1 *3838:D 0.000205115
2 *3653:X 0.000205115
3 *3838:D *3761:CLK 0.00011852
4 *3838:D *593:16 0.000212698
5 *3838:D *634:31 0.000452229
*RES
1 *3653:X *3838:D 13.2487 
*END

*D_NET *118 0.000542416
*CONN
*I *3839:D I *D sky130_fd_sc_hd__dfxtp_2
*I *3655:X O *D sky130_fd_sc_hd__buf_2
*CAP
1 *3839:D 0.000194823
2 *3655:X 0.000194823
3 *3839:D *605:22 9.50342e-06
4 *3839:D *605:28 0.000143266
*RES
1 *3655:X *3839:D 10.35 
*END

*D_NET *119 0.000289214
*CONN
*I *3840:D I *D sky130_fd_sc_hd__dfxtp_2
*I *3659:X O *D sky130_fd_sc_hd__buf_1
*CAP
1 *3840:D 0.000113589
2 *3659:X 0.000113589
3 *3840:D *3659:A 1.42598e-05
4 *3840:D *3840:CLK 4.77769e-05
*RES
1 *3659:X *3840:D 4.92875 
*END

*D_NET *120 0.00105484
*CONN
*I *3841:D I *D sky130_fd_sc_hd__dfxtp_2
*I *3661:X O *D sky130_fd_sc_hd__buf_1
*CAP
1 *3841:D 0.000139431
2 *3661:X 0.000139431
3 *3841:D *3431:A2 0
4 *3841:D *3870:D 0
5 *3841:D *516:109 0.000387103
6 *3841:D *691:16 0.000388872
*RES
1 *3661:X *3841:D 11.9137 
*END

*D_NET *121 0.00133501
*CONN
*I *3842:D I *D sky130_fd_sc_hd__dfxtp_2
*I *3663:X O *D sky130_fd_sc_hd__buf_1
*CAP
1 *3842:D 0.000156719
2 *3663:X 0.000156719
3 *3842:D *3842:CLK 0.000160635
4 *3842:D *516:57 0.00054482
5 *3842:D *684:50 0.000316118
*RES
1 *3663:X *3842:D 13.32 
*END

*D_NET *122 0.000623852
*CONN
*I *3843:D I *D sky130_fd_sc_hd__dfxtp_2
*I *3665:X O *D sky130_fd_sc_hd__buf_1
*CAP
1 *3843:D 0.000217372
2 *3665:X 0.000217372
3 *3843:D *3665:A 0
4 *3843:D *3698:A0 0
5 *3843:D *562:262 9.43303e-05
6 *3843:D *619:55 9.47776e-05
*RES
1 *3665:X *3843:D 11.1637 
*END

*D_NET *123 0.000314159
*CONN
*I *3844:D I *D sky130_fd_sc_hd__dfxtp_2
*I *3667:X O *D sky130_fd_sc_hd__buf_1
*CAP
1 *3844:D 0.000113297
2 *3667:X 0.000113297
3 *3844:D *3662:S 2.97453e-05
4 *3844:D *590:34 5.78206e-05
*RES
1 *3667:X *3844:D 5.03375 
*END

*D_NET *124 0.00130742
*CONN
*I *3845:D I *D sky130_fd_sc_hd__dfxtp_2
*I *3669:X O *D sky130_fd_sc_hd__buf_1
*CAP
1 *3845:D 0.000169629
2 *3669:X 0.000169629
3 *3845:D *3685:A0 0.000159957
4 *3845:D *488:88 4.99619e-05
5 *3845:D *634:31 6.00003e-05
6 *3845:D *663:43 0.000240588
7 *3845:D *723:62 0.000185398
8 *3845:D *723:90 0.000272263
*RES
1 *3669:X *3845:D 13.0238 
*END

*D_NET *125 0.000723812
*CONN
*I *3846:D I *D sky130_fd_sc_hd__dfxtp_2
*I *3671:X O *D sky130_fd_sc_hd__buf_1
*CAP
1 *3846:D 0.000215264
2 *3671:X 0.000215264
3 *3846:D *3471:A2 9.12759e-05
4 *3846:D *3691:B_N 1.14192e-05
5 *3846:D *507:30 1.51374e-05
6 *3846:D *516:105 8.58415e-05
7 *3846:D *721:10 8.96091e-05
*RES
1 *3671:X *3846:D 10.6388 
*END

*D_NET *126 0.000481893
*CONN
*I *3847:D I *D sky130_fd_sc_hd__dfxtp_2
*I *3673:X O *D sky130_fd_sc_hd__buf_1
*CAP
1 *3847:D 8.61837e-05
2 *3673:X 8.61837e-05
3 *3847:D *3673:A 0.000154651
4 *3847:D *3847:CLK 9.53428e-06
5 *3847:D *592:6 9.22731e-05
6 *3847:D *592:14 5.30673e-05
*RES
1 *3673:X *3847:D 6.125 
*END

*D_NET *127 0.000241317
*CONN
*I *3848:D I *D sky130_fd_sc_hd__dfxtp_2
*I *3676:X O *D sky130_fd_sc_hd__buf_1
*CAP
1 *3848:D 6.10103e-05
2 *3676:X 6.10103e-05
3 *3848:D *3659:A 9.05535e-05
4 *3848:D *3709:S 1.43717e-05
5 *3848:D *625:82 1.43717e-05
*RES
1 *3676:X *3848:D 8.46375 
*END

*D_NET *128 0.0012549
*CONN
*I *3849:D I *D sky130_fd_sc_hd__dfxtp_2
*I *3678:X O *D sky130_fd_sc_hd__buf_1
*CAP
1 *3849:D 0.000169983
2 *3678:X 0.000169983
3 *3849:D *3429:S1 6.26567e-05
4 *3849:D *3678:A 0.000466889
5 *3849:D *3711:A1 0.000156623
6 *3849:D *544:32 4.82919e-05
7 *3849:D *599:22 1.43717e-05
8 *3849:D *684:8 3.23391e-05
9 *3849:D *845:10 0.000133763
*RES
1 *3678:X *3849:D 13.2487 
*END

*D_NET *129 0.000377365
*CONN
*I *3850:D I *D sky130_fd_sc_hd__dfxtp_2
*I *3680:X O *D sky130_fd_sc_hd__buf_1
*CAP
1 *3850:D 0.000117879
2 *3680:X 0.000117879
3 *3850:D *3439:A0 0
4 *3850:D *3439:S 0.000141606
*RES
1 *3680:X *3850:D 9.555 
*END

*D_NET *130 0.000378406
*CONN
*I *3851:D I *D sky130_fd_sc_hd__dfxtp_2
*I *3682:X O *D sky130_fd_sc_hd__buf_1
*CAP
1 *3851:D 8.77493e-05
2 *3682:X 8.77493e-05
3 *3851:D *3682:A 7.33357e-05
4 *3851:D *3715:A0 2.85128e-05
5 *3851:D *3715:A1 2.69153e-05
6 *3851:D *3715:S 6.04361e-05
7 *3851:D *3851:CLK 9.12494e-06
8 *3851:D *479:8 4.58262e-06
*RES
1 *3682:X *3851:D 9.555 
*END

*D_NET *131 0.000926847
*CONN
*I *3852:D I *D sky130_fd_sc_hd__dfxtp_2
*I *3684:X O *D sky130_fd_sc_hd__buf_1
*CAP
1 *3852:D 0.000232863
2 *3684:X 0.000232863
3 *3852:D *3454:S0 2.40185e-05
4 *3852:D *3454:S1 3.06386e-05
5 *3852:D *3456:A0 7.26583e-05
6 *3852:D *3456:A1 7.26583e-05
7 *3852:D *3852:CLK 9.05592e-05
8 *3852:D *590:25 7.20311e-05
9 *3852:D *690:14 3.48985e-05
10 *3852:D *690:16 6.36578e-05
*RES
1 *3684:X *3852:D 12.1838 
*END

*D_NET *132 0.000725669
*CONN
*I *3853:D I *D sky130_fd_sc_hd__dfxtp_2
*I *3686:X O *D sky130_fd_sc_hd__buf_1
*CAP
1 *3853:D 0.000201433
2 *3686:X 0.000201433
3 *3853:D *3702:S 2.04509e-05
4 *3853:D *3719:A0 3.57924e-05
5 *3853:D *3845:CLK 0.000189426
6 *3853:D *597:18 7.71334e-05
*RES
1 *3686:X *3853:D 11.595 
*END

*D_NET *133 0.000586587
*CONN
*I *3854:D I *D sky130_fd_sc_hd__dfxtp_2
*I *3688:X O *D sky130_fd_sc_hd__buf_1
*CAP
1 *3854:D 0.000208461
2 *3688:X 0.000208461
3 *3854:D *3854:CLK 0.000169665
*RES
1 *3688:X *3854:D 6.06875 
*END

*D_NET *134 0.000299024
*CONN
*I *3855:D I *D sky130_fd_sc_hd__dfxtp_2
*I *3690:X O *D sky130_fd_sc_hd__buf_1
*CAP
1 *3855:D 7.72239e-05
2 *3690:X 7.72239e-05
3 *3855:D *3988:A 0
4 *3855:D *350:57 0.000141606
5 *3855:D *592:14 2.97004e-06
*RES
1 *3690:X *3855:D 8.97375 
*END

*D_NET *135 0.000765052
*CONN
*I *3856:D I *D sky130_fd_sc_hd__dfxtp_2
*I *3693:X O *D sky130_fd_sc_hd__buf_2
*CAP
1 *3856:D 0.000200673
2 *3693:X 0.000200673
3 *3856:D *3420:S0 0
4 *3856:D *3485:A 0.000222659
5 *3856:D *4015:A 9.44361e-05
6 *3760:D *3856:D 4.66108e-05
*RES
1 *3693:X *3856:D 11.0737 
*END

*D_NET *136 0.000924178
*CONN
*I *3857:D I *D sky130_fd_sc_hd__dfxtp_2
*I *3695:X O *D sky130_fd_sc_hd__buf_2
*CAP
1 *3857:D 0.000313753
2 *3695:X 0.000313753
3 *3857:D *3675:A1 0
4 *3857:D *3695:A 4.05358e-05
5 *3857:D *3712:A 0
6 *3857:D *690:14 5.82738e-05
7 *3857:D *837:12 0.000197862
*RES
1 *3695:X *3857:D 12.9187 
*END

*D_NET *137 0.000293997
*CONN
*I *3858:D I *D sky130_fd_sc_hd__dfxtp_2
*I *3697:X O *D sky130_fd_sc_hd__buf_2
*CAP
1 *3858:D 0.000120946
2 *3697:X 0.000120946
3 *3858:D *3637:S 5.21046e-05
4 *3858:D *583:12 0
*RES
1 *3697:X *3858:D 9.15375 
*END

*D_NET *138 0.000485983
*CONN
*I *3859:D I *D sky130_fd_sc_hd__dfxtp_2
*I *3699:X O *D sky130_fd_sc_hd__buf_2
*CAP
1 *3859:D 0.000117827
2 *3699:X 0.000117827
3 *3859:D *3685:S 2.68594e-05
4 *3859:D *3827:CLK 0
5 *3859:D *516:41 7.56999e-05
6 *3859:D *598:14 8.53113e-06
7 *3859:D *685:79 0.000139238
*RES
1 *3699:X *3859:D 9.555 
*END

*D_NET *139 0.00033874
*CONN
*I *3860:D I *D sky130_fd_sc_hd__dfxtp_2
*I *3701:X O *D sky130_fd_sc_hd__buf_2
*CAP
1 *3860:D 0.000152152
2 *3701:X 0.000152152
3 *3860:D *3662:S 4.82319e-06
4 *3860:D *516:57 1.52418e-05
5 *3860:D *590:34 1.43717e-05
6 *3860:D *822:10 0
*RES
1 *3701:X *3860:D 9.42375 
*END

*D_NET *140 0.000225671
*CONN
*I *3861:D I *D sky130_fd_sc_hd__dfxtp_2
*I *3703:X O *D sky130_fd_sc_hd__buf_2
*CAP
1 *3861:D 9.53069e-05
2 *3703:X 9.53069e-05
3 *3861:D *633:25 3.50571e-05
*RES
1 *3703:X *3861:D 8.80875 
*END

*D_NET *141 0.000472482
*CONN
*I *3862:D I *D sky130_fd_sc_hd__dfxtp_2
*I *3705:X O *D sky130_fd_sc_hd__buf_2
*CAP
1 *3862:D 8.696e-05
2 *3705:X 8.696e-05
3 *3862:D *3705:A 4.63352e-05
4 *3862:D *3862:CLK 0.000126467
5 *3862:D *507:42 0.00012576
*RES
1 *3705:X *3862:D 9.49875 
*END

*D_NET *142 0.000694393
*CONN
*I *3863:D I *D sky130_fd_sc_hd__dfxtp_2
*I *3707:X O *D sky130_fd_sc_hd__buf_2
*CAP
1 *3863:D 0.000128302
2 *3707:X 0.000128302
3 *3863:D *3707:A 0.00019194
4 *3863:D *3863:CLK 5.20335e-05
5 *3863:D *684:31 0.000193815
*RES
1 *3707:X *3863:D 11.6138 
*END

*D_NET *143 0.000939636
*CONN
*I *3864:D I *D sky130_fd_sc_hd__dfxtp_2
*I *3710:X O *D sky130_fd_sc_hd__buf_1
*CAP
1 *3864:D 0.000122043
2 *3710:X 0.000122043
3 *3864:D *3422:S 9.23635e-05
4 *3864:D *3481:B1 9.23635e-05
5 *3864:D *3692:A0 0.000200913
6 *3864:D *3692:S 0.000309911
*RES
1 *3710:X *3864:D 11.2238 
*END

*D_NET *144 0.000208118
*CONN
*I *3865:D I *D sky130_fd_sc_hd__dfxtp_2
*I *3712:X O *D sky130_fd_sc_hd__buf_1
*CAP
1 *3865:D 4.64506e-05
2 *3712:X 4.64506e-05
3 *3865:D *3675:S 1.54049e-05
4 *3865:D *3712:A 4.94404e-05
5 *3865:D *3865:CLK 3.59997e-05
6 *3865:D *684:21 1.43717e-05
*RES
1 *3712:X *3865:D 8.46375 
*END

*D_NET *145 0.000626429
*CONN
*I *3866:D I *D sky130_fd_sc_hd__dfxtp_2
*I *3714:X O *D sky130_fd_sc_hd__buf_1
*CAP
1 *3866:D 0.000143491
2 *3714:X 0.000143491
3 *3866:D *3437:A2 9.24049e-05
4 *3866:D *3696:S 2.75229e-05
5 *3866:D *3713:A0 1.10951e-05
6 *3866:D *583:12 4.0732e-05
7 *3866:D *621:10 1.03592e-05
8 *3866:D *621:16 6.03272e-05
9 *3866:D *621:96 9.70046e-05
*RES
1 *3714:X *3866:D 10.9537 
*END

*D_NET *146 0.000752613
*CONN
*I *3867:D I *D sky130_fd_sc_hd__dfxtp_2
*I *3716:X O *D sky130_fd_sc_hd__buf_1
*CAP
1 *3867:D 0.000203699
2 *3716:X 0.000203699
3 *3867:D *3445:S1 5.17877e-05
4 *3867:D *3716:A 0.000110483
5 *3867:D *488:65 9.14714e-05
6 *3867:D *663:26 9.14714e-05
*RES
1 *3716:X *3867:D 10.6388 
*END

*D_NET *147 0.000423948
*CONN
*I *3868:D I *D sky130_fd_sc_hd__dfxtp_2
*I *3718:X O *D sky130_fd_sc_hd__buf_1
*CAP
1 *3868:D 0.000211974
2 *3718:X 0.000211974
3 *3868:D *3437:A0 0
*RES
1 *3718:X *3868:D 10.3538 
*END

*D_NET *148 0.000984927
*CONN
*I *3869:D I *D sky130_fd_sc_hd__dfxtp_2
*I *3720:X O *D sky130_fd_sc_hd__buf_1
*CAP
1 *3869:D 0.000336815
2 *3720:X 0.000336815
3 *3869:D *562:214 0.000112118
4 *3869:D *685:34 0.000199178
*RES
1 *3720:X *3869:D 12.6038 
*END

*D_NET *149 0.000788064
*CONN
*I *3870:D I *D sky130_fd_sc_hd__dfxtp_2
*I *3722:X O *D sky130_fd_sc_hd__buf_1
*CAP
1 *3870:D 0.00033079
2 *3722:X 0.00033079
3 *3870:D *599:18 0.000126484
4 *3841:D *3870:D 0
*RES
1 *3722:X *3870:D 12.2437 
*END

*D_NET *150 0.000534478
*CONN
*I *3871:D I *D sky130_fd_sc_hd__dfxtp_2
*I *3724:X O *D sky130_fd_sc_hd__buf_1
*CAP
1 *3871:D 0.00018087
2 *3724:X 0.00018087
3 *3871:D *3724:A 5.9074e-05
4 *3871:D *3871:CLK 0.000113663
*RES
1 *3724:X *3871:D 6.30875 
*END

*D_NET *151 0.000332915
*CONN
*I *3872:D I *D sky130_fd_sc_hd__dfxtp_2
*I *3728:X O *D sky130_fd_sc_hd__buf_1
*CAP
1 *3872:D 9.54279e-05
2 *3728:X 9.54279e-05
3 *3872:D *3744:S 0
4 *3872:D *626:18 4.82863e-05
5 *3872:D *628:20 9.37731e-05
*RES
1 *3728:X *3872:D 8.91375 
*END

*D_NET *152 0.00180193
*CONN
*I *3873:D I *D sky130_fd_sc_hd__dfxtp_2
*I *3730:X O *D sky130_fd_sc_hd__buf_1
*CAP
1 *3873:D 0.000661344
2 *3730:X 0.000661344
3 *3873:D *3730:A 4.38278e-05
4 *3873:D *3774:CLK 1.87038e-05
5 *3873:D *3970:A 8.00061e-05
6 *3873:D *587:42 0.000160889
7 *3873:D *699:52 0.000161633
8 *3774:D *3873:D 1.41813e-05
*RES
1 *3730:X *3873:D 16.2337 
*END

*D_NET *153 0.000704108
*CONN
*I *3874:D I *D sky130_fd_sc_hd__dfxtp_2
*I *3732:X O *D sky130_fd_sc_hd__buf_1
*CAP
1 *3874:D 0.000139116
2 *3732:X 0.000139116
3 *3874:D *3882:CLK 0.000145465
4 *3874:D *3882:D 0.000266039
5 *3874:D *614:52 1.43717e-05
*RES
1 *3732:X *3874:D 10.9537 
*END

*D_NET *154 0.00122871
*CONN
*I *3875:D I *D sky130_fd_sc_hd__dfxtp_2
*I *3734:X O *D sky130_fd_sc_hd__buf_1
*CAP
1 *3875:D 0.000227487
2 *3734:X 0.000227487
3 *3875:D *3517:A_N 0.000185751
4 *3875:D *3517:C 4.82863e-05
5 *3875:D *3734:A 3.72081e-05
6 *3875:D *413:54 0.00028011
7 *3875:D *422:10 2.18022e-05
8 *3875:D *662:12 7.95409e-05
9 *3875:D *687:78 0.000121036
*RES
1 *3734:X *3875:D 13.875 
*END

*D_NET *155 0.000437689
*CONN
*I *3876:D I *D sky130_fd_sc_hd__dfxtp_2
*I *3736:X O *D sky130_fd_sc_hd__buf_1
*CAP
1 *3876:D 0.000154084
2 *3736:X 0.000154084
3 *3876:D *3450:A2 8.73389e-06
4 *3876:D *3856:CLK 2.55502e-05
5 *3876:D *609:25 9.52367e-05
*RES
1 *3736:X *3876:D 5.37875 
*END

*D_NET *156 0.000338107
*CONN
*I *3877:D I *D sky130_fd_sc_hd__dfxtp_2
*I *3738:X O *D sky130_fd_sc_hd__buf_1
*CAP
1 *3877:D 0.00011658
2 *3738:X 0.00011658
3 *3877:D *3458:A0 7.70553e-06
4 *3877:D *3460:A1 0
5 *3877:D *452:14 8.53113e-06
6 *3877:D *681:44 6.50844e-06
7 *3877:D *687:78 4.82863e-05
8 *3877:D *865:12 3.39151e-05
9 *26:22 *3877:D 0
*RES
1 *3738:X *3877:D 9.16875 
*END

*D_NET *157 0.000345485
*CONN
*I *3878:D I *D sky130_fd_sc_hd__dfxtp_2
*I *3740:X O *D sky130_fd_sc_hd__buf_1
*CAP
1 *3878:D 0.00014702
2 *3740:X 0.00014702
3 *3878:D *3443:S1 0
4 *3878:D *3473:A1 5.14454e-05
5 *3878:D *602:32 0
*RES
1 *3740:X *3878:D 9.57375 
*END

*D_NET *158 0.00115055
*CONN
*I *3879:D I *D sky130_fd_sc_hd__dfxtp_2
*I *3742:X O *D sky130_fd_sc_hd__buf_1
*CAP
1 *3879:D 0.000274056
2 *3742:X 0.000274056
3 *3879:D *3758:A0 0.000139238
4 *3879:D *4015:A 0
5 *3879:D *544:61 0.000233789
6 *3879:D *867:8 0.000229408
*RES
1 *3742:X *3879:D 13.5037 
*END

*D_NET *159 0.000220214
*CONN
*I *3880:D I *D sky130_fd_sc_hd__dfxtp_2
*I *3745:X O *D sky130_fd_sc_hd__buf_1
*CAP
1 *3880:D 0.000110107
2 *3745:X 0.000110107
*RES
1 *3745:X *3880:D 8.80875 
*END

*D_NET *160 0.0021965
*CONN
*I *3881:D I *D sky130_fd_sc_hd__dfxtp_2
*I *3747:X O *D sky130_fd_sc_hd__buf_1
*CAP
1 *3881:D 0.000303434
2 *3747:X 0.000303434
3 *3881:D *3476:S0 0.000364895
4 *3881:D *3503:A0 0.000414729
5 *3881:D *3746:A0 7.22759e-05
6 *3881:D *3747:A 0.000105328
7 *3881:D *4026:A 0.000152672
8 *3881:D *624:42 0.000180689
9 *3881:D *749:10 0.000299041
*RES
1 *3747:X *3881:D 18.1688 
*END

*D_NET *161 0.00188967
*CONN
*I *3882:D I *D sky130_fd_sc_hd__dfxtp_2
*I *3749:X O *D sky130_fd_sc_hd__buf_1
*CAP
1 *3882:D 0.000318063
2 *3749:X 0.000318063
3 *3882:D *3748:A0 0.000453914
4 *3882:D *3882:CLK 8.26527e-05
5 *3882:D *4015:A 0
6 *3882:D *614:37 5.60529e-05
7 *3882:D *622:12 5.51127e-05
8 *3882:D *862:10 0.000339768
9 *3874:D *3882:D 0.000266039
*RES
1 *3749:X *3882:D 17.6437 
*END

*D_NET *162 0.000449008
*CONN
*I *3883:D I *D sky130_fd_sc_hd__dfxtp_2
*I *3751:X O *D sky130_fd_sc_hd__buf_1
*CAP
1 *3883:D 9.8139e-05
2 *3751:X 9.8139e-05
3 *3883:D *3442:A2 0.000136749
4 *3883:D *3473:B1_N 0
5 *3883:D *3751:A 7.46875e-05
6 *3883:D *3883:CLK 1.43717e-05
7 *3883:D *729:80 2.69217e-05
*RES
1 *3751:X *3883:D 9.42375 
*END

*D_NET *163 0.00105411
*CONN
*I *3884:D I *D sky130_fd_sc_hd__dfxtp_2
*I *3753:X O *D sky130_fd_sc_hd__buf_1
*CAP
1 *3884:D 0.000306157
2 *3753:X 0.000306157
3 *3884:D *3441:A 4.94457e-05
4 *3884:D *3510:A 0.000342247
5 *3884:D *4047:A 0
6 *3884:D *609:60 5.01066e-05
*RES
1 *3753:X *3884:D 13.3387 
*END

*D_NET *164 0.000220361
*CONN
*I *3885:D I *D sky130_fd_sc_hd__dfxtp_2
*I *3755:X O *D sky130_fd_sc_hd__buf_1
*CAP
1 *3885:D 6.1532e-05
2 *3755:X 6.1532e-05
3 *3885:D *3755:A 9.37846e-05
4 *3885:D *668:12 3.51254e-06
*RES
1 *3755:X *3885:D 8.46375 
*END

*D_NET *165 0.00188275
*CONN
*I *3886:D I *D sky130_fd_sc_hd__dfxtp_2
*I *3757:X O *D sky130_fd_sc_hd__buf_1
*CAP
1 *3886:D 0.00073559
2 *3757:X 0.00073559
3 *3886:D *3757:A 3.72916e-05
4 *3886:D *3886:CLK 1.43717e-05
5 *3886:D *4050:A 3.72916e-05
6 *3886:D *667:27 0.000176522
7 *3886:D *722:6 9.51622e-05
8 *3886:D *722:8 8.73389e-06
9 *3886:D *722:16 4.21991e-05
*RES
1 *3757:X *3886:D 17.2987 
*END

*D_NET *166 0.00039011
*CONN
*I *3887:D I *D sky130_fd_sc_hd__dfxtp_2
*I *3759:X O *D sky130_fd_sc_hd__buf_1
*CAP
1 *3887:D 8.76146e-05
2 *3759:X 8.76146e-05
3 *3887:D *4047:A 9.54469e-05
4 *3887:D *4098:A 2.39873e-05
5 *3887:D *668:41 9.54469e-05
*RES
1 *3759:X *3887:D 9.15375 
*END

*D_NET *167 0.000810156
*CONN
*I *3257:A2 I *D sky130_fd_sc_hd__a21o_2
*I *3217:A I *D sky130_fd_sc_hd__nand2_2
*I *3216:Y O *D sky130_fd_sc_hd__nand3b_2
*CAP
1 *3257:A2 0
2 *3217:A 4.33384e-05
3 *3216:Y 0.000152378
4 *167:6 0.000195716
5 *3217:A *442:14 0.000140912
6 *3217:A *727:22 7.63282e-05
7 *167:6 *3257:A1 4.0843e-05
8 *167:6 *3257:B1 0.000160641
*RES
1 *3216:Y *167:6 4.12 
2 *167:6 *3217:A 7.235 
3 *167:6 *3257:A2 1.6 
*END

*D_NET *168 0.00135593
*CONN
*I *3221:A I *D sky130_fd_sc_hd__nand2_4
*I *3217:Y O *D sky130_fd_sc_hd__nand2_2
*CAP
1 *3221:A 0.000362773
2 *3217:Y 0.000362773
3 *3221:A *442:14 8.97486e-05
4 *3221:A *727:22 0.000540634
*RES
1 *3217:Y *3221:A 14.91 
*END

*D_NET *169 0.00542513
*CONN
*I *3369:A1 I *D sky130_fd_sc_hd__o2111a_2
*I *3226:A1 I *D sky130_fd_sc_hd__o21ai_2
*I *3220:A I *D sky130_fd_sc_hd__nand4_2
*I *3255:A I *D sky130_fd_sc_hd__xor2_2
*I *3257:A1 I *D sky130_fd_sc_hd__a21o_2
*I *3218:Y O *D sky130_fd_sc_hd__inv_2
*CAP
1 *3369:A1 5.1284e-05
2 *3226:A1 1.82517e-05
3 *3220:A 0.000819389
4 *3255:A 0
5 *3257:A1 0.000419716
6 *3218:Y 0.000443091
7 *169:48 8.93035e-05
8 *169:35 0.00122562
9 *169:10 0.000476349
10 *3220:A *3220:C 0.000233004
11 *3220:A *3222:A 4.01778e-05
12 *3220:A *3222:B 2.50602e-05
13 *3220:A *3222:D 0.000207135
14 *3220:A *172:6 0.000109713
15 *3226:A1 *172:6 4.82919e-05
16 *3257:A1 *3257:B1 0.000281656
17 *3257:A1 *3258:B 4.66742e-05
18 *3369:A1 *3369:A2 5.21046e-05
19 *3369:A1 *3372:A1 5.34461e-05
20 *3369:A1 *3942:CLK 1.28879e-05
21 *3369:A1 *729:20 0.000175081
22 *169:10 *3255:B 4.91189e-05
23 *169:10 *681:22 5.72091e-05
24 *169:10 *729:20 0
25 *169:35 *3942:CLK 0.00010004
26 *169:35 *729:20 0.000250609
27 *169:48 *3942:CLK 3.05238e-05
28 *169:48 *729:20 6.85516e-05
29 *167:6 *3257:A1 4.0843e-05
*RES
1 *3218:Y *169:10 7.235 
2 *169:10 *3257:A1 8.62 
3 *169:10 *3255:A 1.6 
4 *3218:Y *169:35 9.72 
5 *169:35 *3220:A 13.98 
6 *169:35 *169:48 0.87 
7 *169:48 *3226:A1 4.05 
8 *169:48 *3369:A1 5.745 
*END

*D_NET *170 0.00180564
*CONN
*I *3222:A I *D sky130_fd_sc_hd__nand4_2
*I *3220:B I *D sky130_fd_sc_hd__nand4_2
*I *3249:A1 I *D sky130_fd_sc_hd__a21oi_2
*I *3256:A1 I *D sky130_fd_sc_hd__a311o_2
*I *3219:Y O *D sky130_fd_sc_hd__inv_2
*CAP
1 *3222:A 9.862e-05
2 *3220:B 0
3 *3249:A1 0.000144563
4 *3256:A1 0.000111923
5 *3219:Y 0.000111923
6 *170:39 0.000145948
7 *170:22 0.000191891
8 *3222:A *3220:C 6.92319e-05
9 *3222:A *3220:D 4.82919e-05
10 *3222:A *3222:B 0.000272096
11 *3222:A *3222:D 2.61183e-06
12 *3249:A1 *3219:A 6.20977e-05
13 *3249:A1 *3249:A2 4.80285e-05
14 *3249:A1 *696:8 0
15 *3256:A1 *3219:A 2.28686e-05
16 *3256:A1 *683:38 0.000127366
17 *3256:A1 *683:44 9.50342e-06
18 *3256:A1 *726:31 0.000134509
19 *170:39 *726:31 0.000117825
20 *170:39 *727:22 4.61658e-05
21 *3220:A *3222:A 4.01778e-05
*RES
1 *3219:Y *3256:A1 9.63 
2 *3219:Y *170:22 1.6 
3 *170:22 *3249:A1 4.15 
4 *170:22 *170:39 5.38 
5 *170:39 *3220:B 1.6 
6 *170:39 *3222:A 4.84 
*END

*D_NET *171 0.000421609
*CONN
*I *3221:B I *D sky130_fd_sc_hd__nand2_4
*I *3220:Y O *D sky130_fd_sc_hd__nand4_2
*CAP
1 *3221:B 7.07387e-05
2 *3220:Y 7.07387e-05
3 *3221:B *3228:A_N 0.000139352
4 *3221:B *683:38 0.000140779
*RES
1 *3220:Y *3221:B 9.285 
*END

*D_NET *172 0.000980103
*CONN
*I *3226:A2 I *D sky130_fd_sc_hd__o21ai_2
*I *3369:A2 I *D sky130_fd_sc_hd__o2111a_2
*I *3222:Y O *D sky130_fd_sc_hd__nand4_2
*CAP
1 *3226:A2 7.01735e-05
2 *3369:A2 3.17162e-05
3 *3222:Y 0.000232921
4 *172:6 0.000334811
5 *3226:A2 *3340:B 0
6 *3226:A2 *176:14 0
7 *3369:A2 *3942:CLK 9.54469e-05
8 *172:6 *3222:D 4.9253e-06
9 *3220:A *172:6 0.000109713
10 *3226:A1 *172:6 4.82919e-05
11 *3369:A1 *3369:A2 5.21046e-05
*RES
1 *3222:Y *172:6 5.5 
2 *172:6 *3369:A2 6.725 
3 *172:6 *3226:A2 2.665 
*END

*D_NET *173 0.0134062
*CONN
*I *3225:A I *D sky130_fd_sc_hd__nand2_2
*I *3257:B1 I *D sky130_fd_sc_hd__a21o_2
*I *3231:A1 I *D sky130_fd_sc_hd__o21ai_2
*I *3421:A I *D sky130_fd_sc_hd__clkbuf_1
*I *3463:S I *D sky130_fd_sc_hd__mux2_2
*I *3447:S I *D sky130_fd_sc_hd__mux2_2
*I *3223:Y O *D sky130_fd_sc_hd__inv_2
*CAP
1 *3225:A 0.000159664
2 *3257:B1 0.000338196
3 *3231:A1 4.0148e-05
4 *3421:A 0
5 *3463:S 0.000148554
6 *3447:S 0.00018345
7 *3223:Y 0.00163761
8 *173:71 0.000581823
9 *173:60 0.000665326
10 *173:29 0.00128027
11 *173:10 0.00241156
12 *3225:A *874:6 0.000107112
13 *3231:A1 *3231:B1 6.72833e-06
14 *3231:A1 *729:54 4.60814e-05
15 *3257:B1 *3224:B 7.45968e-05
16 *3257:B1 *3224:D 0.000207797
17 *3257:B1 *3259:A 0.000118513
18 *3257:B1 *681:22 2.01541e-05
19 *3257:B1 *683:44 0
20 *3257:B1 *697:19 1.22676e-05
21 *3257:B1 *715:31 2.14129e-05
22 *3257:B1 *726:31 0
23 *3447:S *632:25 0.00030856
24 *3463:S *3635:S 2.85623e-05
25 *3463:S *562:248 7.08331e-05
26 *3463:S *685:18 5.4419e-05
27 *173:10 *3448:A1 0
28 *173:10 *3553:A 6.12586e-05
29 *173:10 *632:25 0.00261594
30 *173:10 *681:22 2.49909e-05
31 *173:10 *683:59 0.00045936
32 *173:10 *869:14 0.00042819
33 *173:29 *3635:S 4.66108e-05
34 *173:29 *4087:A 2.93137e-05
35 *173:29 *562:204 0.00020985
36 *173:60 *681:22 0.000406431
37 *173:60 *726:31 0
38 *173:71 *681:22 0.000158298
39 *173:71 *726:31 0
40 *3257:A1 *3257:B1 0.000281656
41 *167:6 *3257:B1 0.000160641
*RES
1 *3223:Y *173:10 34.5 
2 *173:10 *3447:S 7.725 
3 *173:10 *173:29 18.44 
4 *173:29 *3463:S 8.375 
5 *173:29 *3421:A 1.6 
6 *3223:Y *173:60 12.975 
7 *173:60 *3231:A1 4.395 
8 *173:60 *173:71 1.89 
9 *173:71 *3257:B1 12.42 
10 *173:71 *3225:A 6.48 
*END

*D_NET *174 0.000836981
*CONN
*I *3225:B I *D sky130_fd_sc_hd__nand2_2
*I *3231:A2 I *D sky130_fd_sc_hd__o21ai_2
*I *3224:Y O *D sky130_fd_sc_hd__nand4b_2
*CAP
1 *3225:B 0
2 *3231:A2 0.000153808
3 *3224:Y 9.68166e-05
4 *174:10 0.000250625
5 *3231:A2 *3904:CLK 4.77807e-05
6 *3231:A2 *3935:D 6.36946e-05
7 *3231:A2 *180:20 6.69302e-05
8 *3231:A2 *681:22 0
9 *3231:A2 *729:54 4.90227e-05
10 *174:10 *3935:D 2.24336e-05
11 *174:10 *642:30 1.4399e-05
12 *174:10 *681:22 7.14696e-05
13 *174:10 *729:20 0
14 *174:10 *873:8 0
*RES
1 *3224:Y *174:10 5.685 
2 *174:10 *3231:A2 6.9 
3 *174:10 *3225:B 3.6 
*END

*D_NET *175 0.00223919
*CONN
*I *3369:D1 I *D sky130_fd_sc_hd__o2111a_2
*I *3226:B1 I *D sky130_fd_sc_hd__o21ai_2
*I *3260:B I *D sky130_fd_sc_hd__xor2_2
*I *3225:Y O *D sky130_fd_sc_hd__nand2_2
*CAP
1 *3369:D1 0.000135902
2 *3226:B1 0
3 *3260:B 0.000679449
4 *3225:Y 0.00012211
5 *175:22 0.000693241
6 *3260:B *874:6 3.64998e-06
7 *3260:B *874:21 9.56504e-05
8 *3369:D1 *3369:B1 2.69153e-05
9 *3369:D1 *3372:A1 4.77769e-05
10 *3369:D1 *3942:CLK 0
11 *3369:D1 *178:27 0
12 *3369:D1 *272:8 7.30033e-05
13 *175:22 *3909:RESET_B 0.000139245
14 *175:22 *3942:CLK 0
15 *175:22 *3942:D 0
16 *175:22 *178:27 0
17 *175:22 *712:24 0.000175207
18 *175:22 *729:46 0
19 *175:22 *873:8 0
20 *175:22 *874:21 4.70393e-05
*RES
1 *3225:Y *3260:B 4.0825 
2 *3260:B *175:22 12.5375 
3 *175:22 *3226:B1 3.6 
4 *175:22 *3369:D1 6.45 
*END

*D_NET *176 0.00470352
*CONN
*I *3370:A I *D sky130_fd_sc_hd__and3_2
*I *3227:A I *D sky130_fd_sc_hd__inv_2
*I *3373:A I *D sky130_fd_sc_hd__and3_2
*I *3226:Y O *D sky130_fd_sc_hd__o21ai_2
*CAP
1 *3370:A 0
2 *3227:A 0.000269659
3 *3373:A 0
4 *3226:Y 0.000674798
5 *176:27 0.000559763
6 *176:14 0.000964902
7 *3227:A *3370:C 5.18317e-06
8 *3227:A *3941:RESET_B 0.000304285
9 *176:14 *3340:A 0.000234722
10 *176:14 *3340:B 3.20366e-05
11 *176:14 *3359:B 2.98644e-05
12 *176:14 *3364:C1 6.54361e-06
13 *176:14 *3373:B 6.04361e-05
14 *176:14 *3373:C 5.36975e-06
15 *176:14 *271:10 8.64421e-05
16 *176:14 *281:10 7.3553e-05
17 *176:14 *287:10 0.000367201
18 *176:14 *561:13 0
19 *176:14 *895:22 2.75229e-05
20 *176:14 *895:24 0.000130157
21 *176:27 *3359:B 0.000105393
22 *176:27 *3374:C 7.06865e-05
23 *176:27 *281:10 0.000260712
24 *176:27 *281:38 8.5242e-05
25 *176:27 *304:22 4.04619e-05
26 *176:27 *733:37 0.000308582
27 *3226:A2 *176:14 0
*RES
1 *3226:Y *176:14 16.95 
2 *176:14 *3373:A 3.6 
3 *176:14 *176:27 9.05 
4 *176:27 *3227:A 10.67 
5 *176:27 *3370:A 1.6 
*END

*D_NET *177 0.00188393
*CONN
*I *3229:D I *D sky130_fd_sc_hd__nand4_4
*I *3250:A I *D sky130_fd_sc_hd__nor2_8
*I *3366:A1_N I *D sky130_fd_sc_hd__a2bb2oi_2
*I *3228:X O *D sky130_fd_sc_hd__and3b_4
*CAP
1 *3229:D 4.2751e-05
2 *3250:A 9.61903e-05
3 *3366:A1_N 0.000165316
4 *3228:X 2.14523e-05
5 *177:10 0.000441487
6 *177:6 0.000244184
7 *3229:D *3228:C 8.35157e-05
8 *3229:D *683:30 2.69217e-05
9 *3229:D *683:38 9.56017e-06
10 *3250:A *3250:B 0
11 *3250:A *3468:S 0.00013994
12 *3250:A *726:12 0
13 *3366:A1_N *3473:A1 0.000132406
14 *177:6 *3228:A_N 2.69153e-05
15 *177:6 *3228:C 8.52972e-05
16 *177:6 *683:38 1.32102e-05
17 *177:10 *3468:S 0.000354787
18 *177:10 *726:12 0
*RES
1 *3228:X *177:6 2.395 
2 *177:6 *177:10 6.185 
3 *177:10 *3366:A1_N 6.48 
4 *177:10 *3250:A 5.745 
5 *177:6 *3229:D 2.755 
*END

*D_NET *178 0.00836587
*CONN
*I *3390:A I *D sky130_fd_sc_hd__and3_2
*I *3234:B I *D sky130_fd_sc_hd__xnor2_4
*I *3232:A I *D sky130_fd_sc_hd__nand2_2
*I *3384:A I *D sky130_fd_sc_hd__and4_2
*I *3229:Y O *D sky130_fd_sc_hd__nand4_4
*CAP
1 *3390:A 2.09074e-05
2 *3234:B 0.000353654
3 *3232:A 0
4 *3384:A 0.000538627
5 *3229:Y 0.000229208
6 *178:27 0.00112577
7 *178:6 0.00151905
8 *3234:B *3233:A 4.77719e-05
9 *3234:B *3407:B1 0
10 *3234:B *180:33 0.00101548
11 *3234:B *181:23 0.00052885
12 *3234:B *561:59 8.97486e-05
13 *3384:A *3359:B 6.60042e-05
14 *3384:A *3359:C 0.000156764
15 *3384:A *3391:A1 0.000311582
16 *3384:A *3391:A2 2.21074e-05
17 *3384:A *304:22 0.000323575
18 *178:6 *3352:B 0.000158539
19 *178:6 *3352:C 2.59156e-05
20 *178:6 *3941:CLK 0.000192502
21 *178:6 *284:10 0.000412286
22 *178:6 *291:10 0.000381874
23 *178:6 *729:20 1.34618e-05
24 *178:27 *3232:B 4.89295e-05
25 *178:27 *3233:A 4.77757e-05
26 *178:27 *3352:A 4.37983e-06
27 *178:27 *3352:B 2.84864e-05
28 *178:27 *3352:C 0.00042658
29 *178:27 *3359:A 1.18308e-05
30 *178:27 *180:33 1.14169e-05
31 *178:27 *271:10 6.87394e-05
32 *178:27 *271:21 2.44112e-05
33 *178:27 *272:8 0
34 *178:27 *894:25 0.000159643
35 *3369:D1 *178:27 0
36 *175:22 *178:27 0
*RES
1 *3229:Y *178:6 8.605 
2 *178:6 *3384:A 13.105 
3 *178:6 *178:27 18.205 
4 *178:27 *3232:A 1.6 
5 *178:27 *3234:B 16.91 
6 *3384:A *3390:A 3.65 
*END

*D_NET *179 0.000689818
*CONN
*I *3231:B1 I *D sky130_fd_sc_hd__o21ai_2
*I *3423:A I *D sky130_fd_sc_hd__buf_1
*I *3230:Y O *D sky130_fd_sc_hd__inv_2
*CAP
1 *3231:B1 8.1861e-05
2 *3423:A 0.000109046
3 *3230:Y 0
4 *179:4 0.000190907
5 *3231:B1 *729:54 2.89299e-05
6 *3231:B1 *729:80 4.89395e-05
7 *3423:A *726:31 0.000138106
8 *3423:A *729:80 8.53011e-05
9 *3231:A1 *3231:B1 6.72833e-06
*RES
1 *3230:Y *179:4 1.6 
2 *179:4 *3423:A 8.03 
3 *179:4 *3231:B1 3.085 
*END

*D_NET *180 0.0104195
*CONN
*I *3390:B I *D sky130_fd_sc_hd__and3_2
*I *3384:B I *D sky130_fd_sc_hd__and4_2
*I *3261:B I *D sky130_fd_sc_hd__xor2_2
*I *3232:B I *D sky130_fd_sc_hd__nand2_2
*I *3231:Y O *D sky130_fd_sc_hd__o21ai_2
*CAP
1 *3390:B 0.000180419
2 *3384:B 0
3 *3261:B 0.000406522
4 *3232:B 4.61436e-05
5 *3231:Y 0.00125985
6 *180:42 0.000587239
7 *180:33 0.00152542
8 *180:20 0.00201807
9 *3232:B *3233:A 2.71311e-05
10 *3232:B *3942:D 4.77719e-05
11 *3261:B *3404:B 0.000138106
12 *3261:B *3407:B1 0
13 *3261:B *3937:D 3.12855e-05
14 *3261:B *561:59 0
15 *3261:B *897:10 9.05349e-05
16 *3261:B *897:19 0.000380627
17 *3390:B *3384:C 1.28874e-05
18 *3390:B *3387:A1_N 2.69443e-06
19 *3390:B *3391:A1 0.000196073
20 *3390:B *327:29 0.000107447
21 *180:20 *3909:RESET_B 0
22 *180:20 *3942:D 0.000320601
23 *180:20 *563:10 3.97719e-05
24 *180:20 *681:22 4.85535e-05
25 *180:20 *894:25 0.000479515
26 *180:42 *3384:C 3.52569e-05
27 *180:42 *3385:B 0.000142383
28 *180:42 *3407:B1 0
29 *180:42 *277:60 2.21697e-05
30 *180:42 *327:29 0.000820751
31 *180:42 *897:19 0.000225076
32 *180:42 *897:43 8.44025e-05
33 *3231:A2 *180:20 6.69302e-05
34 *3234:B *180:33 0.00101548
35 *178:27 *3232:B 4.89295e-05
36 *178:27 *180:33 1.14169e-05
*RES
1 *3231:Y *180:20 16.0377 
2 *180:20 *3232:B 2.755 
3 *180:20 *180:33 14.18 
4 *180:33 *3261:B 11.795 
5 *180:33 *180:42 12.09 
6 *180:42 *3384:B 3.6 
7 *180:42 *3390:B 6.81 
*END

*D_NET *181 0.00489446
*CONN
*I *3385:A I *D sky130_fd_sc_hd__and3_2
*I *3388:A I *D sky130_fd_sc_hd__and3_2
*I *3233:A I *D sky130_fd_sc_hd__inv_2
*I *3232:Y O *D sky130_fd_sc_hd__nand2_2
*CAP
1 *3385:A 0
2 *3388:A 7.9628e-05
3 *3233:A 0.00011105
4 *3232:Y 0
5 *181:23 0.00115825
6 *181:4 0.00118967
7 *3233:A *3942:D 3.04704e-05
8 *3388:A *3384:C 5.62661e-05
9 *3388:A *3384:D 4.77807e-05
10 *3388:A *3385:C 8.33066e-06
11 *3388:A *3391:A1 1.79174e-05
12 *3388:A *278:47 2.61744e-05
13 *181:23 *3349:A 4.77769e-05
14 *181:23 *3350:B 8.52972e-05
15 *181:23 *3350:C 4.89395e-05
16 *181:23 *3355:D 0
17 *181:23 *3385:C 0.000198407
18 *181:23 *3390:C 0.000380118
19 *181:23 *3405:A 0
20 *181:23 *282:10 9.23578e-05
21 *181:23 *290:18 0.000237277
22 *181:23 *561:13 0.000427231
23 *181:23 *566:10 0
24 *3232:B *3233:A 2.71311e-05
25 *3234:B *3233:A 4.77719e-05
26 *3234:B *181:23 0.00052885
27 *178:27 *3233:A 4.77757e-05
*RES
1 *3232:Y *181:4 1.6 
2 *181:4 *3233:A 3.79 
3 *181:4 *181:23 28.225 
4 *181:23 *3388:A 7.43 
5 *181:23 *3385:A 1.6 
*END

*D_NET *182 0.000584357
*CONN
*I *3236:A I *D sky130_fd_sc_hd__buf_6
*I *3235:X O *D sky130_fd_sc_hd__and3b_2
*CAP
1 *3236:A 0.000137941
2 *3235:X 0.000137941
3 *3236:A *3920:CLK 0
4 *3236:A *603:8 5.05437e-05
5 *3236:A *643:16 3.81908e-06
6 *3236:A *708:39 0.000116853
7 *3236:A *884:14 0.000137259
*RES
1 *3235:X *3236:A 9.975 
*END

*D_NET *183 0.00496529
*CONN
*I *3242:A1 I *D sky130_fd_sc_hd__a21oi_4
*I *3244:A3 I *D sky130_fd_sc_hd__a31o_2
*I *3269:A I *D sky130_fd_sc_hd__buf_1
*I *3243:D I *D sky130_fd_sc_hd__nand4_2
*I *3241:A2 I *D sky130_fd_sc_hd__a21oi_4
*I *3239:A2 I *D sky130_fd_sc_hd__a21oi_4
*I *3236:X O *D sky130_fd_sc_hd__buf_6
*CAP
1 *3242:A1 0.000240623
2 *3244:A3 8.39621e-05
3 *3269:A 0
4 *3243:D 1.02931e-05
5 *3241:A2 0.000335076
6 *3239:A2 0.00022308
7 *3236:X 0
8 *183:38 0.00012221
9 *183:23 0.000373323
10 *183:4 0.000473995
11 *3239:A2 *3241:A1 5.42473e-05
12 *3239:A2 *3412:B 0
13 *3239:A2 *3413:A 5.33085e-05
14 *3239:A2 *885:10 0.000539846
15 *3241:A2 *3241:A1 4.77757e-05
16 *3241:A2 *3412:B 1.87038e-05
17 *3241:A2 *3986:A 4.41886e-05
18 *3241:A2 *706:44 3.998e-05
19 *3242:A1 *3241:A1 2.5177e-05
20 *3242:A1 *3241:B1 0.000120655
21 *3242:A1 *3412:B 0.00022786
22 *3242:A1 *3925:CLK 1.48096e-05
23 *3242:A1 *187:8 0.000252976
24 *3242:A1 *187:14 1.70935e-05
25 *3242:A1 *202:10 0.000490346
26 *3243:D *3243:B 4.77719e-05
27 *3243:D *3987:A 4.77719e-05
28 *3244:A3 *3243:B 0.000110767
29 *3244:A3 *3244:A2 0.000111628
30 *3244:A3 *3267:A 2.21606e-05
31 *3244:A3 *3987:A 0.000157378
32 *3244:A3 *189:8 0.000111628
33 *3244:A3 *202:8 2.16917e-05
34 *183:23 *3243:B 0.000237268
35 *183:23 *188:83 8.52845e-05
36 *183:23 *637:12 4.9918e-05
37 *183:23 *708:86 0.000123225
38 *183:38 *3244:A2 6.23541e-06
39 *183:38 *3986:A 1.42229e-05
40 *183:38 *706:44 8.80293e-06
*RES
1 *3236:X *183:4 1.6 
2 *183:4 *3239:A2 11.825 
3 *183:4 *183:23 7.055 
4 *183:23 *3241:A2 5.685 
5 *183:23 *183:38 2.615 
6 *183:38 *3243:D 2.05 
7 *183:38 *3269:A 1.6 
8 *183:38 *3244:A3 8.72 
9 *3241:A2 *3242:A1 15.45 
*END

*D_NET *184 0.00542903
*CONN
*I *3482:D I *D sky130_fd_sc_hd__and4bb_2
*I *3285:A I *D sky130_fd_sc_hd__and4_4
*I *3262:A1 I *D sky130_fd_sc_hd__a21o_2
*I *3251:A I *D sky130_fd_sc_hd__and3_2
*I *3238:A1 I *D sky130_fd_sc_hd__a31oi_2
*I *3252:A1 I *D sky130_fd_sc_hd__a21oi_2
*I *3237:Y O *D sky130_fd_sc_hd__inv_2
*CAP
1 *3482:D 0.000328963
2 *3285:A 0
3 *3262:A1 0.000177533
4 *3251:A 6.31427e-05
5 *3238:A1 0
6 *3252:A1 0.000187413
7 *3237:Y 0.000507828
8 *184:40 0.000338555
9 *184:36 9.78797e-05
10 *184:18 0.000515589
11 *184:10 0.000507041
12 *3251:A *3708:B 8.65905e-05
13 *3251:A *218:39 3.57349e-05
14 *3251:A *869:71 4.41506e-05
15 *3252:A1 *3238:A2 6.50844e-05
16 *3252:A1 *3238:A3 0.000141833
17 *3252:A1 *3238:B1 0
18 *3252:A1 *3252:A2 5.30673e-05
19 *3252:A1 *3285:D 4.66108e-05
20 *3252:A1 *3708:A_N 0
21 *3252:A1 *194:10 0.000163199
22 *3262:A1 *3252:B1 0.000114492
23 *3262:A1 *3262:B1 0.000196376
24 *3262:A1 *3264:A 0.000104132
25 *3262:A1 *3285:D 5.38986e-06
26 *3482:D *3237:A 8.40269e-05
27 *3482:D *3482:B_N 0.000197264
28 *3482:D *3482:C 4.82863e-05
29 *3482:D *707:6 4.66108e-05
30 *3482:D *708:41 2.16833e-05
31 *3482:D *708:45 0.000155997
32 *184:10 *3237:A 6.28687e-05
33 *184:10 *3285:B 2.42236e-05
34 *184:10 *193:14 0
35 *184:10 *708:41 6.1357e-05
36 *184:10 *708:45 2.75229e-05
37 *184:18 *3237:A 2.97561e-05
38 *184:18 *3238:A2 4.63093e-05
39 *184:18 *3238:B1 7.94204e-05
40 *184:18 *3262:B1 2.4997e-05
41 *184:18 *3285:D 9.17504e-06
42 *184:18 *3929:CLK 7.23602e-05
43 *184:18 *185:21 5.83121e-06
44 *184:18 *218:39 0.00022915
45 *184:18 *714:34 0
46 *184:18 *714:52 0
47 *184:40 *3235:C 7.78771e-05
48 *184:40 *3285:D 4.82919e-05
49 *184:40 *218:39 0.000230429
50 *184:40 *637:14 1.19928e-05
51 *184:40 *869:71 5.29938e-05
*RES
1 *3237:Y *184:10 6.465 
2 *184:10 *184:18 7.775 
3 *184:18 *3252:A1 6.13 
4 *184:18 *3238:A1 1.6 
5 *184:10 *184:36 2 
6 *184:36 *184:40 2.88 
7 *184:40 *3251:A 3.1 
8 *184:40 *3262:A1 8.81 
9 *184:36 *3285:A 1.6 
10 *3237:Y *3482:D 9.17 
*END

*D_NET *185 0.00309362
*CONN
*I *3239:B1 I *D sky130_fd_sc_hd__a21oi_4
*I *3265:B I *D sky130_fd_sc_hd__xnor2_2
*I *4089:A I *D sky130_fd_sc_hd__clkbuf_2
*I *3263:A1 I *D sky130_fd_sc_hd__a22o_2
*I *3238:Y O *D sky130_fd_sc_hd__a31oi_2
*CAP
1 *3239:B1 0
2 *3265:B 0.000286902
3 *4089:A 0
4 *3263:A1 0.000113992
5 *3238:Y 0
6 *185:31 0.000625305
7 *185:21 0.000492636
8 *185:4 0.000268224
9 *3263:A1 *3238:B1 5.4003e-05
10 *3263:A1 *3929:CLK 0.000158297
11 *3263:A1 *4034:A 4.66826e-05
12 *3263:A1 *218:39 5.73518e-05
13 *3265:B *643:16 0.000376993
14 *185:21 *3238:B1 2.49909e-05
15 *185:21 *3285:D 1.19928e-05
16 *185:21 *714:34 5.05521e-05
17 *185:31 *3929:CLK 3.1562e-06
18 *185:31 *3930:D 0.000123225
19 *185:31 *3931:CLK 0.000116853
20 *185:31 *603:10 0.000113044
21 *185:31 *643:16 1.90762e-05
22 *185:31 *714:34 0.000127408
23 *185:31 *714:52 1.71013e-05
24 *184:18 *185:21 5.83121e-06
*RES
1 *3238:Y *185:4 1.6 
2 *185:4 *3263:A1 8.285 
3 *185:4 *185:21 2.535 
4 *185:21 *185:31 10.045 
5 *185:31 *4089:A 1.6 
6 *185:31 *3265:B 7.57 
7 *185:21 *3239:B1 1.6 
*END

*D_NET *186 0.00356104
*CONN
*I *3242:A2 I *D sky130_fd_sc_hd__a21oi_4
*I *3277:A2 I *D sky130_fd_sc_hd__a22o_2
*I *3334:A2 I *D sky130_fd_sc_hd__a221o_2
*I *3240:X O *D sky130_fd_sc_hd__and2_2
*CAP
1 *3242:A2 2.44714e-05
2 *3277:A2 7.18416e-06
3 *3334:A2 0.000101951
4 *3240:X 0.000182346
5 *186:10 0.000443273
6 *186:6 0.000540956
7 *3242:A2 *3242:B1 2.49909e-05
8 *3277:A2 *3277:B1 1.2818e-05
9 *3334:A2 *3334:A1 7.18817e-05
10 *3334:A2 *3334:B1 1.16578e-05
11 *3334:A2 *187:14 0.000142497
12 *3334:A2 *187:35 8.63638e-05
13 *3334:A2 *205:23 1.37395e-05
14 *3334:A2 *210:10 3.68784e-05
15 *186:6 *3242:B1 0.000198588
16 *186:6 *706:14 8.80473e-05
17 *186:10 *3334:A1 2.38449e-05
18 *186:10 *187:14 0.00101604
19 *186:10 *202:10 0.000533513
*RES
1 *3240:X *186:6 5.155 
2 *186:6 *186:10 14.09 
3 *186:10 *3334:A2 6.57375 
4 *186:10 *3277:A2 3.72375 
5 *186:6 *3242:A2 2.05 
*END

*D_NET *187 0.00601975
*CONN
*I *3266:B I *D sky130_fd_sc_hd__xnor2_2
*I *3242:B1 I *D sky130_fd_sc_hd__a21oi_4
*I *3298:A2 I *D sky130_fd_sc_hd__o22ai_2
*I *3310:A1 I *D sky130_fd_sc_hd__o221ai_2
*I *3334:C1 I *D sky130_fd_sc_hd__a221o_2
*I *3241:Y O *D sky130_fd_sc_hd__a21oi_4
*CAP
1 *3266:B 9.40261e-05
2 *3242:B1 0.000150219
3 *3298:A2 0
4 *3310:A1 0.00016706
5 *3334:C1 0.000138191
6 *3241:Y 0
7 *187:35 0.000288886
8 *187:14 0.000864625
9 *187:8 0.000993322
10 *187:6 0.000332521
11 *3242:B1 *706:14 8.23457e-05
12 *3266:B *3330:B 0
13 *3266:B *3925:CLK 0
14 *3266:B *202:10 3.98952e-05
15 *3266:B *202:54 2.24423e-05
16 *3310:A1 *3298:B1 5.33085e-05
17 *3310:A1 *3310:A2 9.91257e-05
18 *3310:A1 *3310:B2 1.37328e-05
19 *3310:A1 *205:40 5.16418e-05
20 *3310:A1 *231:14 7.26034e-05
21 *3334:C1 *3334:A1 6.02035e-05
22 *3334:C1 *3334:B2 1.10062e-05
23 *187:8 *3330:B 0
24 *187:8 *3931:RESET_B 0.000139245
25 *187:8 *4035:A 5.21046e-05
26 *187:8 *202:10 2.66852e-05
27 *187:14 *3291:A1 6.04287e-05
28 *187:14 *3334:A1 1.91597e-05
29 *187:14 *3334:B1 7.68414e-06
30 *187:14 *4035:A 0.000130065
31 *187:14 *202:10 4.24292e-06
32 *187:14 *205:17 0
33 *187:14 *205:23 0
34 *187:14 *206:18 2.25299e-05
35 *187:14 *210:10 7.23602e-05
36 *187:35 *3298:B1 2.14129e-05
37 *187:35 *3334:A1 3.09164e-05
38 *187:35 *3334:B2 2.23485e-05
39 *187:35 *205:40 0.000120186
40 *187:35 *210:10 1.66812e-05
41 *3242:A1 *187:8 0.000252976
42 *3242:A1 *187:14 1.70935e-05
43 *3242:A2 *3242:B1 2.49909e-05
44 *3334:A2 *187:14 0.000142497
45 *3334:A2 *187:35 8.63638e-05
46 *186:6 *3242:B1 0.000198588
47 *186:10 *187:14 0.00101604
*RES
1 *3241:Y *187:6 3.6 
2 *187:6 *187:8 6.225 
3 *187:8 *187:14 16.925 
4 *187:14 *3334:C1 3.82 
5 *187:14 *187:35 5.21 
6 *187:35 *3310:A1 7.095 
7 *187:35 *3298:A2 3.6 
8 *187:8 *3242:B1 6.585 
9 *187:6 *3266:B 5.49 
*END

*D_NET *188 0.00787854
*CONN
*I *3300:A I *D sky130_fd_sc_hd__and3_4
*I *3301:A1 I *D sky130_fd_sc_hd__a21oi_2
*I *3267:C I *D sky130_fd_sc_hd__and3_2
*I *3588:A I *D sky130_fd_sc_hd__buf_2
*I *3247:B I *D sky130_fd_sc_hd__xor2_2
*I *3245:A I *D sky130_fd_sc_hd__and2_2
*I *3243:Y O *D sky130_fd_sc_hd__nand4_2
*CAP
1 *3300:A 6.30121e-05
2 *3301:A1 0
3 *3267:C 4.09365e-05
4 *3588:A 0.000315218
5 *3247:B 0
6 *3245:A 0
7 *3243:Y 0.000782679
8 *188:83 0.000689347
9 *188:43 0.000521752
10 *188:33 0.000601405
11 *188:12 0.000510279
12 *3267:C *3267:B 9.60582e-07
13 *3300:A *3300:B 0.000160641
14 *3300:A *3301:A2 4.77769e-05
15 *3300:A *3301:B1 4.77807e-05
16 *3300:A *234:12 1.42598e-05
17 *3588:A *3268:A2 0.000310171
18 *3588:A *3268:B1_N 6.31804e-05
19 *3588:A *3449:A 8.52649e-05
20 *3588:A *3908:D 0.000309664
21 *3588:A *3927:D 0.000307665
22 *3588:A *3990:A 9.9535e-05
23 *3588:A *903:21 3.25831e-05
24 *188:12 *3241:A1 0
25 *188:12 *3243:C 0.000152759
26 *188:12 *3244:A1 4.99581e-05
27 *188:12 *3245:B 4.66108e-05
28 *188:12 *3412:B 7.8336e-05
29 *188:33 *3244:A1 9.823e-05
30 *188:33 *3245:B 9.8456e-05
31 *188:33 *3412:B 3.57349e-05
32 *188:33 *4031:A 0.000171898
33 *188:33 *572:10 1.59467e-05
34 *188:33 *702:33 9.64361e-05
35 *188:43 *3267:A 8.42884e-06
36 *188:43 *3267:B 0.000162306
37 *188:43 *3268:B1_N 0.000269592
38 *188:43 *3990:A 8.53113e-06
39 *188:43 *903:21 9.58776e-05
40 *188:83 *3243:B 3.63267e-05
41 *188:83 *3301:A2 3.09233e-05
42 *188:83 *189:8 0.000961956
43 *188:83 *202:8 8.35068e-05
44 *188:83 *706:44 0.00028733
45 *183:23 *188:83 8.52845e-05
*RES
1 *3243:Y *188:12 8.705 
2 *188:12 *3245:A 1.6 
3 *188:12 *188:33 11.05 
4 *188:33 *188:43 8.465 
5 *188:43 *3247:B 2 
6 *188:43 *3588:A 13.275 
7 *188:33 *3267:C 2.05 
8 *3243:Y *188:83 19.355 
9 *188:83 *3301:A1 1.6 
10 *188:83 *3300:A 3.43 
*END

*D_NET *189 0.00512811
*CONN
*I *3245:B I *D sky130_fd_sc_hd__and2_2
*I *3267:A I *D sky130_fd_sc_hd__and3_2
*I *3300:B I *D sky130_fd_sc_hd__and3_4
*I *3301:A2 I *D sky130_fd_sc_hd__a21oi_2
*I *3244:X O *D sky130_fd_sc_hd__a31o_2
*CAP
1 *3245:B 0.000140602
2 *3267:A 0.000199856
3 *3300:B 0.00012808
4 *3301:A2 9.19608e-05
5 *3244:X 0.000140602
6 *189:8 0.000561997
7 *189:6 0.000541812
8 *3245:B *3243:C 0.000119866
9 *3245:B *3412:B 1.91597e-05
10 *3245:B *202:54 0.000210813
11 *3245:B *702:27 0.000234744
12 *3245:B *702:33 8.35106e-05
13 *3267:A *3266:A 2.93063e-05
14 *3267:A *3267:B 2.57991e-05
15 *3267:A *702:14 0.000162137
16 *3300:B *3301:B1 3.93467e-05
17 *3301:A2 *202:10 1.69341e-05
18 *189:8 *3241:B1 0.000151432
19 *189:8 *3244:A2 1.07797e-05
20 *189:8 *3266:A 6.05378e-05
21 *189:8 *202:10 0.000143749
22 *189:8 *202:54 1.52862e-05
23 *189:8 *706:8 0.000159957
24 *189:8 *706:34 0.000329702
25 *189:8 *706:44 2.15594e-05
26 *3244:A3 *3267:A 2.21606e-05
27 *3244:A3 *189:8 0.000111628
28 *3300:A *3300:B 0.000160641
29 *3300:A *3301:A2 4.77769e-05
30 *188:12 *3245:B 4.66108e-05
31 *188:33 *3245:B 9.8456e-05
32 *188:43 *3267:A 8.42884e-06
33 *188:83 *3301:A2 3.09233e-05
34 *188:83 *189:8 0.000961956
*RES
1 *3244:X *189:6 3.6 
2 *189:6 *189:8 13.365 
3 *189:8 *3301:A2 5.355 
4 *189:8 *3300:B 5.775 
5 *189:6 *3267:A 7.665 
6 *3244:X *3245:B 8.15 
*END

*D_NET *190 0.00125064
*CONN
*I *3246:A I *D sky130_fd_sc_hd__buf_1
*I *3245:X O *D sky130_fd_sc_hd__and2_2
*CAP
1 *3246:A 0.000379858
2 *3245:X 0.000379858
3 *3246:A *3932:D 0
4 *3246:A *4031:A 4.35558e-05
5 *3246:A *202:54 8.46767e-05
6 *3246:A *562:302 7.32392e-05
7 *3246:A *562:308 4.09926e-05
8 *3246:A *573:14 0.000206123
9 *3246:A *606:10 0
10 *3246:A *885:10 4.23341e-05
*RES
1 *3245:X *3246:A 14.85 
*END

*D_NET *191 0.0045061
*CONN
*I *3332:B I *D sky130_fd_sc_hd__xor2_2
*I *3248:A I *D sky130_fd_sc_hd__inv_2
*I *3330:B I *D sky130_fd_sc_hd__xnor2_2
*I *3247:X O *D sky130_fd_sc_hd__xor2_2
*CAP
1 *3332:B 4.29087e-05
2 *3248:A 2.22788e-05
3 *3330:B 0.00102029
4 *3247:X 0.000187698
5 *191:10 0.00118736
6 *3248:A *3933:CLK 4.82863e-05
7 *3330:B *3271:A 4.60584e-05
8 *3330:B *3271:B 0.00012657
9 *3330:B *3413:B 0.000183043
10 *3330:B *3921:CLK 0
11 *3330:B *3925:CLK 0.000289712
12 *3330:B *3925:D 4.61923e-05
13 *3330:B *3931:RESET_B 0
14 *3330:B *3933:RESET_B 0
15 *3330:B *4032:A 4.23802e-05
16 *3330:B *4035:A 0
17 *3330:B *204:10 8.65961e-05
18 *3330:B *607:22 0
19 *3330:B *717:14 8.55971e-05
20 *3330:B *717:29 0.000767874
21 *3332:B *886:16 0.00016163
22 *3332:B *887:12 0.000107634
23 *3332:B *887:14 5.39961e-05
24 *191:10 *3268:A2 0
25 *191:10 *3916:D 0
26 *191:10 *3933:RESET_B 0
27 *191:10 *607:18 0
28 *3266:B *3330:B 0
29 *187:8 *3330:B 0
*RES
1 *3247:X *191:10 6.375 
2 *191:10 *3330:B 25.62 
3 *191:10 *3248:A 4.05 
4 *3330:B *3332:B 7.49 
*END

*D_NET *192 0.00133172
*CONN
*I *4088:A I *D sky130_fd_sc_hd__buf_2
*I *3255:B I *D sky130_fd_sc_hd__xor2_2
*I *3249:Y O *D sky130_fd_sc_hd__a21oi_2
*CAP
1 *4088:A 0
2 *3255:B 0.000238897
3 *3249:Y 0.000140494
4 *192:8 0.000379391
5 *3255:B *681:22 0
6 *3255:B *687:24 0
7 *3255:B *729:20 0
8 *192:8 *3249:A2 5.83121e-06
9 *192:8 *4027:A 4.82863e-05
10 *192:8 *642:45 8.34281e-06
11 *192:8 *675:10 0.000310394
12 *192:8 *696:8 0.000150967
13 *169:10 *3255:B 4.91189e-05
*RES
1 *3249:Y *192:8 5.515 
2 *192:8 *3255:B 8.185 
3 *192:8 *4088:A 1.6 
*END

*D_NET *193 0.00844893
*CONN
*I *3605:D_N I *D sky130_fd_sc_hd__nor4b_4
*I *3253:A I *D sky130_fd_sc_hd__or2_2
*I *3295:A1 I *D sky130_fd_sc_hd__o211ai_2
*I *3674:C I *D sky130_fd_sc_hd__and4bb_2
*I *3552:D I *D sky130_fd_sc_hd__and4b_2
*I *3743:D I *D sky130_fd_sc_hd__and4bb_2
*I *3251:X O *D sky130_fd_sc_hd__and3_2
*CAP
1 *3605:D_N 0.00033162
2 *3253:A 0
3 *3295:A1 0.000110375
4 *3674:C 0
5 *3552:D 8.72153e-05
6 *3743:D 0
7 *3251:X 9.66606e-05
8 *193:51 0.000326084
9 *193:45 0.000730604
10 *193:18 0.000109953
11 *193:14 0.00103916
12 *193:8 0.00129636
13 *3295:A1 *3295:A2 0.000187726
14 *3295:A1 *194:10 1.89685e-05
15 *3295:A1 *195:10 0.000378593
16 *3552:D *3552:B 4.66108e-05
17 *3552:D *3725:A_N 0.00018037
18 *3552:D *700:105 4.66108e-05
19 *3552:D *701:10 0.000170904
20 *3552:D *701:84 4.76263e-05
21 *3552:D *705:78 4.11226e-05
22 *3605:D_N *3252:B1 6.03272e-05
23 *3605:D_N *3262:A2 4.82919e-05
24 *3605:D_N *3262:B1 0.000131611
25 *3605:D_N *3263:A2 0.000342778
26 *3605:D_N *3264:A 9.04638e-05
27 *3605:D_N *3285:D 5.38986e-06
28 *3605:D_N *869:14 1.91597e-05
29 *193:8 *3708:B 0.000234674
30 *193:8 *218:39 0.000122337
31 *193:8 *637:16 0.000266164
32 *193:14 *3237:A 0
33 *193:14 *3264:A 0.000306145
34 *193:14 *3285:B 7.21296e-06
35 *193:14 *3674:B_N 8.46767e-05
36 *193:14 *3691:A_N 0.000108446
37 *193:14 *498:16 3.04704e-05
38 *193:14 *714:52 0
39 *193:18 *701:10 7.1624e-05
40 *193:18 *705:78 7.03276e-05
41 *193:45 *3263:A2 2.99953e-05
42 *193:45 *3264:A 1.95374e-05
43 *193:45 *3285:B 7.4027e-05
44 *193:45 *3285:D 9.42145e-05
45 *193:45 *218:39 0.000135855
46 *193:51 *3263:A2 0.000277679
47 *193:51 *3264:A 1.53032e-05
48 *193:51 *194:10 0
49 *193:51 *195:10 7.73272e-05
50 *193:51 *218:39 0.000478333
51 *184:10 *193:14 0
*RES
1 *3251:X *193:8 6.81 
2 *193:8 *193:14 16.52 
3 *193:14 *193:18 2.87 
4 *193:18 *3743:D 3.6 
5 *193:18 *3552:D 6.705 
6 *193:14 *3674:C 1.6 
7 *193:8 *193:45 4.0875 
8 *193:45 *193:51 8.3825 
9 *193:51 *3295:A1 10.04 
10 *193:51 *3253:A 1.6 
11 *193:45 *3605:D_N 9.87357 
*END

*D_NET *194 0.00175846
*CONN
*I *3253:B I *D sky130_fd_sc_hd__or2_2
*I *3295:A2 I *D sky130_fd_sc_hd__o211ai_2
*I *3252:Y O *D sky130_fd_sc_hd__a21oi_2
*CAP
1 *3253:B 0
2 *3295:A2 0.000315304
3 *3252:Y 0.000287655
4 *194:10 0.000602959
5 *3295:A2 *632:25 0
6 *194:10 *3264:A 0.000162318
7 *194:10 *195:10 2.03321e-05
8 *194:10 *632:25 0
9 *3252:A1 *194:10 0.000163199
10 *3295:A1 *3295:A2 0.000187726
11 *3295:A1 *194:10 1.89685e-05
12 *193:51 *194:10 0
*RES
1 *3252:Y *194:10 9.015 
2 *194:10 *3295:A2 9.36 
3 *194:10 *3253:B 3.6 
*END

*D_NET *195 0.0038948
*CONN
*I *3263:B1 I *D sky130_fd_sc_hd__a22o_2
*I *3254:A I *D sky130_fd_sc_hd__inv_2
*I *3326:A2 I *D sky130_fd_sc_hd__o22ai_2
*I *3253:X O *D sky130_fd_sc_hd__or2_2
*CAP
1 *3263:B1 0.000111894
2 *3254:A 1.3091e-05
3 *3326:A2 0.000122476
4 *3253:X 0
5 *195:10 0.000684197
6 *195:4 0.000660524
7 *3254:A *3979:A 4.82863e-05
8 *3254:A *4000:A 1.83756e-05
9 *3263:B1 *3929:CLK 8.97642e-05
10 *3263:B1 *218:39 0.000162332
11 *3326:A2 *3325:B1 0
12 *3326:A2 *3326:A1 6.65066e-05
13 *3326:A2 *3326:B2 4.43871e-06
14 *195:10 *3294:B1 4.57966e-05
15 *195:10 *3318:B1 0.000204603
16 *195:10 *3320:A1_N 0.000187071
17 *195:10 *3320:A2_N 1.01661e-05
18 *195:10 *3325:B1 0
19 *195:10 *3326:A1 9.66886e-05
20 *195:10 *3929:RESET_B 4.22522e-05
21 *195:10 *4000:A 0.000141599
22 *195:10 *218:39 5.43761e-05
23 *195:10 *225:17 8.32311e-06
24 *195:10 *226:12 0.000304075
25 *195:10 *249:8 0.000290815
26 *195:10 *250:8 5.08981e-05
27 *3295:A1 *195:10 0.000378593
28 *193:51 *195:10 7.73272e-05
29 *194:10 *195:10 2.03321e-05
*RES
1 *3253:X *195:4 1.6 
2 *195:4 *195:10 19.385 
3 *195:10 *3326:A2 5.94 
4 *195:10 *3254:A 4.05 
5 *195:4 *3263:B1 8.285 
*END

*D_NET *196 0.0007459
*CONN
*I *3258:A I *D sky130_fd_sc_hd__and2_2
*I *3256:X O *D sky130_fd_sc_hd__a311o_2
*CAP
1 *3258:A 0.000140247
2 *3256:X 0.000140247
3 *3258:A *3444:S 5.83121e-06
4 *3258:A *683:44 5.05521e-05
5 *3258:A *726:31 0.000113623
6 *3258:A *727:22 0.0002954
*RES
1 *3256:X *3258:A 11.415 
*END

*D_NET *197 0.000530256
*CONN
*I *3258:B I *D sky130_fd_sc_hd__and2_2
*I *3257:X O *D sky130_fd_sc_hd__a21o_2
*CAP
1 *3258:B 0.000100199
2 *3257:X 0.000100199
3 *3258:B *683:44 0.000141592
4 *3258:B *726:31 0.000141592
5 *3257:A1 *3258:B 4.66742e-05
*RES
1 *3257:X *3258:B 9.63 
*END

*D_NET *198 0.000393463
*CONN
*I *3259:A I *D sky130_fd_sc_hd__buf_2
*I *3258:X O *D sky130_fd_sc_hd__and2_2
*CAP
1 *3259:A 0.000120196
2 *3258:X 0.000120196
3 *3259:A *3224:B 3.45588e-05
4 *3259:A *726:31 0
5 *3257:B1 *3259:A 0.000118513
*RES
1 *3258:X *3259:A 9.375 
*END

*D_NET *199 0.00199786
*CONN
*I *3263:A2 I *D sky130_fd_sc_hd__a22o_2
*I *3262:X O *D sky130_fd_sc_hd__a21o_2
*CAP
1 *3263:A2 0.000250779
2 *3262:X 0.000250779
3 *3263:A2 *3238:B1 0.00018955
4 *3263:A2 *3262:B1 9.56742e-05
5 *3263:A2 *3264:A 6.18754e-05
6 *3263:A2 *3285:D 0.000199352
7 *3263:A2 *4034:A 2.80883e-05
8 *3263:A2 *869:14 0.000271308
9 *3605:D_N *3263:A2 0.000342778
10 *193:45 *3263:A2 2.99953e-05
11 *193:51 *3263:A2 0.000277679
*RES
1 *3262:X *3263:A2 15.375 
*END

*D_NET *200 0.00249276
*CONN
*I *3264:A I *D sky130_fd_sc_hd__buf_6
*I *3263:X O *D sky130_fd_sc_hd__a22o_2
*CAP
1 *3264:A 0.000532716
2 *3263:X 0.000532716
3 *3264:A *3252:B1 4.97162e-05
4 *3264:A *3285:D 0.00029109
5 *3264:A *3691:A_N 8.24878e-05
6 *3264:A *4034:A 4.82919e-05
7 *3264:A *202:54 2.69153e-05
8 *3264:A *632:25 0
9 *3264:A *707:29 0.000169055
10 *3262:A1 *3264:A 0.000104132
11 *3263:A2 *3264:A 6.18754e-05
12 *3605:D_N *3264:A 9.04638e-05
13 *193:14 *3264:A 0.000306145
14 *193:45 *3264:A 1.95374e-05
15 *193:51 *3264:A 1.53032e-05
16 *194:10 *3264:A 0.000162318
*RES
1 *3263:X *3264:A 19.0895 
*END

*D_NET *201 0.00154358
*CONN
*I *3268:B1_N I *D sky130_fd_sc_hd__o21ba_2
*I *3267:X O *D sky130_fd_sc_hd__and3_2
*CAP
1 *3268:B1_N 0.000474211
2 *3267:X 0.000474211
3 *3268:B1_N *3268:A2 4.77719e-05
4 *3268:B1_N *3449:A 2.68464e-05
5 *3268:B1_N *3990:A 0.000187766
6 *3588:A *3268:B1_N 6.31804e-05
7 *188:43 *3268:B1_N 0.000269592
*RES
1 *3267:X *3268:B1_N 17.445 
*END

*D_NET *202 0.0163973
*CONN
*I *3639:C I *D sky130_fd_sc_hd__and4bb_2
*I *3622:D_N I *D sky130_fd_sc_hd__nor4b_4
*I *3500:D I *D sky130_fd_sc_hd__and4bb_2
*I *3517:C I *D sky130_fd_sc_hd__nand4b_1
*I *3570:D I *D sky130_fd_sc_hd__and4b_2
*I *3691:C I *D sky130_fd_sc_hd__and4bb_2
*I *3277:A1 I *D sky130_fd_sc_hd__a22o_2
*I *3334:A1 I *D sky130_fd_sc_hd__a221o_2
*I *3269:X O *D sky130_fd_sc_hd__buf_1
*CAP
1 *3639:C 6.52939e-05
2 *3622:D_N 0.000135178
3 *3500:D 7.17285e-05
4 *3517:C 0.000151588
5 *3570:D 2.54989e-05
6 *3691:C 0
7 *3277:A1 4.79886e-05
8 *3334:A1 0.00017075
9 *3269:X 0.000106931
10 *202:104 0.000428155
11 *202:78 0.000504386
12 *202:65 0.000465446
13 *202:56 0.00020121
14 *202:54 0.00238236
15 *202:10 0.000935054
16 *202:8 0.00293559
17 *3277:A1 *3277:B1 2.75229e-05
18 *3334:A1 *3334:B1 2.49909e-05
19 *3334:A1 *3334:B2 0.000162318
20 *3500:D *3500:B_N 4.77757e-05
21 *3500:D *3500:C 4.66108e-05
22 *3500:D *3517:B 7.40446e-05
23 *3500:D *707:91 1.41165e-05
24 *3517:C *3517:B 0.000313435
25 *3517:C *3571:A 0.000139238
26 *3517:C *413:54 0.000135568
27 *3517:C *422:10 4.41506e-05
28 *3517:C *681:44 1.33293e-05
29 *3517:C *687:78 2.0514e-05
30 *3570:D *352:34 4.82919e-05
31 *3622:D_N *3715:S 7.70828e-05
32 *3622:D_N *525:29 0.000173533
33 *3622:D_N *721:12 0.000138196
34 *3639:C *470:10 8.23457e-05
35 *202:8 *3243:B 4.77719e-05
36 *202:8 *3987:A 5.78185e-05
37 *202:10 *3241:B1 8.52172e-05
38 *202:10 *3280:B1 3.36324e-05
39 *202:10 *3291:A3 0.000134875
40 *202:10 *706:8 8.70923e-05
41 *202:10 *706:34 0.000187424
42 *202:54 *3243:C 0.000119866
43 *202:54 *3266:A 0.000156189
44 *202:54 *3411:A 0.000308641
45 *202:54 *3411:B 8.73846e-05
46 *202:54 *3412:B 0.000143704
47 *202:54 *3925:CLK 0
48 *202:54 *498:22 0.000156767
49 *202:54 *600:8 0.000343171
50 *202:54 *702:14 7.27587e-05
51 *202:54 *702:27 1.32026e-05
52 *202:54 *721:10 1.97429e-05
53 *202:56 *516:24 1.17614e-05
54 *202:56 *516:105 1.28996e-05
55 *202:56 *663:16 2.55135e-05
56 *202:56 *721:10 0.000116434
57 *202:65 *3471:A2 7.97083e-05
58 *202:65 *3691:B_N 0.000313818
59 *202:65 *516:105 1.21256e-05
60 *202:65 *721:10 0.000276725
61 *202:78 *3471:A1 1.79536e-05
62 *202:78 *3471:A2 1.33644e-05
63 *202:78 *3511:S 0.000226848
64 *202:78 *3517:D 1.52945e-05
65 *202:78 *3571:A 0
66 *202:78 *3691:B_N 2.62115e-05
67 *202:78 *562:204 0
68 *202:78 *700:12 2.38184e-05
69 *202:78 *700:40 0.000258024
70 *202:78 *703:107 7.21296e-06
71 *202:104 *525:29 0.000325607
72 *202:104 *663:16 0.000112496
73 *202:104 *721:10 5.75586e-05
74 *202:104 *721:12 0.000223492
75 *3242:A1 *202:10 0.000490346
76 *3244:A3 *202:8 2.16917e-05
77 *3245:B *202:54 0.000210813
78 *3246:A *202:54 8.46767e-05
79 *3264:A *202:54 2.69153e-05
80 *3266:B *202:10 3.98952e-05
81 *3266:B *202:54 2.24423e-05
82 *3301:A2 *202:10 1.69341e-05
83 *3334:A2 *3334:A1 7.18817e-05
84 *3334:C1 *3334:A1 6.02035e-05
85 *3875:D *3517:C 4.82863e-05
86 *186:10 *3334:A1 2.38449e-05
87 *186:10 *202:10 0.000533513
88 *187:8 *202:10 2.66852e-05
89 *187:14 *3334:A1 1.91597e-05
90 *187:14 *202:10 4.24292e-06
91 *187:35 *3334:A1 3.09164e-05
92 *188:83 *202:8 8.35068e-05
93 *189:8 *202:10 0.000143749
94 *189:8 *202:54 1.52862e-05
*RES
1 *3269:X *202:8 5.775 
2 *202:8 *202:10 19.485 
3 *202:10 *3334:A1 7.515 
4 *202:10 *3277:A1 4.41 
5 *202:8 *202:54 36.7225 
6 *202:54 *202:56 1.5075 
7 *202:56 *3691:C 3.6 
8 *202:56 *202:65 5.715 
9 *202:65 *3570:D 4.05 
10 *202:65 *202:78 8.99 
11 *202:78 *3517:C 10.205 
12 *202:78 *3500:D 3.085 
13 *202:54 *202:104 6.8025 
14 *202:104 *3622:D_N 7.305 
15 *202:104 *3639:C 4.395 
*END

*D_NET *203 0.0012509
*CONN
*I *3281:B I *D sky130_fd_sc_hd__nand3_2
*I *3272:A I *D sky130_fd_sc_hd__nand3_2
*I *3299:A I *D sky130_fd_sc_hd__nand2_2
*I *3270:X O *D sky130_fd_sc_hd__or2_4
*CAP
1 *3281:B 0
2 *3272:A 5.40227e-05
3 *3299:A 4.69479e-05
4 *3270:X 4.47877e-05
5 *203:19 0.000116989
6 *203:6 0.000154702
7 *3272:A *3272:B 0.000132827
8 *3272:A *233:16 0.000154355
9 *3299:A *3299:B 4.77769e-05
10 *3299:A *233:16 5.13447e-05
11 *3299:A *234:12 1.91597e-05
12 *203:6 *3299:B 4.66108e-05
13 *203:6 *234:12 6.23576e-05
14 *203:19 *3272:B 9.12494e-06
15 *203:19 *204:12 0.000165964
16 *203:19 *233:16 0.000143928
*RES
1 *3270:X *203:6 2.74 
2 *203:6 *3299:A 2.755 
3 *203:6 *203:19 4.145 
4 *203:19 *3272:A 5.49 
5 *203:19 *3281:B 3.6 
*END

*D_NET *204 0.0016777
*CONN
*I *3299:B I *D sky130_fd_sc_hd__nand2_2
*I *3281:C I *D sky130_fd_sc_hd__nand3_2
*I *3272:B I *D sky130_fd_sc_hd__nand3_2
*I *3271:Y O *D sky130_fd_sc_hd__nand2_2
*CAP
1 *3299:B 4.10938e-05
2 *3281:C 0
3 *3272:B 0.000106021
4 *3271:Y 0.000205103
5 *204:12 0.000226741
6 *204:10 0.000366918
7 *3272:B *3272:C 9.12671e-06
8 *3272:B *3278:B 4.63004e-05
9 *3272:B *211:6 0.000119247
10 *3272:B *233:16 4.90291e-05
11 *3272:B *886:22 1.54665e-05
12 *204:10 *3414:A 0
13 *204:10 *4035:A 0
14 *204:12 *3278:B 3.75882e-06
15 *204:12 *3414:A 0
16 *3272:A *3272:B 0.000132827
17 *3299:A *3299:B 4.77769e-05
18 *3330:B *204:10 8.65961e-05
19 *203:6 *3299:B 4.66108e-05
20 *203:19 *3272:B 9.12494e-06
21 *203:19 *204:12 0.000165964
*RES
1 *3271:Y *204:10 6.795 
2 *204:10 *204:12 2.4 
3 *204:12 *3272:B 6.735 
4 *204:12 *3281:C 3.6 
5 *204:10 *3299:B 4.395 
*END

*D_NET *205 0.00751492
*CONN
*I *3277:B1 I *D sky130_fd_sc_hd__a22o_2
*I *3304:B I *D sky130_fd_sc_hd__and3_4
*I *3284:B I *D sky130_fd_sc_hd__nand3_4
*I *3306:B I *D sky130_fd_sc_hd__and3_2
*I *3305:A1 I *D sky130_fd_sc_hd__a21oi_2
*I *3334:B1 I *D sky130_fd_sc_hd__a221o_2
*I *3288:A I *D sky130_fd_sc_hd__nand3_2
*I *3272:Y O *D sky130_fd_sc_hd__nand3_2
*CAP
1 *3277:B1 0.000243779
2 *3304:B 9.84704e-05
3 *3284:B 9.04649e-05
4 *3306:B 8.99085e-05
5 *3305:A1 2.28541e-05
6 *3334:B1 5.28666e-05
7 *3288:A 0.000281133
8 *3272:Y 0
9 *205:68 0.00026066
10 *205:55 0.000478666
11 *205:40 0.000857799
12 *205:23 0.000823259
13 *205:17 0.000756794
14 *205:4 0.000541668
15 *3284:B *3284:A 5.06989e-05
16 *3288:A *3272:C 4.77769e-05
17 *3288:A *3280:B1 0.00041648
18 *3288:A *3291:A1 4.89395e-05
19 *3288:A *3291:A2 0.000120031
20 *3288:A *3291:B1 8.64599e-05
21 *3288:A *224:14 0.000130203
22 *3304:B *3284:C 4.89295e-05
23 *3304:B *3304:C 0.000112538
24 *3305:A1 *3305:B1 4.77719e-05
25 *3306:B *3328:B1 0.000120573
26 *205:23 *3310:B1 0
27 *205:23 *3336:A1 0.000164874
28 *205:23 *3336:A3 0
29 *205:23 *210:10 0
30 *205:40 *3298:B1 6.00081e-05
31 *205:40 *3305:B1 0.0001249
32 *205:40 *3310:B1 0
33 *205:40 *3313:A2 0.000119277
34 *205:40 *3314:B 0.000141606
35 *205:40 *210:10 0.000117832
36 *205:40 *242:23 0
37 *205:40 *596:42 8.05768e-05
38 *205:55 *3309:A1 4.87939e-05
39 *205:55 *3309:A2 6.74079e-05
40 *205:55 *3309:B1 4.92527e-06
41 *205:55 *3328:B1 0.000268138
42 *205:55 *209:35 0
43 *205:55 *596:42 0
44 *205:68 *3284:A 0.000109721
45 *205:68 *3304:A 7.01303e-05
46 *205:68 *209:35 3.77631e-05
47 *3277:A1 *3277:B1 2.75229e-05
48 *3277:A2 *3277:B1 1.2818e-05
49 *3310:A1 *205:40 5.16418e-05
50 *3334:A1 *3334:B1 2.49909e-05
51 *3334:A2 *3334:B1 1.16578e-05
52 *3334:A2 *205:23 1.37395e-05
53 *187:14 *3334:B1 7.68414e-06
54 *187:14 *205:17 0
55 *187:14 *205:23 0
56 *187:35 *205:40 0.000120186
*RES
1 *3272:Y *205:4 1.6 
2 *205:4 *3288:A 8.965 
3 *205:4 *205:17 6.185 
4 *205:17 *205:23 6.575 
5 *205:23 *3334:B1 2.395 
6 *205:23 *205:40 14.98 
7 *205:40 *3305:A1 2.05 
8 *205:40 *205:55 9.175 
9 *205:55 *3306:B 2.74 
10 *205:55 *205:68 5.89 
11 *205:68 *3284:B 3.1 
12 *205:68 *3304:B 3.43 
13 *205:17 *3277:B1 7.17 
*END

*D_NET *206 0.00432172
*CONN
*I *3276:A I *D sky130_fd_sc_hd__nand3_4
*I *3281:A I *D sky130_fd_sc_hd__nand3_2
*I *3290:B1 I *D sky130_fd_sc_hd__o21a_2
*I *3291:A1 I *D sky130_fd_sc_hd__o31ai_2
*I *3273:Y O *D sky130_fd_sc_hd__inv_2
*CAP
1 *3276:A 8.71357e-05
2 *3281:A 1.25368e-05
3 *3290:B1 0.000381623
4 *3291:A1 7.41835e-05
5 *3273:Y 0
6 *206:18 0.000539143
7 *206:8 0.000311919
8 *206:4 0.000303181
9 *3276:A *209:12 4.22944e-05
10 *3290:B1 *3290:A2 0.000213542
11 *3290:B1 *212:6 3.63576e-05
12 *3290:B1 *212:8 0.000181637
13 *3290:B1 *213:6 2.86792e-05
14 *3291:A1 *3280:A1 2.41231e-05
15 *3291:A1 *3291:A2 4.77769e-05
16 *206:8 *3273:A 5.20632e-05
17 *206:8 *3278:B 0.000232434
18 *206:8 *3279:A 0.000193136
19 *206:8 *209:12 0.000899279
20 *206:8 *212:6 0.000160275
21 *206:8 *887:33 1.33285e-05
22 *206:18 *3280:A1 1.57817e-05
23 *206:18 *3280:A2 3.5678e-06
24 *206:18 *3290:A1 4.77807e-05
25 *206:18 *209:12 0.000139359
26 *206:18 *212:6 0.000148686
27 *3288:A *3291:A1 4.89395e-05
28 *187:14 *3291:A1 6.04287e-05
29 *187:14 *206:18 2.25299e-05
*RES
1 *3273:Y *206:4 1.6 
2 *206:4 *206:8 8.745 
3 *206:8 *206:18 4.91 
4 *206:18 *3291:A1 5.43 
5 *206:18 *3290:B1 8.805 
6 *206:8 *3281:A 1.96 
7 *206:4 *3276:A 3.085 
*END

*D_NET *207 0.000212389
*CONN
*I *3276:B I *D sky130_fd_sc_hd__nand3_4
*I *3274:X O *D sky130_fd_sc_hd__or2b_2
*CAP
1 *3276:B 0.000101632
2 *3274:X 0.000101632
3 *3276:B *3276:C 9.12494e-06
*RES
1 *3274:X *3276:B 8.835 
*END

*D_NET *208 0.000387223
*CONN
*I *3276:C I *D sky130_fd_sc_hd__nand3_4
*I *3275:X O *D sky130_fd_sc_hd__or2b_2
*CAP
1 *3276:C 0.000189049
2 *3275:X 0.000189049
3 *3276:B *3276:C 9.12494e-06
*RES
1 *3275:X *3276:C 9.825 
*END

*D_NET *209 0.010441
*CONN
*I *3288:B I *D sky130_fd_sc_hd__nand3_2
*I *3334:B2 I *D sky130_fd_sc_hd__a221o_2
*I *3277:B2 I *D sky130_fd_sc_hd__a22o_2
*I *3305:A2 I *D sky130_fd_sc_hd__a21oi_2
*I *3304:C I *D sky130_fd_sc_hd__and3_4
*I *3284:C I *D sky130_fd_sc_hd__nand3_4
*I *3306:C I *D sky130_fd_sc_hd__and3_2
*I *3276:Y O *D sky130_fd_sc_hd__nand3_4
*CAP
1 *3288:B 2.51931e-05
2 *3334:B2 0.000177295
3 *3277:B2 0
4 *3305:A2 8.19742e-05
5 *3304:C 6.21926e-05
6 *3284:C 1.21551e-05
7 *3306:C 9.5187e-05
8 *3276:Y 0.000745121
9 *209:62 0.000424401
10 *209:35 0.000282917
11 *209:20 0.000340316
12 *209:16 0.00037808
13 *209:14 0.000603196
14 *209:12 0.00086686
15 *3284:C *3304:A 1.77595e-05
16 *3288:B *224:14 4.66108e-05
17 *3304:C *3304:A 1.77665e-05
18 *3305:A2 *3305:B1 0.000122801
19 *3306:C *3328:B1 3.56746e-05
20 *209:12 *3290:A1 0.00035914
21 *209:12 *213:6 0.000308601
22 *209:12 *214:10 0.000866064
23 *209:12 *216:20 4.03557e-05
24 *209:12 *907:10 0.000193619
25 *209:14 *216:20 0.000340665
26 *209:14 *907:10 0.000351868
27 *209:16 *3304:A 2.97802e-05
28 *209:16 *216:20 0.000865807
29 *209:16 *907:10 0.00053512
30 *209:16 *907:12 0.000126569
31 *209:16 *907:14 0.000190937
32 *209:20 *3304:A 0.000112907
33 *209:20 *216:20 0.000114326
34 *209:35 *3304:A 0.000175358
35 *209:35 *3328:B1 1.8498e-05
36 *3276:A *209:12 4.22944e-05
37 *3304:B *3284:C 4.89295e-05
38 *3304:B *3304:C 0.000112538
39 *3334:A1 *3334:B2 0.000162318
40 *3334:C1 *3334:B2 1.10062e-05
41 *187:35 *3334:B2 2.23485e-05
42 *205:55 *209:35 0
43 *205:68 *209:35 3.77631e-05
44 *206:8 *209:12 0.000899279
45 *206:18 *209:12 0.000139359
*RES
1 *3276:Y *209:12 23.025 
2 *209:12 *209:14 4.185 
3 *209:14 *209:16 10.56 
4 *209:16 *209:20 3.38 
5 *209:20 *3306:C 2.74 
6 *209:20 *209:35 7.705 
7 *209:35 *3284:C 2.05 
8 *209:35 *3304:C 3.085 
9 *209:16 *3305:A2 5.085 
10 *209:14 *209:62 5.555 
11 *209:62 *3277:B2 1.6 
12 *209:62 *3334:B2 8.55875 
13 *209:12 *3288:B 4.05 
*END

*D_NET *210 0.000883932
*CONN
*I *3310:A2 I *D sky130_fd_sc_hd__o221ai_2
*I *3298:A1 I *D sky130_fd_sc_hd__o22ai_2
*I *3277:X O *D sky130_fd_sc_hd__a22o_2
*CAP
1 *3310:A2 2.5065e-05
2 *3298:A1 0
3 *3277:X 0.00016386
4 *210:10 0.000188925
5 *3310:A2 *231:14 0.000163204
6 *210:10 *3310:B1 0
7 *3310:A1 *3310:A2 9.91257e-05
8 *3334:A2 *210:10 3.68784e-05
9 *187:14 *210:10 7.23602e-05
10 *187:35 *210:10 1.66812e-05
11 *205:23 *210:10 0
12 *205:40 *210:10 0.000117832
*RES
1 *3277:X *210:10 9.02 
2 *210:10 *3298:A1 1.6 
3 *210:10 *3310:A2 3.085 
*END

*D_NET *211 0.00240671
*CONN
*I *3290:A1 I *D sky130_fd_sc_hd__o21a_2
*I *3280:A1 I *D sky130_fd_sc_hd__o21ai_4
*I *3291:A2 I *D sky130_fd_sc_hd__o31ai_2
*I *3278:Y O *D sky130_fd_sc_hd__nor2_2
*CAP
1 *3290:A1 0.000116499
2 *3280:A1 0.000205238
3 *3291:A2 0.000178908
4 *3278:Y 0.000240869
5 *211:6 0.000508515
6 *3290:A1 *3290:A2 0.000129308
7 *3290:A1 *212:6 2.10841e-05
8 *3290:A1 *212:8 0.000106519
9 *3290:A1 *213:6 4.89395e-05
10 *3291:A2 *3272:C 1.14192e-05
11 *211:6 *3272:C 6.63221e-05
12 *211:6 *233:16 3.0933e-05
13 *211:6 *886:22 8.28018e-06
14 *3272:B *211:6 0.000119247
15 *3288:A *3291:A2 0.000120031
16 *3291:A1 *3280:A1 2.41231e-05
17 *3291:A1 *3291:A2 4.77769e-05
18 *206:18 *3280:A1 1.57817e-05
19 *206:18 *3290:A1 4.77807e-05
20 *209:12 *3290:A1 0.00035914
*RES
1 *3278:Y *211:6 4.81 
2 *211:6 *3291:A2 4.84 
3 *211:6 *3280:A1 6.98 
4 *3280:A1 *3290:A1 7.565 
*END

*D_NET *212 0.00225166
*CONN
*I *3280:A2 I *D sky130_fd_sc_hd__o21ai_4
*I *3291:A3 I *D sky130_fd_sc_hd__o31ai_2
*I *3290:A2 I *D sky130_fd_sc_hd__o21a_2
*I *3279:X O *D sky130_fd_sc_hd__and2_4
*CAP
1 *3280:A2 1.86374e-05
2 *3291:A3 3.97317e-05
3 *3290:A2 5.34995e-05
4 *3279:X 0.000289732
5 *212:8 0.000147187
6 *212:6 0.000362325
7 *3290:A2 *213:6 2.20405e-05
8 *3291:A3 *3280:B1 0.000134875
9 *212:6 *3278:B 4.77807e-05
10 *3290:A1 *3290:A2 0.000129308
11 *3290:A1 *212:6 2.10841e-05
12 *3290:A1 *212:8 0.000106519
13 *3290:B1 *3290:A2 0.000213542
14 *3290:B1 *212:6 3.63576e-05
15 *3290:B1 *212:8 0.000181637
16 *202:10 *3291:A3 0.000134875
17 *206:8 *212:6 0.000160275
18 *206:18 *3280:A2 3.5678e-06
19 *206:18 *212:6 0.000148686
*RES
1 *3279:X *212:6 6.88 
2 *212:6 *212:8 1.83 
3 *212:8 *3290:A2 3.79 
4 *212:8 *3291:A3 7.235 
5 *212:6 *3280:A2 1.96 
*END

*D_NET *213 0.00597875
*CONN
*I *3292:C I *D sky130_fd_sc_hd__nand3_4
*I *3286:A1 I *D sky130_fd_sc_hd__a311oi_1
*I *3282:A1 I *D sky130_fd_sc_hd__a21oi_2
*I *3312:B I *D sky130_fd_sc_hd__and3_2
*I *3307:A1 I *D sky130_fd_sc_hd__a311o_2
*I *3287:B I *D sky130_fd_sc_hd__nand3_2
*I *3280:Y O *D sky130_fd_sc_hd__o21ai_4
*CAP
1 *3292:C 0
2 *3286:A1 0.000149348
3 *3282:A1 0
4 *3312:B 0.000183962
5 *3307:A1 6.25617e-05
6 *3287:B 4.49939e-05
7 *3280:Y 0.000144453
8 *213:50 0.000692655
9 *213:23 0.000692542
10 *213:21 0.00044767
11 *213:19 0.000400737
12 *213:6 0.00041315
13 *3286:A1 *3286:A3 8.65905e-05
14 *3287:B *3287:A 4.66108e-05
15 *3287:B *214:10 4.6075e-05
16 *3287:B *220:14 9.12671e-06
17 *3287:B *223:6 1.42598e-05
18 *3307:A1 *3307:A3 8.54001e-05
19 *3307:A1 *214:26 4.47504e-06
20 *3307:A1 *216:20 0
21 *3307:A1 *596:42 4.18203e-05
22 *3312:B *3298:B2 0.000208491
23 *3312:B *3312:C 4.40812e-05
24 *3312:B *230:8 0.000124895
25 *3312:B *596:42 1.07797e-05
26 *213:6 *3287:A 3.69049e-05
27 *213:6 *214:10 0.000151287
28 *213:6 *223:6 0.000115103
29 *213:19 *216:10 2.85623e-05
30 *213:19 *216:16 0.000111293
31 *213:19 *885:12 1.38283e-05
32 *213:19 *885:18 7.17251e-05
33 *213:21 *3307:A3 2.07184e-05
34 *213:21 *216:20 0
35 *213:21 *885:29 0.00036175
36 *213:23 *3307:A3 0.000254805
37 *213:23 *216:20 0
38 *213:50 *3298:B2 7.23533e-05
39 *213:50 *3307:A3 6.36605e-07
40 *213:50 *214:26 4.77719e-05
41 *213:50 *215:8 0.000124895
42 *213:50 *216:20 0
43 *213:50 *596:42 0.000204183
44 *3290:A1 *213:6 4.89395e-05
45 *3290:A2 *213:6 2.20405e-05
46 *3290:B1 *213:6 2.86792e-05
47 *209:12 *213:6 0.000308601
*RES
1 *3280:Y *213:6 6.88 
2 *213:6 *3287:B 2.755 
3 *213:6 *213:19 6.44 
4 *213:19 *213:21 4.44 
5 *213:21 *213:23 3.0375 
6 *213:23 *3307:A1 5.28 
7 *213:23 *213:50 11.2825 
8 *213:50 *3312:B 7.395 
9 *213:50 *3282:A1 3.6 
10 *213:21 *3286:A1 5.79 
11 *213:19 *3292:C 3.6 
*END

*D_NET *214 0.00718294
*CONN
*I *3287:C I *D sky130_fd_sc_hd__nand3_2
*I *3292:A I *D sky130_fd_sc_hd__nand3_4
*I *3286:A2 I *D sky130_fd_sc_hd__a311oi_1
*I *3282:A2 I *D sky130_fd_sc_hd__a21oi_2
*I *3312:C I *D sky130_fd_sc_hd__and3_2
*I *3307:A2 I *D sky130_fd_sc_hd__a311o_2
*I *3281:Y O *D sky130_fd_sc_hd__nand3_2
*CAP
1 *3287:C 0
2 *3292:A 6.01174e-05
3 *3286:A2 0
4 *3282:A2 2.56258e-05
5 *3312:C 9.42496e-05
6 *3307:A2 2.34741e-05
7 *3281:Y 0.000886568
8 *214:37 0.000341927
9 *214:26 0.00055935
10 *214:14 0.00046002
11 *214:12 0.000308227
12 *214:10 0.000988482
13 *3282:A2 *596:42 6.7444e-05
14 *3307:A2 *240:10 8.54872e-05
15 *3307:A2 *596:42 4.60061e-05
16 *214:10 *220:14 4.66108e-05
17 *214:10 *223:6 2.6348e-06
18 *214:10 *884:16 6.4428e-05
19 *214:10 *885:12 7.22509e-05
20 *214:12 *3317:B1 5.0096e-05
21 *214:12 *676:10 7.83711e-05
22 *214:12 *884:16 0.000156284
23 *214:12 *885:12 0.000147159
24 *214:12 *885:18 0.000201113
25 *214:14 *3307:A3 2.15738e-05
26 *214:14 *676:10 8.77784e-05
27 *214:14 *676:12 0.00011741
28 *214:14 *676:16 2.4997e-05
29 *214:14 *885:18 8.33066e-06
30 *214:14 *885:29 0.000141078
31 *214:26 *3307:A3 7.38532e-05
32 *214:26 *3307:B1 0.000144072
33 *214:26 *3307:C1 9.05377e-05
34 *214:26 *216:20 3.69171e-05
35 *214:26 *219:10 0
36 *214:26 *240:10 2.14862e-05
37 *214:26 *596:42 9.45342e-05
38 *214:26 *676:16 6.55406e-05
39 *214:37 *3282:B1 0.000197826
40 *214:37 *240:10 3.75126e-05
41 *214:37 *596:42 9.38103e-05
42 *3287:B *214:10 4.6075e-05
43 *3307:A1 *214:26 4.47504e-06
44 *3312:B *3312:C 4.40812e-05
45 *209:12 *214:10 0.000866064
46 *213:6 *214:10 0.000151287
47 *213:50 *214:26 4.77719e-05
*RES
1 *3281:Y *214:10 16.305 
2 *214:10 *214:12 4.185 
3 *214:12 *214:14 4.695 
4 *214:14 *214:26 12.9 
5 *214:26 *3307:A2 2.4025 
6 *214:26 *214:37 3.915 
7 *214:37 *3312:C 6.98 
8 *214:37 *3282:A2 2.2225 
9 *214:14 *3286:A2 3.6 
10 *214:12 *3292:A 4.395 
11 *214:10 *3287:C 3.6 
*END

*D_NET *215 0.00154848
*CONN
*I *3298:B1 I *D sky130_fd_sc_hd__o22ai_2
*I *3313:A2 I *D sky130_fd_sc_hd__o21ai_2
*I *3282:Y O *D sky130_fd_sc_hd__a21oi_2
*CAP
1 *3298:B1 0.000193792
2 *3313:A2 5.52329e-05
3 *3282:Y 9.14119e-05
4 *215:8 0.000340437
5 *3298:B1 *3298:B2 8.7974e-05
6 *3298:B1 *231:14 5.83121e-06
7 *3313:A2 *3298:B2 1.07797e-05
8 *3313:A2 *596:42 0.000187759
9 *215:8 *596:42 0.000196364
10 *3310:A1 *3298:B1 5.33085e-05
11 *187:35 *3298:B1 2.14129e-05
12 *205:40 *3298:B1 6.00081e-05
13 *205:40 *3313:A2 0.000119277
14 *213:50 *215:8 0.000124895
*RES
1 *3282:Y *215:8 5.775 
2 *215:8 *3313:A2 6 
3 *215:8 *3298:B1 7.59 
*END

*D_NET *216 0.00904365
*CONN
*I *3413:A I *D sky130_fd_sc_hd__xor2_2
*I *3287:A I *D sky130_fd_sc_hd__nand3_2
*I *3291:B1 I *D sky130_fd_sc_hd__o31ai_2
*I *3306:A I *D sky130_fd_sc_hd__and3_2
*I *3284:A I *D sky130_fd_sc_hd__nand3_4
*I *3283:Y O *D sky130_fd_sc_hd__inv_2
*CAP
1 *3413:A 0.000790593
2 *3287:A 2.45878e-05
3 *3291:B1 0.000300881
4 *3306:A 0
5 *3284:A 0.000263401
6 *3283:Y 3.72342e-05
7 *216:20 0.000994431
8 *216:16 0.00126092
9 *216:10 0.000565962
10 *216:8 0.00114019
11 *3284:A *3304:A 4.67285e-05
12 *3284:A *3308:B1 0
13 *3287:A *223:6 4.60814e-05
14 *3291:B1 *224:14 0.000382399
15 *3413:A *3931:CLK 0.000236922
16 *3413:A *3931:D 0
17 *3413:A *3931:RESET_B 0.000115217
18 *3413:A *714:34 0.000153137
19 *3413:A *885:10 5.36944e-05
20 *216:8 *4034:A 1.83756e-05
21 *216:10 *885:10 3.24046e-05
22 *216:10 *885:12 0.00030546
23 *216:10 *907:10 0
24 *216:16 *224:14 0.000271092
25 *216:16 *885:12 6.22332e-05
26 *216:20 *3304:A 1.18236e-05
27 *216:20 *3307:A3 8.25275e-06
28 *216:20 *4112:A 0
29 *3239:A2 *3413:A 5.33085e-05
30 *3284:B *3284:A 5.06989e-05
31 *3287:B *3287:A 4.66108e-05
32 *3288:A *3291:B1 8.64599e-05
33 *3307:A1 *216:20 0
34 *205:68 *3284:A 0.000109721
35 *209:12 *216:20 4.03557e-05
36 *209:14 *216:20 0.000340665
37 *209:16 *216:20 0.000865807
38 *209:20 *216:20 0.000114326
39 *213:6 *3287:A 3.69049e-05
40 *213:19 *216:10 2.85623e-05
41 *213:19 *216:16 0.000111293
42 *213:21 *216:20 0
43 *213:23 *216:20 0
44 *213:50 *216:20 0
45 *214:26 *216:20 3.69171e-05
*RES
1 *3283:Y *216:8 4.05 
2 *216:8 *216:10 6.99 
3 *216:10 *216:16 5.9 
4 *216:16 *216:20 18.68 
5 *216:20 *3284:A 8.535 
6 *216:20 *3306:A 3.6 
7 *216:16 *3291:B1 6.565 
8 *216:10 *3287:A 4.395 
9 *216:8 *3413:A 17.115 
*END

*D_NET *217 0.00402855
*CONN
*I *3297:A1 I *D sky130_fd_sc_hd__a22oi_4
*I *3325:A2 I *D sky130_fd_sc_hd__a21oi_2
*I *3296:B1 I *D sky130_fd_sc_hd__a2bb2o_4
*I *3318:B1 I *D sky130_fd_sc_hd__a2bb2oi_2
*I *3284:Y O *D sky130_fd_sc_hd__nand3_4
*CAP
1 *3297:A1 0.000136244
2 *3325:A2 0
3 *3296:B1 0
4 *3318:B1 0.000108045
5 *3284:Y 0.000146305
6 *217:22 0.000422506
7 *217:12 0.000444969
8 *217:8 0.000413057
9 *3297:A1 *4112:A 0
10 *3297:A1 *230:8 2.75145e-05
11 *3297:A1 *240:10 0.000109541
12 *3318:B1 *3296:B2 8.79662e-05
13 *3318:B1 *3320:A2_N 0.000185411
14 *3318:B1 *3325:B1 1.01661e-05
15 *217:8 *3308:B1 6.96757e-05
16 *217:8 *3308:B2 0.000101244
17 *217:8 *240:10 9.24049e-05
18 *217:12 *3322:B1 0.000160635
19 *217:12 *3325:A1 0.000272984
20 *217:12 *4112:A 0.000110673
21 *217:22 *3296:A1_N 3.1835e-05
22 *217:22 *3296:B2 3.00381e-05
23 *217:22 *3307:B1 0.000101317
24 *217:22 *3325:B1 6.02191e-05
25 *217:22 *3327:B2 0.000185405
26 *217:22 *229:10 0.000307303
27 *217:22 *229:12 0.000208484
28 *195:10 *3318:B1 0.000204603
*RES
1 *3284:Y *217:8 7.53 
2 *217:8 *217:12 5.555 
3 *217:12 *217:22 12.505 
4 *217:22 *3318:B1 9.785 
5 *217:22 *3296:B1 1.6 
6 *217:12 *3325:A2 1.6 
7 *217:8 *3297:A1 6.45 
*END

*D_NET *218 0.00949379
*CONN
*I *3318:A1_N I *D sky130_fd_sc_hd__a2bb2oi_2
*I *3286:B1 I *D sky130_fd_sc_hd__a311oi_1
*I *3296:A1_N I *D sky130_fd_sc_hd__a2bb2o_4
*I *3307:B1 I *D sky130_fd_sc_hd__a311o_2
*I *3708:B I *D sky130_fd_sc_hd__nand3b_2
*I *3285:X O *D sky130_fd_sc_hd__and4_4
*CAP
1 *3318:A1_N 7.68187e-05
2 *3286:B1 0.000324853
3 *3296:A1_N 7.13847e-05
4 *3307:B1 0.000453301
5 *3708:B 0.000438183
6 *3285:X 0
7 *218:43 0.000606104
8 *218:41 0.000445254
9 *218:39 0.000824219
10 *218:4 0.0011466
11 *3286:B1 *3286:C1 2.11084e-05
12 *3286:B1 *3320:B1 5.83121e-06
13 *3307:B1 *3325:B1 0.000253949
14 *3307:B1 *4000:A 0.00014237
15 *3307:B1 *228:10 0
16 *3307:B1 *240:10 0.000122001
17 *3318:A1_N *251:10 2.49909e-05
18 *3708:B *3448:A1 0.00015461
19 *3708:B *3656:B 4.82919e-05
20 *3708:B *3708:A_N 0.000175358
21 *3708:B *705:32 0
22 *3708:B *705:60 0
23 *3708:B *707:29 1.56428e-05
24 *3708:B *707:33 0.000144557
25 *218:39 *3238:B1 0.000162311
26 *218:39 *3285:B 5.16348e-05
27 *218:39 *3294:B1 5.02462e-05
28 *218:39 *3295:B1 6.47357e-05
29 *218:39 *3317:B1 0.00013475
30 *218:39 *3320:B2 0.000350568
31 *218:39 *3929:CLK 0.000190968
32 *218:39 *3929:RESET_B 0.000186479
33 *218:39 *225:30 8.0606e-05
34 *218:39 *637:14 1.91597e-05
35 *218:39 *637:16 6.26945e-05
36 *218:41 *3296:B2 2.68721e-05
37 *218:41 *3320:B2 0.000137578
38 *218:41 *225:30 5.53249e-06
39 *218:41 *251:10 8.59365e-05
40 *218:43 *3320:B2 7.47215e-05
41 *218:43 *3325:B1 0.000155176
42 *218:43 *228:10 0
43 *218:43 *251:10 5.4003e-05
44 *3251:A *3708:B 8.65905e-05
45 *3251:A *218:39 3.57349e-05
46 *3263:A1 *218:39 5.73518e-05
47 *3263:B1 *218:39 0.000162332
48 *184:18 *218:39 0.00022915
49 *184:40 *218:39 0.000230429
50 *193:8 *3708:B 0.000234674
51 *193:8 *218:39 0.000122337
52 *193:45 *218:39 0.000135855
53 *193:51 *218:39 0.000478333
54 *195:10 *218:39 5.43761e-05
55 *214:26 *3307:B1 0.000144072
56 *217:22 *3296:A1_N 3.1835e-05
57 *217:22 *3307:B1 0.000101317
*RES
1 *3285:X *218:4 1.6 
2 *218:4 *3708:B 15.53 
3 *218:4 *218:39 25.34 
4 *218:39 *218:41 1.635 
5 *218:41 *218:43 2.4 
6 *218:43 *3307:B1 13.935 
7 *218:43 *3296:A1_N 4.755 
8 *218:41 *3286:B1 7.155 
9 *218:39 *3318:A1_N 4.74 
*END

*D_NET *219 0.00264506
*CONN
*I *4112:A I *D sky130_fd_sc_hd__clkdlybuf4s25_1
*I *3325:A1 I *D sky130_fd_sc_hd__a21oi_2
*I *3286:Y O *D sky130_fd_sc_hd__a311oi_1
*CAP
1 *4112:A 0.000347365
2 *3325:A1 0.00017979
3 *3286:Y 0.000266187
4 *219:10 0.000793342
5 *3325:A1 *3322:B1 4.21973e-05
6 *219:10 *3307:A3 0
7 *219:10 *3307:C1 0
8 *219:10 *228:10 0.000188195
9 *219:10 *228:16 8.26918e-05
10 *219:10 *240:10 0.000296094
11 *219:10 *596:42 0
12 *219:10 *676:16 6.55406e-05
13 *3297:A1 *4112:A 0
14 *214:26 *219:10 0
15 *216:20 *4112:A 0
16 *217:12 *3325:A1 0.000272984
17 *217:12 *4112:A 0.000110673
*RES
1 *3286:Y *219:10 13.1 
2 *219:10 *3325:A1 5.17 
3 *219:10 *4112:A 10.955 
*END

*D_NET *220 0.00231683
*CONN
*I *3316:B I *D sky130_fd_sc_hd__nand3_2
*I *3289:A I *D sky130_fd_sc_hd__nand3_2
*I *3287:Y O *D sky130_fd_sc_hd__nand3_2
*CAP
1 *3316:B 0.000262209
2 *3289:A 0
3 *3287:Y 0.00032008
4 *220:14 0.000582289
5 *3316:B *3289:B 5.19006e-06
6 *3316:B *3294:A2 8.23457e-05
7 *3316:B *3295:B1 0.000199843
8 *3316:B *3316:A 4.66108e-05
9 *3316:B *3316:C 0.000200085
10 *220:14 *3317:A1 9.12494e-06
11 *220:14 *223:6 6.7488e-05
12 *220:14 *223:12 0.000110785
13 *220:14 *224:31 0.000134913
14 *220:14 *228:10 0.000240127
15 *3287:B *220:14 9.12671e-06
16 *214:10 *220:14 4.66108e-05
*RES
1 *3287:Y *220:14 11.57 
2 *220:14 *3289:A 1.6 
3 *220:14 *3316:B 6.91 
*END

*D_NET *221 0.00217687
*CONN
*I *3289:B I *D sky130_fd_sc_hd__nand3_2
*I *3316:C I *D sky130_fd_sc_hd__nand3_2
*I *3288:Y O *D sky130_fd_sc_hd__nand3_2
*CAP
1 *3289:B 1.8374e-05
2 *3316:C 0.000313536
3 *3288:Y 0.000187125
4 *221:6 0.000519036
5 *3316:C *3294:A2 8.23457e-05
6 *3316:C *3295:B1 1.32026e-05
7 *3316:C *3295:C1 4.66108e-05
8 *3316:C *3316:A 4.77757e-05
9 *3316:C *3317:B1 0.000209453
10 *3316:C *224:14 6.72833e-06
11 *221:6 *3288:C 0.000158564
12 *221:6 *3317:B1 0.000182868
13 *221:6 *224:14 0.000185979
14 *3316:B *3289:B 5.19006e-06
15 *3316:B *3316:C 0.000200085
*RES
1 *3288:Y *221:6 6.19 
2 *221:6 *3316:C 8.275 
3 *221:6 *3289:B 1.96 
*END

*D_NET *222 0.000873897
*CONN
*I *3295:B1 I *D sky130_fd_sc_hd__o211ai_2
*I *3289:Y O *D sky130_fd_sc_hd__nand3_2
*CAP
1 *3295:B1 0.000225087
2 *3289:Y 0.000225087
3 *3295:B1 *3320:B2 0.000114649
4 *3295:B1 *224:14 3.12916e-05
5 *3316:B *3295:B1 0.000199843
6 *3316:C *3295:B1 1.32026e-05
7 *218:39 *3295:B1 6.47357e-05
*RES
1 *3289:Y *3295:B1 11.115 
*END

*D_NET *223 0.00246292
*CONN
*I *3319:A1 I *D sky130_fd_sc_hd__o211a_2
*I *3294:A1 I *D sky130_fd_sc_hd__o211ai_2
*I *3317:A1 I *D sky130_fd_sc_hd__o211ai_2
*I *3290:X O *D sky130_fd_sc_hd__o21a_2
*CAP
1 *3319:A1 4.36783e-05
2 *3294:A1 0
3 *3317:A1 7.34349e-05
4 *3290:X 0.000613232
5 *223:12 0.000152082
6 *223:6 0.000735557
7 *3317:A1 *3317:A2 0.000194148
8 *3317:A1 *224:31 8.33066e-06
9 *3317:A1 *228:10 0.000103378
10 *3319:A1 *224:31 4.48092e-05
11 *223:6 *224:31 1.43392e-05
12 *223:12 *224:31 0.000114453
13 *3287:A *223:6 4.60814e-05
14 *3287:B *223:6 1.42598e-05
15 *213:6 *223:6 0.000115103
16 *214:10 *223:6 2.6348e-06
17 *220:14 *3317:A1 9.12494e-06
18 *220:14 *223:6 6.7488e-05
19 *220:14 *223:12 0.000110785
*RES
1 *3290:X *223:6 8.95 
2 *223:6 *223:12 3.83 
3 *223:12 *3317:A1 6 
4 *223:12 *3294:A1 3.6 
5 *223:6 *3319:A1 2.5975 
*END

*D_NET *224 0.00376914
*CONN
*I *3294:A2 I *D sky130_fd_sc_hd__o211ai_2
*I *3317:A2 I *D sky130_fd_sc_hd__o211ai_2
*I *3319:A2 I *D sky130_fd_sc_hd__o211a_2
*I *3291:Y O *D sky130_fd_sc_hd__o31ai_2
*CAP
1 *3294:A2 2.4121e-05
2 *3317:A2 0.000108926
3 *3319:A2 0
4 *3291:Y 0.000394058
5 *224:31 0.000290581
6 *224:14 0.000551592
7 *3317:A2 *3295:C1 4.87939e-05
8 *3317:A2 *3320:B2 7.94442e-05
9 *3317:A2 *225:6 4.77769e-05
10 *224:14 *3288:C 0.000158564
11 *224:14 *3319:B1 9.12494e-06
12 *224:14 *3319:C1 3.78419e-05
13 *224:14 *228:10 0.000111293
14 *224:31 *3295:C1 0.000146781
15 *224:31 *3320:B2 1.10951e-05
16 *224:31 *228:10 1.91597e-05
17 *3288:A *224:14 0.000130203
18 *3288:B *224:14 4.66108e-05
19 *3291:B1 *224:14 0.000382399
20 *3295:B1 *224:14 3.12916e-05
21 *3316:B *3294:A2 8.23457e-05
22 *3316:C *3294:A2 8.23457e-05
23 *3316:C *224:14 6.72833e-06
24 *3317:A1 *3317:A2 0.000194148
25 *3317:A1 *224:31 8.33066e-06
26 *3319:A1 *224:31 4.48092e-05
27 *216:16 *224:14 0.000271092
28 *220:14 *224:31 0.000134913
29 *221:6 *224:14 0.000185979
30 *223:6 *224:31 1.43392e-05
31 *223:12 *224:31 0.000114453
*RES
1 *3291:Y *224:14 16.07 
2 *224:14 *3319:A2 1.6 
3 *224:14 *224:31 6.455 
4 *224:31 *3317:A2 6.45 
5 *224:31 *3294:A2 4.395 
*END

*D_NET *225 0.00290499
*CONN
*I *3319:C1 I *D sky130_fd_sc_hd__o211a_2
*I *3318:B2 I *D sky130_fd_sc_hd__a2bb2oi_2
*I *3296:B2 I *D sky130_fd_sc_hd__a2bb2o_4
*I *3294:B1 I *D sky130_fd_sc_hd__o211ai_2
*I *3317:C1 I *D sky130_fd_sc_hd__o211ai_2
*I *3292:Y O *D sky130_fd_sc_hd__nand3_4
*CAP
1 *3319:C1 0.000153115
2 *3318:B2 0
3 *3296:B2 0.000113455
4 *3294:B1 5.84332e-05
5 *3317:C1 3.39387e-05
6 *3292:Y 0.000385424
7 *225:30 0.000196015
8 *225:17 0.000145428
9 *225:6 0.000270682
10 *3294:B1 *3317:B1 5.29744e-05
11 *3294:B1 *3929:RESET_B 3.92907e-05
12 *3296:B2 *3320:A2_N 0.000206824
13 *3296:B2 *3325:B1 0.000187766
14 *3296:B2 *250:8 8.53113e-06
15 *3296:B2 *251:10 0.000131408
16 *3319:C1 *3319:B1 5.31158e-06
17 *3319:C1 *676:10 0.000325603
18 *225:30 *3317:B1 4.03121e-05
19 *225:30 *250:8 0.000129483
20 *3317:A2 *225:6 4.77769e-05
21 *3318:B1 *3296:B2 8.79662e-05
22 *195:10 *3294:B1 4.57966e-05
23 *195:10 *225:17 8.32311e-06
24 *217:22 *3296:B2 3.00381e-05
25 *218:39 *3294:B1 5.02462e-05
26 *218:39 *225:30 8.0606e-05
27 *218:41 *3296:B2 2.68721e-05
28 *218:41 *225:30 5.53249e-06
29 *224:14 *3319:C1 3.78419e-05
*RES
1 *3292:Y *225:6 4.81 
2 *225:6 *3317:C1 2.05 
3 *225:6 *225:17 2.2325 
4 *225:17 *3294:B1 5.6175 
5 *225:17 *225:30 2.7225 
6 *225:30 *3296:B2 8.235 
7 *225:30 *3318:B2 3.6 
8 *3292:Y *3319:C1 11.13 
*END

*D_NET *226 0.00140264
*CONN
*I *3294:C1 I *D sky130_fd_sc_hd__o211ai_2
*I *3316:A I *D sky130_fd_sc_hd__nand3_2
*I *3293:Y O *D sky130_fd_sc_hd__inv_2
*CAP
1 *3294:C1 0
2 *3316:A 1.19676e-05
3 *3293:Y 0.000260931
4 *226:12 0.000272898
5 *226:12 *3929:CLK 0.000155608
6 *226:12 *3929:RESET_B 0.000302773
7 *3316:B *3316:A 4.66108e-05
8 *3316:C *3316:A 4.77757e-05
9 *195:10 *226:12 0.000304075
*RES
1 *3293:Y *226:12 12.14 
2 *226:12 *3316:A 2.05 
3 *226:12 *3294:C1 1.6 
*END

*D_NET *227 0.00063647
*CONN
*I *3295:C1 I *D sky130_fd_sc_hd__o211ai_2
*I *3294:Y O *D sky130_fd_sc_hd__o211ai_2
*CAP
1 *3295:C1 7.54643e-05
2 *3294:Y 7.54643e-05
3 *3295:C1 *3317:B1 4.77807e-05
4 *3295:C1 *3320:B2 0.000195575
5 *3316:C *3295:C1 4.66108e-05
6 *3317:A2 *3295:C1 4.87939e-05
7 *224:31 *3295:C1 0.000146781
*RES
1 *3294:Y *3295:C1 10.05 
*END

*D_NET *228 0.00406836
*CONN
*I *3297:B1 I *D sky130_fd_sc_hd__a22oi_4
*I *3321:B1 I *D sky130_fd_sc_hd__o211ai_2
*I *3323:A I *D sky130_fd_sc_hd__nand2_2
*I *3308:A1_N I *D sky130_fd_sc_hd__o2bb2ai_2
*I *3295:Y O *D sky130_fd_sc_hd__o211ai_2
*CAP
1 *3297:B1 0
2 *3321:B1 0
3 *3323:A 0
4 *3308:A1_N 0.00013591
5 *3295:Y 0.000891412
6 *228:18 0.000239331
7 *228:16 0.000304048
8 *228:10 0.00109204
9 *3308:A1_N *3308:A2_N 5.28906e-05
10 *3308:A1_N *3308:B2 8.32311e-06
11 *228:10 *3319:B1 3.1191e-05
12 *228:10 *3320:B2 4.71087e-05
13 *228:10 *229:10 0.000122548
14 *228:10 *676:10 0
15 *228:10 *676:12 0
16 *228:10 *676:16 0
17 *228:16 *3308:B2 4.18603e-06
18 *228:16 *3322:B1 9.37731e-05
19 *228:16 *229:10 4.18603e-06
20 *228:16 *229:12 5.92849e-05
21 *228:16 *240:10 6.74234e-05
22 *228:18 *3308:A2_N 0
23 *228:18 *3308:B2 7.88043e-05
24 *228:18 *3328:B1 9.10613e-05
25 *3307:B1 *228:10 0
26 *3317:A1 *228:10 0.000103378
27 *218:43 *228:10 0
28 *219:10 *228:10 0.000188195
29 *219:10 *228:16 8.26918e-05
30 *220:14 *228:10 0.000240127
31 *224:14 *228:10 0.000111293
32 *224:31 *228:10 1.91597e-05
*RES
1 *3295:Y *228:10 20.325 
2 *228:10 *228:16 4.74 
3 *228:16 *228:18 2.4 
4 *228:18 *3308:A1_N 6.3 
5 *228:18 *3323:A 3.6 
6 *228:16 *3321:B1 3.6 
7 *228:10 *3297:B1 3.6 
*END

*D_NET *229 0.00251775
*CONN
*I *3297:B2 I *D sky130_fd_sc_hd__a22oi_4
*I *3321:C1 I *D sky130_fd_sc_hd__o211ai_2
*I *3308:A2_N I *D sky130_fd_sc_hd__o2bb2ai_2
*I *3296:X O *D sky130_fd_sc_hd__a2bb2o_4
*CAP
1 *3297:B2 0
2 *3321:C1 3.35304e-05
3 *3308:A2_N 0.000267539
4 *3296:X 0.000188011
5 *229:12 0.000440757
6 *229:10 0.000327698
7 *3308:A2_N *3323:B 0.000133453
8 *3308:A2_N *3327:B2 3.83123e-05
9 *3308:A2_N *3328:B1 3.32593e-05
10 *3308:A2_N *718:81 9.03066e-05
11 *229:10 *3296:A2_N 9.27495e-05
12 *229:12 *3322:B1 3.68682e-05
13 *229:12 *3327:B2 8.05665e-05
14 *3308:A1_N *3308:A2_N 5.28906e-05
15 *217:22 *229:10 0.000307303
16 *217:22 *229:12 0.000208484
17 *228:10 *229:10 0.000122548
18 *228:16 *229:10 4.18603e-06
19 *228:16 *229:12 5.92849e-05
20 *228:18 *3308:A2_N 0
*RES
1 *3296:X *229:10 8.76 
2 *229:10 *229:12 4.185 
3 *229:12 *3308:A2_N 9.27 
4 *229:12 *3321:C1 4.05 
5 *229:10 *3297:B2 3.6 
*END

*D_NET *230 0.00325382
*CONN
*I *3313:B1 I *D sky130_fd_sc_hd__o21ai_2
*I *3298:B2 I *D sky130_fd_sc_hd__o22ai_2
*I *3297:Y O *D sky130_fd_sc_hd__a22oi_4
*CAP
1 *3313:B1 0.000202037
2 *3298:B2 0.000143361
3 *3297:Y 0.000683308
4 *230:8 0.00102871
5 *3298:B2 *596:42 0.000229904
6 *3313:B1 *3313:A1 5.83121e-06
7 *230:8 *3297:A2 0.000343853
8 *230:8 *3312:A 5.98222e-05
9 *230:8 *3313:A1 2.49909e-05
10 *3297:A1 *230:8 2.75145e-05
11 *3298:B1 *3298:B2 8.7974e-05
12 *3312:B *3298:B2 0.000208491
13 *3312:B *230:8 0.000124895
14 *3313:A2 *3298:B2 1.07797e-05
15 *213:50 *3298:B2 7.23533e-05
*RES
1 *3297:Y *230:8 12.415 
2 *230:8 *3298:B2 10.295 
3 *230:8 *3313:B1 4.39 
*END

*D_NET *231 0.00277217
*CONN
*I *3303:A I *D sky130_fd_sc_hd__nand2_2
*I *3331:A1 I *D sky130_fd_sc_hd__a211o_2
*I *3333:A1 I *D sky130_fd_sc_hd__a21oi_2
*I *3298:Y O *D sky130_fd_sc_hd__o22ai_2
*CAP
1 *3303:A 0
2 *3331:A1 0.000121136
3 *3333:A1 0
4 *3298:Y 0.000592691
5 *231:29 0.000247478
6 *231:14 0.000719033
7 *3331:A1 *3331:A2 0.000149264
8 *3331:A1 *236:10 2.75145e-05
9 *231:14 *3310:B2 4.29016e-05
10 *231:14 *3310:C1 0.000120655
11 *231:14 *3311:B 4.7662e-05
12 *231:14 *3337:B1 5.05521e-05
13 *231:14 *234:18 2.92496e-05
14 *231:14 *236:10 5.3023e-05
15 *231:29 *3331:A2 4.82919e-05
16 *231:29 *3333:A2 0.000164686
17 *231:29 *233:37 0
18 *231:29 *234:18 1.71207e-05
19 *231:29 *235:8 9.50342e-06
20 *231:29 *236:10 8.9772e-05
21 *3298:B1 *231:14 5.83121e-06
22 *3310:A1 *231:14 7.26034e-05
23 *3310:A2 *231:14 0.000163204
*RES
1 *3298:Y *231:14 13.995 
2 *231:14 *3333:A1 3.6 
3 *231:14 *231:29 5.3 
4 *231:29 *3331:A1 4.495 
5 *231:29 *3303:A 1.6 
*END

*D_NET *232 0.000619571
*CONN
*I *3300:C I *D sky130_fd_sc_hd__and3_4
*I *3301:B1 I *D sky130_fd_sc_hd__a21oi_2
*I *3299:Y O *D sky130_fd_sc_hd__nand2_2
*CAP
1 *3300:C 0
2 *3301:B1 7.29175e-05
3 *3299:Y 9.88944e-05
4 *232:6 0.000171812
5 *3301:B1 *234:12 8.73589e-05
6 *232:6 *233:16 2.88357e-05
7 *232:6 *234:12 7.26254e-05
8 *3300:A *3301:B1 4.77807e-05
9 *3300:B *3301:B1 3.93467e-05
*RES
1 *3299:Y *232:6 3.775 
2 *232:6 *3301:B1 3.445 
3 *232:6 *3300:C 1.6 
*END

*D_NET *233 0.0047267
*CONN
*I *3331:B1 I *D sky130_fd_sc_hd__a211o_2
*I *3333:B1 I *D sky130_fd_sc_hd__a21oi_2
*I *3335:A I *D sky130_fd_sc_hd__or2_2
*I *3310:B1 I *D sky130_fd_sc_hd__o221ai_2
*I *3302:A I *D sky130_fd_sc_hd__nor2_2
*I *3300:X O *D sky130_fd_sc_hd__and3_4
*CAP
1 *3331:B1 0
2 *3333:B1 0
3 *3335:A 0
4 *3310:B1 0.000173639
5 *3302:A 2.0132e-05
6 *3300:X 0.000396824
7 *233:43 0.000404549
8 *233:37 0.000370229
9 *233:29 0.000313528
10 *233:16 0.000591166
11 *3310:B1 *3310:C1 3.25831e-05
12 *3310:B1 *3336:A1 6.97202e-05
13 *3310:B1 *3336:A3 8.15676e-05
14 *233:16 *3278:A 0.000105549
15 *233:16 *3302:B 4.66108e-05
16 *233:16 *234:12 0.000160338
17 *233:16 *886:22 0.00045693
18 *233:29 *3275:B_N 0.000121032
19 *233:29 *3278:A 2.21074e-05
20 *233:29 *3331:C1 0.000321852
21 *233:29 *3337:A1_N 0.000127229
22 *233:37 *3331:C1 9.50342e-06
23 *233:37 *3333:A2 0
24 *233:37 *3337:A1_N 6.44307e-05
25 *233:37 *3337:A2_N 2.36616e-05
26 *233:37 *236:10 3.68596e-05
27 *233:43 *3333:A2 7.95095e-05
28 *233:43 *3336:A1 2.05056e-05
29 *233:43 *3337:A2_N 1.83847e-05
30 *233:43 *234:18 0.000199833
31 *3272:A *233:16 0.000154355
32 *3272:B *233:16 4.90291e-05
33 *3299:A *233:16 5.13447e-05
34 *203:19 *233:16 0.000143928
35 *205:23 *3310:B1 0
36 *205:40 *3310:B1 0
37 *210:10 *3310:B1 0
38 *211:6 *233:16 3.0933e-05
39 *231:29 *233:37 0
40 *232:6 *233:16 2.88357e-05
*RES
1 *3300:X *233:16 15.965 
2 *233:16 *3302:A 1.96 
3 *233:16 *233:29 7.415 
4 *233:29 *233:37 5.045 
5 *233:37 *233:43 4.71 
6 *233:43 *3310:B1 8.885 
7 *233:43 *3335:A 1.6 
8 *233:37 *3333:B1 1.6 
9 *233:29 *3331:B1 3.6 
*END

*D_NET *234 0.00491815
*CONN
*I *3302:B I *D sky130_fd_sc_hd__nor2_2
*I *3335:B I *D sky130_fd_sc_hd__or2_2
*I *3310:B2 I *D sky130_fd_sc_hd__o221ai_2
*I *3301:Y O *D sky130_fd_sc_hd__a21oi_2
*CAP
1 *3302:B 1.36534e-05
2 *3335:B 0
3 *3310:B2 0.000235025
4 *3301:Y 0.00083208
5 *234:18 0.000629564
6 *234:12 0.00124027
7 *3302:B *3278:A 4.66108e-05
8 *3310:B2 *3310:C1 6.71882e-05
9 *3310:B2 *3311:A 0
10 *3310:B2 *3311:B 8.57024e-05
11 *3310:B2 *3336:A1 0.000158297
12 *3310:B2 *3336:A3 9.3062e-06
13 *3310:B2 *3337:B1 0
14 *3310:B2 *236:10 0
15 *234:12 *3270:A 4.90227e-05
16 *234:12 *3414:A 0.000228587
17 *234:12 *235:8 5.0096e-05
18 *234:18 *3333:A2 0.000164686
19 *234:18 *3336:A3 0
20 *234:18 *235:8 0.000342509
21 *3299:A *234:12 1.91597e-05
22 *3300:A *234:12 1.42598e-05
23 *3301:B1 *234:12 8.73589e-05
24 *3310:A1 *3310:B2 1.37328e-05
25 *203:6 *234:12 6.23576e-05
26 *231:14 *3310:B2 4.29016e-05
27 *231:14 *234:18 2.92496e-05
28 *231:29 *234:18 1.71207e-05
29 *232:6 *234:12 7.26254e-05
30 *233:16 *3302:B 4.66108e-05
31 *233:16 *234:12 0.000160338
32 *233:43 *234:18 0.000199833
*RES
1 *3301:Y *234:12 15.765 
2 *234:12 *234:18 10.565 
3 *234:18 *3310:B2 10.535 
4 *234:18 *3335:B 1.6 
5 *234:12 *3302:B 4.05 
*END

*D_NET *235 0.00378785
*CONN
*I *3414:A I *D sky130_fd_sc_hd__and4_4
*I *3331:A2 I *D sky130_fd_sc_hd__a211o_2
*I *3303:B I *D sky130_fd_sc_hd__nand2_2
*I *3333:A2 I *D sky130_fd_sc_hd__a21oi_2
*I *3302:Y O *D sky130_fd_sc_hd__nor2_2
*CAP
1 *3414:A 0.000360731
2 *3331:A2 0.000235631
3 *3303:B 0
4 *3333:A2 0.000107244
5 *3302:Y 0
6 *235:23 0.000235631
7 *235:8 0.000293279
8 *235:6 0.000546766
9 *3414:A *3414:B 3.1835e-05
10 *3414:A *717:14 8.49205e-05
11 *3414:A *886:16 0.000492496
12 *3414:A *886:22 7.1624e-05
13 *235:8 *3331:C1 0
14 *235:8 *886:22 9.05592e-05
15 *3331:A1 *3331:A2 0.000149264
16 *204:10 *3414:A 0
17 *204:12 *3414:A 0
18 *231:29 *3331:A2 4.82919e-05
19 *231:29 *3333:A2 0.000164686
20 *231:29 *235:8 9.50342e-06
21 *233:37 *3333:A2 0
22 *233:43 *3333:A2 7.95095e-05
23 *234:12 *3414:A 0.000228587
24 *234:12 *235:8 5.0096e-05
25 *234:18 *3333:A2 0.000164686
26 *234:18 *235:8 0.000342509
*RES
1 *3302:Y *235:6 3.6 
2 *235:6 *235:8 4.695 
3 *235:8 *3333:A2 6.645 
4 *235:8 *235:23 2 
5 *235:23 *3303:B 1.6 
6 *235:23 *3331:A2 5.53 
7 *235:6 *3414:A 11.895 
*END

*D_NET *236 0.00096777
*CONN
*I *3337:B2 I *D sky130_fd_sc_hd__a2bb2oi_2
*I *3311:A I *D sky130_fd_sc_hd__nand2_2
*I *3303:Y O *D sky130_fd_sc_hd__nand2_2
*CAP
1 *3337:B2 0
2 *3311:A 0.000120128
3 *3303:Y 0.000201419
4 *236:10 0.000321547
5 *3311:A *3311:B 5.42473e-05
6 *3311:A *3336:B1 1.70935e-05
7 *3311:A *3337:B1 0
8 *3311:A *3338:A 0
9 *236:10 *3337:A1_N 0
10 *236:10 *3338:A 0
11 *236:10 *3338:C 4.61658e-05
12 *3310:B2 *3311:A 0
13 *3310:B2 *236:10 0
14 *3331:A1 *236:10 2.75145e-05
15 *231:14 *236:10 5.3023e-05
16 *231:29 *236:10 8.9772e-05
17 *233:37 *236:10 3.68596e-05
*RES
1 *3303:Y *236:10 7.815 
2 *236:10 *3311:A 6 
3 *236:10 *3337:B2 3.6 
*END

*D_NET *237 0.000400667
*CONN
*I *3309:A1 I *D sky130_fd_sc_hd__o21ai_4
*I *3304:X O *D sky130_fd_sc_hd__and3_4
*CAP
1 *3309:A1 0.000103969
2 *3304:X 0.000103969
3 *3309:A1 *3309:B1 6.04287e-05
4 *3309:A1 *3328:B1 8.35068e-05
5 *205:55 *3309:A1 4.87939e-05
*RES
1 *3304:X *3309:A1 9.375 
*END

*D_NET *238 0.000200692
*CONN
*I *3309:A2 I *D sky130_fd_sc_hd__o21ai_4
*I *3305:Y O *D sky130_fd_sc_hd__a21oi_2
*CAP
1 *3309:A2 3.94239e-05
2 *3305:Y 3.94239e-05
3 *3309:A2 *3309:B1 9.50342e-06
4 *3309:A2 *596:42 4.49328e-05
5 *205:55 *3309:A2 6.74079e-05
*RES
1 *3305:Y *3309:A2 8.58 
*END

*D_NET *239 0.000850247
*CONN
*I *3308:B1 I *D sky130_fd_sc_hd__o2bb2ai_2
*I *3321:A1 I *D sky130_fd_sc_hd__o211ai_2
*I *3306:X O *D sky130_fd_sc_hd__and3_2
*CAP
1 *3308:B1 0.000240901
2 *3321:A1 3.96358e-05
3 *3306:X 5.25846e-05
4 *239:6 0.000333122
5 *3321:A1 *3328:B1 4.90227e-05
6 *239:6 *3328:B1 6.53053e-05
7 *3284:A *3308:B1 0
8 *217:8 *3308:B1 6.96757e-05
*RES
1 *3306:X *239:6 2.74 
2 *239:6 *3321:A1 2.395 
3 *239:6 *3308:B1 9.785 
*END

*D_NET *240 0.00264163
*CONN
*I *3321:A2 I *D sky130_fd_sc_hd__o211ai_2
*I *3308:B2 I *D sky130_fd_sc_hd__o2bb2ai_2
*I *3307:X O *D sky130_fd_sc_hd__a311o_2
*CAP
1 *3321:A2 0
2 *3308:B2 0.000251638
3 *3307:X 0.000484837
4 *240:10 0.000736475
5 *3308:B2 *3309:B1 0.00012398
6 *3308:B2 *718:81 2.01934e-05
7 *3297:A1 *240:10 0.000109541
8 *3307:A2 *240:10 8.54872e-05
9 *3307:B1 *240:10 0.000122001
10 *3308:A1_N *3308:B2 8.32311e-06
11 *214:26 *240:10 2.14862e-05
12 *214:37 *240:10 3.75126e-05
13 *217:8 *3308:B2 0.000101244
14 *217:8 *240:10 9.24049e-05
15 *219:10 *240:10 0.000296094
16 *228:16 *3308:B2 4.18603e-06
17 *228:16 *240:10 6.74234e-05
18 *228:18 *3308:B2 7.88043e-05
*RES
1 *3307:X *240:10 13.305 
2 *240:10 *3308:B2 9.27 
3 *240:10 *3321:A2 3.6 
*END

*D_NET *241 0.00236925
*CONN
*I *3309:B1 I *D sky130_fd_sc_hd__o21ai_4
*I *3308:Y O *D sky130_fd_sc_hd__o2bb2ai_2
*CAP
1 *3309:B1 0.000514816
2 *3308:Y 0.000514816
3 *3309:B1 *3328:B1 8.90582e-05
4 *3309:B1 *3896:CLK 8.63037e-05
5 *3309:B1 *596:42 9.4057e-05
6 *3309:B1 *718:81 0.000871357
7 *3308:B2 *3309:B1 0.00012398
8 *3309:A1 *3309:B1 6.04287e-05
9 *3309:A2 *3309:B1 9.50342e-06
10 *205:55 *3309:B1 4.92527e-06
*RES
1 *3308:Y *3309:B1 20.31 
*END

*D_NET *242 0.00207923
*CONN
*I *3336:A2 I *D sky130_fd_sc_hd__a31oi_2
*I *3310:C1 I *D sky130_fd_sc_hd__o221ai_2
*I *3314:A I *D sky130_fd_sc_hd__nand2_2
*I *3309:Y O *D sky130_fd_sc_hd__o21ai_4
*CAP
1 *3336:A2 5.11311e-05
2 *3310:C1 0.000133284
3 *3314:A 0
4 *3309:Y 0.000254131
5 *242:23 0.000490775
6 *242:10 0.000560491
7 *3310:C1 *3311:B 0
8 *3310:C1 *3336:A3 0.000185405
9 *242:10 *3328:B1 0.000183587
10 *242:10 *3329:B2 0
11 *242:10 *247:14 0
12 *242:23 *3314:B 0
13 *242:23 *3329:B2 0
14 *3310:B1 *3310:C1 3.25831e-05
15 *3310:B2 *3310:C1 6.71882e-05
16 *205:40 *242:23 0
17 *231:14 *3310:C1 0.000120655
*RES
1 *3309:Y *242:10 8.1 
2 *242:10 *3314:A 3.6 
3 *242:10 *242:23 6.98 
4 *242:23 *3310:C1 9.14 
5 *242:23 *3336:A2 2.395 
*END

*D_NET *243 0.000860512
*CONN
*I *3311:B I *D sky130_fd_sc_hd__nand2_2
*I *3310:Y O *D sky130_fd_sc_hd__o221ai_2
*CAP
1 *3311:B 0.000286392
2 *3310:Y 0.000286392
3 *3311:B *3336:A1 0
4 *3311:B *3337:B1 0.000100118
5 *3310:B2 *3311:B 8.57024e-05
6 *3310:C1 *3311:B 0
7 *3311:A *3311:B 5.42473e-05
8 *231:14 *3311:B 4.7662e-05
*RES
1 *3310:Y *3311:B 11.7 
*END

*D_NET *244 0.000620178
*CONN
*I *3329:A1_N I *D sky130_fd_sc_hd__o2bb2ai_2
*I *3311:Y O *D sky130_fd_sc_hd__nand2_2
*CAP
1 *3329:A1_N 0.000147453
2 *3311:Y 0.000147453
3 *3329:A1_N *3329:B1 4.43871e-06
4 *3329:A1_N *3336:B1 0.000320834
*RES
1 *3311:Y *3329:A1_N 10.875 
*END

*D_NET *245 9.32862e-05
*CONN
*I *3313:A1 I *D sky130_fd_sc_hd__o21ai_2
*I *3312:X O *D sky130_fd_sc_hd__and3_2
*CAP
1 *3313:A1 3.1232e-05
2 *3312:X 3.1232e-05
3 *3313:B1 *3313:A1 5.83121e-06
4 *230:8 *3313:A1 2.49909e-05
*RES
1 *3312:X *3313:A1 3.65 
*END

*D_NET *246 0.000570374
*CONN
*I *3314:B I *D sky130_fd_sc_hd__nand2_2
*I *3313:Y O *D sky130_fd_sc_hd__o21ai_2
*CAP
1 *3314:B 0.000214384
2 *3313:Y 0.000214384
3 *205:40 *3314:B 0.000141606
4 *242:23 *3314:B 0
*RES
1 *3313:Y *3314:B 11.01 
*END

*D_NET *247 0.00107157
*CONN
*I *3315:B I *D sky130_fd_sc_hd__nor2_2
*I *3328:A1 I *D sky130_fd_sc_hd__a21oi_2
*I *3314:Y O *D sky130_fd_sc_hd__nand2_2
*CAP
1 *3315:B 0.000149029
2 *3328:A1 0
3 *3314:Y 0.000309344
4 *247:14 0.000458373
5 *3315:B *3315:A 5.93828e-05
6 *247:14 *3329:B2 9.54399e-05
7 *247:14 *560:8 0
8 *242:10 *247:14 0
*RES
1 *3314:Y *247:14 10.205 
2 *247:14 *3328:A1 1.6 
3 *247:14 *3315:B 4.15 
*END

*D_NET *248 0.000395797
*CONN
*I *3329:B1 I *D sky130_fd_sc_hd__o2bb2ai_2
*I *3315:Y O *D sky130_fd_sc_hd__nor2_2
*CAP
1 *3329:B1 0.000144421
2 *3315:Y 0.000144421
3 *3329:B1 *3329:B2 0
4 *3329:B1 *3336:B1 5.11148e-06
5 *3329:B1 *3338:A 4.82863e-05
6 *3329:B1 *560:8 4.91189e-05
7 *3329:A1_N *3329:B1 4.43871e-06
*RES
1 *3315:Y *3329:B1 9.975 
*END

*D_NET *249 0.000942806
*CONN
*I *3324:A I *D sky130_fd_sc_hd__nand2_2
*I *3320:A1_N I *D sky130_fd_sc_hd__o2bb2ai_2
*I *3316:Y O *D sky130_fd_sc_hd__nand3_2
*CAP
1 *3324:A 0
2 *3320:A1_N 5.39123e-05
3 *3316:Y 0.000132732
4 *249:8 0.000186644
5 *3320:A1_N *3326:A1 9.16315e-05
6 *3320:A1_N *3929:D 0
7 *249:8 *3929:D 0
8 *195:10 *3320:A1_N 0.000187071
9 *195:10 *249:8 0.000290815
*RES
1 *3316:Y *249:8 7.02 
2 *249:8 *3320:A1_N 5.745 
3 *249:8 *3324:A 3.6 
*END

*D_NET *250 0.00109432
*CONN
*I *3324:B I *D sky130_fd_sc_hd__nand2_2
*I *3320:A2_N I *D sky130_fd_sc_hd__o2bb2ai_2
*I *3317:Y O *D sky130_fd_sc_hd__o211ai_2
*CAP
1 *3324:B 6.01611e-05
2 *3320:A2_N 0.000116061
3 *3317:Y 4.22017e-05
4 *250:8 0.000218423
5 *3320:A2_N *3322:A2 6.61627e-05
6 *3296:B2 *3320:A2_N 0.000206824
7 *3296:B2 *250:8 8.53113e-06
8 *3318:B1 *3320:A2_N 0.000185411
9 *195:10 *3320:A2_N 1.01661e-05
10 *195:10 *250:8 5.08981e-05
11 *225:30 *250:8 0.000129483
*RES
1 *3317:Y *250:8 5.235 
2 *250:8 *3320:A2_N 7.14 
3 *250:8 *3324:B 4.395 
*END

*D_NET *251 0.00232817
*CONN
*I *3320:B1 I *D sky130_fd_sc_hd__o2bb2ai_2
*I *3325:B1 I *D sky130_fd_sc_hd__a21oi_2
*I *3318:Y O *D sky130_fd_sc_hd__a2bb2oi_2
*CAP
1 *3320:B1 3.5419e-05
2 *3325:B1 0.00031349
3 *3318:Y 9.77868e-05
4 *251:10 0.000446696
5 *3325:B1 *3322:B1 0.000123492
6 *3325:B1 *3326:B1 0.000208491
7 *3325:B1 *3326:B2 2.937e-05
8 *3325:B1 *3327:B2 0.000103974
9 *3286:B1 *3320:B1 5.83121e-06
10 *3296:B2 *3325:B1 0.000187766
11 *3296:B2 *251:10 0.000131408
12 *3307:B1 *3325:B1 0.000253949
13 *3318:A1_N *251:10 2.49909e-05
14 *3318:B1 *3325:B1 1.01661e-05
15 *3326:A2 *3325:B1 0
16 *195:10 *3325:B1 0
17 *217:22 *3325:B1 6.02191e-05
18 *218:41 *251:10 8.59365e-05
19 *218:43 *3325:B1 0.000155176
20 *218:43 *251:10 5.4003e-05
*RES
1 *3318:Y *251:10 6.03 
2 *251:10 *3325:B1 13.26 
3 *251:10 *3320:B1 4.05 
*END

*D_NET *252 0.00170543
*CONN
*I *3320:B2 I *D sky130_fd_sc_hd__o2bb2ai_2
*I *3319:X O *D sky130_fd_sc_hd__o211a_2
*CAP
1 *3320:B2 0.000347345
2 *3319:X 0.000347345
3 *3295:B1 *3320:B2 0.000114649
4 *3295:C1 *3320:B2 0.000195575
5 *3317:A2 *3320:B2 7.94442e-05
6 *218:39 *3320:B2 0.000350568
7 *218:41 *3320:B2 0.000137578
8 *218:43 *3320:B2 7.47215e-05
9 *224:31 *3320:B2 1.10951e-05
10 *228:10 *3320:B2 4.71087e-05
*RES
1 *3319:X *3320:B2 16.515 
*END

*D_NET *253 0.00204208
*CONN
*I *3322:A2 I *D sky130_fd_sc_hd__o21ai_2
*I *3320:Y O *D sky130_fd_sc_hd__o2bb2ai_2
*CAP
1 *3322:A2 0.000758047
2 *3320:Y 0.000758047
3 *3322:A2 *3322:A1 0.000249631
4 *3322:A2 *3326:A1 0
5 *3322:A2 *3326:B2 0
6 *3322:A2 *3929:D 0.00019194
7 *3322:A2 *3979:A 0
8 *3322:A2 *632:25 1.82563e-05
9 *3320:A2_N *3322:A2 6.61627e-05
*RES
1 *3320:Y *3322:A2 21.015 
*END

*D_NET *254 0.00162477
*CONN
*I *3322:B1 I *D sky130_fd_sc_hd__o21ai_2
*I *3321:Y O *D sky130_fd_sc_hd__o211ai_2
*CAP
1 *3322:B1 0.00046267
2 *3321:Y 0.00046267
3 *3322:B1 *3327:A2_N 0.000239807
4 *3322:B1 *3328:B1 2.65814e-06
5 *3325:A1 *3322:B1 4.21973e-05
6 *3325:B1 *3322:B1 0.000123492
7 *217:12 *3322:B1 0.000160635
8 *228:16 *3322:B1 9.37731e-05
9 *229:12 *3322:B1 3.68682e-05
*RES
1 *3321:Y *3322:B1 15.45 
*END

*D_NET *255 0.00103048
*CONN
*I *3327:A2_N I *D sky130_fd_sc_hd__o2bb2ai_2
*I *3322:Y O *D sky130_fd_sc_hd__o21ai_2
*CAP
1 *3327:A2_N 0.000285596
2 *3322:Y 0.000285596
3 *3327:A2_N *3326:B1 0
4 *3327:A2_N *3894:D 6.97199e-05
5 *3327:A2_N *3929:RESET_B 1.96072e-05
6 *3327:A2_N *718:91 0.00013015
7 *3322:B1 *3327:A2_N 0.000239807
*RES
1 *3322:Y *3327:A2_N 13.905 
*END

*D_NET *256 0.000188883
*CONN
*I *3327:B1 I *D sky130_fd_sc_hd__o2bb2ai_2
*I *3323:Y O *D sky130_fd_sc_hd__nand2_2
*CAP
1 *3327:B1 4.60368e-05
2 *3323:Y 4.60368e-05
3 *3327:B1 *3323:B 4.77807e-05
4 *3327:B1 *3328:B1 4.90291e-05
*RES
1 *3323:Y *3327:B1 4.355 
*END

*D_NET *257 0.00114932
*CONN
*I *3326:A1 I *D sky130_fd_sc_hd__o22ai_2
*I *3324:Y O *D sky130_fd_sc_hd__nand2_2
*CAP
1 *3326:A1 0.000315892
2 *3324:Y 0.000315892
3 *3326:A1 *3929:D 0
4 *3326:A1 *3979:A 0.000183738
5 *3326:A1 *4000:A 7.89689e-05
6 *3320:A1_N *3326:A1 9.16315e-05
7 *3322:A2 *3326:A1 0
8 *3326:A2 *3326:A1 6.65066e-05
9 *195:10 *3326:A1 9.66886e-05
*RES
1 *3324:Y *3326:A1 15.21 
*END

*D_NET *258 0.00034178
*CONN
*I *3326:B2 I *D sky130_fd_sc_hd__o22ai_2
*I *3325:Y O *D sky130_fd_sc_hd__a21oi_2
*CAP
1 *3326:B2 0.000109103
2 *3325:Y 0.000109103
3 *3326:B2 *3326:B1 8.97642e-05
4 *3322:A2 *3326:B2 0
5 *3325:B1 *3326:B2 2.937e-05
6 *3326:A2 *3326:B2 4.43871e-06
*RES
1 *3325:Y *3326:B2 9.54 
*END

*D_NET *259 0.0014149
*CONN
*I *3327:B2 I *D sky130_fd_sc_hd__o2bb2ai_2
*I *3326:Y O *D sky130_fd_sc_hd__o22ai_2
*CAP
1 *3327:B2 0.000366506
2 *3326:Y 0.000366506
3 *3327:B2 *3323:B 0.000134875
4 *3327:B2 *3326:B1 0.00012772
5 *3327:B2 *558:10 1.10359e-05
6 *3308:A2_N *3327:B2 3.83123e-05
7 *3325:B1 *3327:B2 0.000103974
8 *217:22 *3327:B2 0.000185405
9 *229:12 *3327:B2 8.05665e-05
*RES
1 *3326:Y *3327:B2 15.6 
*END

*D_NET *260 0.00352918
*CONN
*I *3328:B1 I *D sky130_fd_sc_hd__a21oi_2
*I *3327:Y O *D sky130_fd_sc_hd__o2bb2ai_2
*CAP
1 *3328:B1 0.00121391
2 *3327:Y 0.00121391
3 *3328:B1 *3323:B 1.19928e-05
4 *3306:B *3328:B1 0.000120573
5 *3306:C *3328:B1 3.56746e-05
6 *3308:A2_N *3328:B1 3.32593e-05
7 *3309:A1 *3328:B1 8.35068e-05
8 *3309:B1 *3328:B1 8.90582e-05
9 *3321:A1 *3328:B1 4.90227e-05
10 *3322:B1 *3328:B1 2.65814e-06
11 *3327:B1 *3328:B1 4.90291e-05
12 *205:55 *3328:B1 0.000268138
13 *209:35 *3328:B1 1.8498e-05
14 *228:18 *3328:B1 9.10613e-05
15 *239:6 *3328:B1 6.53053e-05
16 *242:10 *3328:B1 0.000183587
*RES
1 *3327:Y *3328:B1 27.99 
*END

*D_NET *261 0.000227404
*CONN
*I *3329:B2 I *D sky130_fd_sc_hd__o2bb2ai_2
*I *3328:Y O *D sky130_fd_sc_hd__a21oi_2
*CAP
1 *3329:B2 6.59822e-05
2 *3328:Y 6.59822e-05
3 *3329:B1 *3329:B2 0
4 *242:10 *3329:B2 0
5 *242:23 *3329:B2 0
6 *247:14 *3329:B2 9.54399e-05
*RES
1 *3328:Y *3329:B2 8.58 
*END

*D_NET *262 0.00203761
*CONN
*I *3338:A I *D sky130_fd_sc_hd__nand3_4
*I *3329:Y O *D sky130_fd_sc_hd__o2bb2ai_2
*CAP
1 *3338:A 0.000569611
2 *3329:Y 0.000569611
3 *3338:A *3336:B1 0.000192721
4 *3338:A *3337:A1_N 7.63047e-05
5 *3338:A *3337:A2_N 0.000158965
6 *3338:A *3338:C 9.47454e-05
7 *3338:A *3893:CLK 0.000321529
8 *3338:A *3900:CLK 5.83121e-06
9 *3311:A *3338:A 0
10 *3329:B1 *3338:A 4.82863e-05
11 *3893:D *3338:A 0
12 *236:10 *3338:A 0
*RES
1 *3329:Y *3338:A 19.41 
*END

*D_NET *263 0.00226505
*CONN
*I *3414:C I *D sky130_fd_sc_hd__and4_4
*I *3331:C1 I *D sky130_fd_sc_hd__a211o_2
*I *3330:Y O *D sky130_fd_sc_hd__xnor2_2
*CAP
1 *3414:C 0.00013325
2 *3331:C1 0.000387789
3 *3330:Y 5.74715e-05
4 *263:8 0.00057851
5 *3331:C1 *3275:B_N 6.90972e-05
6 *3331:C1 *3278:A 0.000133329
7 *3331:C1 *3337:A1_N 0
8 *3331:C1 *887:12 3.86607e-05
9 *3331:C1 *887:14 6.50574e-05
10 *3331:C1 *887:16 7.94942e-05
11 *3331:C1 *888:34 0
12 *3331:C1 *888:62 0.000165461
13 *3414:C *887:10 0.0001032
14 *3414:C *887:12 3.57846e-05
15 *263:8 *888:8 8.65961e-05
16 *233:29 *3331:C1 0.000321852
17 *233:37 *3331:C1 9.50342e-06
18 *235:8 *3331:C1 0
*RES
1 *3330:Y *263:8 4.395 
2 *263:8 *3331:C1 13.14 
3 *263:8 *3414:C 6.51 
*END

*D_NET *264 0.00023892
*CONN
*I *3338:B I *D sky130_fd_sc_hd__nand3_4
*I *3331:X O *D sky130_fd_sc_hd__a211o_2
*CAP
1 *3338:B 6.27463e-05
2 *3331:X 6.27463e-05
3 *3338:B *3337:A1_N 8.08439e-05
4 *3893:D *3338:B 3.25831e-05
*RES
1 *3331:X *3338:B 8.835 
*END

*D_NET *265 0.00185503
*CONN
*I *3337:A1_N I *D sky130_fd_sc_hd__a2bb2oi_2
*I *3332:X O *D sky130_fd_sc_hd__xor2_2
*CAP
1 *3337:A1_N 0.000573003
2 *3332:X 0.000573003
3 *3337:A1_N *3275:A 0.000151884
4 *3337:A1_N *3278:A 4.70338e-05
5 *3337:A1_N *3337:A2_N 6.5525e-05
6 *3337:A1_N *3338:C 1.01661e-05
7 *3337:A1_N *888:34 1.31475e-05
8 *3337:A1_N *888:62 6.0121e-05
9 *3331:C1 *3337:A1_N 0
10 *3338:A *3337:A1_N 7.63047e-05
11 *3338:B *3337:A1_N 8.08439e-05
12 *3893:D *3337:A1_N 1.23331e-05
13 *233:29 *3337:A1_N 0.000127229
14 *233:37 *3337:A1_N 6.44307e-05
15 *236:10 *3337:A1_N 0
*RES
1 *3332:X *3337:A1_N 19.8 
*END

*D_NET *266 0.00091898
*CONN
*I *3337:A2_N I *D sky130_fd_sc_hd__a2bb2oi_2
*I *3333:Y O *D sky130_fd_sc_hd__a21oi_2
*CAP
1 *3337:A2_N 0.000266965
2 *3333:Y 0.000266965
3 *3337:A1_N *3337:A2_N 6.5525e-05
4 *3338:A *3337:A2_N 0.000158965
5 *3893:D *3337:A2_N 0.000118513
6 *233:37 *3337:A2_N 2.36616e-05
7 *233:43 *3337:A2_N 1.83847e-05
*RES
1 *3333:Y *3337:A2_N 11.445 
*END

*D_NET *267 0.00157343
*CONN
*I *3336:A1 I *D sky130_fd_sc_hd__a31oi_2
*I *3334:X O *D sky130_fd_sc_hd__a221o_2
*CAP
1 *3336:A1 0.000500138
2 *3334:X 0.000500138
3 *3336:A1 *3336:A3 0.000159755
4 *3336:A1 *3337:B1 0
5 *3310:B1 *3336:A1 6.97202e-05
6 *3310:B2 *3336:A1 0.000158297
7 *3311:B *3336:A1 0
8 *205:23 *3336:A1 0.000164874
9 *233:43 *3336:A1 2.05056e-05
*RES
1 *3334:X *3336:A1 15.315 
*END

*D_NET *268 0.000759383
*CONN
*I *3336:A3 I *D sky130_fd_sc_hd__a31oi_2
*I *3335:X O *D sky130_fd_sc_hd__or2_2
*CAP
1 *3336:A3 0.000161675
2 *3335:X 0.000161675
3 *3310:B1 *3336:A3 8.15676e-05
4 *3310:B2 *3336:A3 9.3062e-06
5 *3310:C1 *3336:A3 0.000185405
6 *3336:A1 *3336:A3 0.000159755
7 *205:23 *3336:A3 0
8 *234:18 *3336:A3 0
*RES
1 *3335:X *3336:A3 11.895 
*END

*D_NET *269 0.000421578
*CONN
*I *3337:B1 I *D sky130_fd_sc_hd__a2bb2oi_2
*I *3336:Y O *D sky130_fd_sc_hd__a31oi_2
*CAP
1 *3337:B1 0.000135454
2 *3336:Y 0.000135454
3 *3310:B2 *3337:B1 0
4 *3311:A *3337:B1 0
5 *3311:B *3337:B1 0.000100118
6 *3336:A1 *3337:B1 0
7 *231:14 *3337:B1 5.05521e-05
*RES
1 *3336:Y *3337:B1 9.975 
*END

*D_NET *270 0.000234538
*CONN
*I *3338:C I *D sky130_fd_sc_hd__nand3_4
*I *3337:Y O *D sky130_fd_sc_hd__a2bb2oi_2
*CAP
1 *3338:C 4.17302e-05
2 *3337:Y 4.17302e-05
3 *3337:A1_N *3338:C 1.01661e-05
4 *3338:A *3338:C 9.47454e-05
5 *236:10 *3338:C 4.61658e-05
*RES
1 *3337:Y *3338:C 8.58 
*END

*D_NET *271 0.00106477
*CONN
*I *3364:A1 I *D sky130_fd_sc_hd__o211a_2
*I *3348:A1 I *D sky130_fd_sc_hd__o211ai_2
*I *3351:A I *D sky130_fd_sc_hd__nor2_2
*I *3339:X O *D sky130_fd_sc_hd__and2_2
*CAP
1 *3364:A1 4.07233e-05
2 *3348:A1 1.73035e-05
3 *3351:A 0
4 *3339:X 0.00014615
5 *271:21 0.000135257
6 *271:10 0.000223381
7 *3348:A1 *3364:A2 4.30166e-05
8 *3348:A1 *276:16 8.52845e-05
9 *3364:A1 *3364:A2 7.38019e-05
10 *3364:A1 *276:16 3.12386e-05
11 *271:10 *272:8 0
12 *271:21 *3352:C 8.90199e-05
13 *176:14 *271:10 8.64421e-05
14 *178:27 *271:10 6.87394e-05
15 *178:27 *271:21 2.44112e-05
*RES
1 *3339:X *271:10 6.03 
2 *271:10 *3351:A 3.6 
3 *271:10 *271:21 3.635 
4 *271:21 *3348:A1 2.395 
5 *271:21 *3364:A1 2.6275 
*END

*D_NET *272 0.00161881
*CONN
*I *3364:A2 I *D sky130_fd_sc_hd__o211a_2
*I *3348:A2 I *D sky130_fd_sc_hd__o211ai_2
*I *3351:B I *D sky130_fd_sc_hd__nor2_2
*I *3340:Y O *D sky130_fd_sc_hd__nor2_2
*CAP
1 *3364:A2 0.000111406
2 *3348:A2 0
3 *3351:B 0.000126909
4 *3340:Y 0.000107206
5 *272:23 0.000224295
6 *272:8 0.000347004
7 *3364:A2 *3348:C1 8.23329e-05
8 *3364:A2 *276:10 2.21959e-05
9 *3364:A2 *276:16 8.39182e-05
10 *3364:A2 *296:18 0.000198994
11 *272:23 *3348:B1 2.93136e-05
12 *272:23 *3369:B1 4.83032e-05
13 *272:23 *276:16 2.69217e-05
14 *272:23 *296:18 2.01934e-05
15 *3348:A1 *3364:A2 4.30166e-05
16 *3364:A1 *3364:A2 7.38019e-05
17 *3369:D1 *272:8 7.30033e-05
18 *178:27 *272:8 0
19 *271:10 *272:8 0
*RES
1 *3340:Y *272:8 5.49 
2 *272:8 *3351:B 5.43 
3 *272:8 *272:23 4.34 
4 *272:23 *3348:A2 1.6 
5 *272:23 *3364:A2 5.53 
*END

*D_NET *273 0.000589287
*CONN
*I *3350:A I *D sky130_fd_sc_hd__nand3_2
*I *3344:A I *D sky130_fd_sc_hd__nand3_2
*I *3341:Y O *D sky130_fd_sc_hd__inv_2
*CAP
1 *3350:A 9.61189e-05
2 *3344:A 4.89285e-05
3 *3341:Y 0.000145047
4 *3344:A *3341:A 9.12671e-06
5 *3344:A *3344:C 0
6 *3344:A *279:6 8.46818e-05
7 *3344:A *709:71 1.79174e-05
8 *3350:A *3349:C 7.01276e-05
9 *3350:A *279:6 4.89395e-05
10 *3350:A *327:29 6.83991e-05
*RES
1 *3341:Y *3344:A 4.355 
2 *3341:Y *3350:A 9.285 
*END

*D_NET *274 0.00252712
*CONN
*I *3385:B I *D sky130_fd_sc_hd__and3_2
*I *3355:A I *D sky130_fd_sc_hd__nand4_2
*I *3344:B I *D sky130_fd_sc_hd__nand3_2
*I *3349:A I *D sky130_fd_sc_hd__nand3_2
*I *3342:Y O *D sky130_fd_sc_hd__nand2b_2
*CAP
1 *3385:B 0.000262719
2 *3355:A 0
3 *3344:B 0
4 *3349:A 0.000167507
5 *3342:Y 0
6 *274:14 0.000300938
7 *274:8 0.000367724
8 *274:4 0.000497012
9 *3349:A *275:25 6.54361e-06
10 *3349:A *275:42 5.48878e-05
11 *3349:A *290:18 4.77769e-05
12 *3349:A *566:10 6.77291e-05
13 *3385:B *277:60 0.000113222
14 *3385:B *290:18 0.000196077
15 *274:8 *3342:B 4.77769e-05
16 *274:8 *3345:A 1.22325e-05
17 *274:8 *3345:B 1.08758e-05
18 *274:8 *3355:B 1.08758e-05
19 *274:14 *3355:B 8.41384e-05
20 *274:14 *3355:C 2.69443e-06
21 *274:14 *275:10 2.68111e-05
22 *274:14 *275:25 5.94242e-05
23 *180:42 *3385:B 0.000142383
24 *181:23 *3349:A 4.77769e-05
*RES
1 *3342:Y *274:4 1.6 
2 *274:4 *274:8 3.57 
3 *274:8 *274:14 4.685 
4 *274:14 *3349:A 6.9 
5 *274:14 *3344:B 3.6 
6 *274:8 *3355:A 1.6 
7 *274:4 *3385:B 10.595 
*END

*D_NET *275 0.0035192
*CONN
*I *3385:C I *D sky130_fd_sc_hd__and3_2
*I *3349:B I *D sky130_fd_sc_hd__nand3_2
*I *3344:C I *D sky130_fd_sc_hd__nand3_2
*I *3355:B I *D sky130_fd_sc_hd__nand4_2
*I *3343:Y O *D sky130_fd_sc_hd__nand2b_2
*CAP
1 *3385:C 0.000174574
2 *3349:B 0
3 *3344:C 0.000109637
4 *3355:B 0.000108619
5 *3343:Y 0.000350418
6 *275:42 0.000262876
7 *275:25 0.00024739
8 *275:10 0.000508488
9 *3344:C *276:6 4.89395e-05
10 *3344:C *279:6 0.000136014
11 *3385:C *3350:B 8.52972e-05
12 *3385:C *3350:C 0.000133078
13 *3385:C *3384:C 6.54361e-06
14 *3385:C *3390:C 4.77807e-05
15 *3385:C *277:60 9.23804e-06
16 *3385:C *278:47 1.46781e-05
17 *3385:C *290:18 0.000476526
18 *275:10 *3343:A_N 2.75229e-05
19 *275:10 *3355:C 0
20 *275:10 *709:58 0.000132801
21 *275:10 *895:16 2.12007e-05
22 *275:25 *3349:C 3.68942e-05
23 *275:25 *709:58 3.89366e-05
24 *275:42 *3349:C 9.23252e-05
25 *3344:A *3344:C 0
26 *3349:A *275:25 6.54361e-06
27 *3349:A *275:42 5.48878e-05
28 *3388:A *3385:C 8.33066e-06
29 *181:23 *3385:C 0.000198407
30 *274:8 *3355:B 1.08758e-05
31 *274:14 *3355:B 8.41384e-05
32 *274:14 *275:10 2.68111e-05
33 *274:14 *275:25 5.94242e-05
*RES
1 *3343:Y *275:10 8.61 
2 *275:10 *3355:B 5.46 
3 *275:10 *275:25 1.635 
4 *275:25 *3344:C 5.895 
5 *275:25 *275:42 4.145 
6 *275:42 *3349:B 1.6 
7 *275:42 *3385:C 11.72 
*END

*D_NET *276 0.00339448
*CONN
*I *3373:B I *D sky130_fd_sc_hd__and3_2
*I *3364:B1 I *D sky130_fd_sc_hd__o211a_2
*I *3348:B1 I *D sky130_fd_sc_hd__o211ai_2
*I *3369:B1 I *D sky130_fd_sc_hd__o2111a_2
*I *3344:Y O *D sky130_fd_sc_hd__nand3_2
*CAP
1 *3373:B 4.26728e-05
2 *3364:B1 0
3 *3348:B1 1.33902e-05
4 *3369:B1 0.000152149
5 *3344:Y 0.000191404
6 *276:16 0.000570962
7 *276:10 0.000498124
8 *276:6 0.000326779
9 *3348:B1 *3369:C1 2.57991e-05
10 *3369:B1 *3369:C1 3.89366e-05
11 *3369:B1 *3372:A1 4.41432e-05
12 *3373:B *3364:C1 2.98644e-05
13 *3373:B *3373:C 8.27307e-05
14 *276:6 *3348:C1 1.91597e-05
15 *276:6 *3364:C1 3.63576e-05
16 *276:6 *279:6 0.00049269
17 *276:10 *3348:C1 0.000153288
18 *276:10 *3364:C1 0.000195445
19 *276:16 *3348:C1 6.3145e-06
20 *276:16 *296:18 1.08036e-05
21 *3344:C *276:6 4.89395e-05
22 *3348:A1 *276:16 8.52845e-05
23 *3364:A1 *276:16 3.12386e-05
24 *3364:A2 *276:10 2.21959e-05
25 *3364:A2 *276:16 8.39182e-05
26 *3369:D1 *3369:B1 2.69153e-05
27 *176:14 *3373:B 6.04361e-05
28 *272:23 *3348:B1 2.93136e-05
29 *272:23 *3369:B1 4.83032e-05
30 *272:23 *276:16 2.69217e-05
*RES
1 *3344:Y *276:6 6.535 
2 *276:6 *276:10 2.88 
3 *276:10 *276:16 7.205 
4 *276:16 *3369:B1 6.57 
5 *276:16 *3348:B1 4.215 
6 *276:10 *3364:B1 1.6 
7 *276:6 *3373:B 6.98 
*END

*D_NET *277 0.00387463
*CONN
*I *3384:C I *D sky130_fd_sc_hd__and4_2
*I *3350:B I *D sky130_fd_sc_hd__nand3_2
*I *3347:A I *D sky130_fd_sc_hd__nand3_2
*I *3358:B1 I *D sky130_fd_sc_hd__o211ai_2
*I *3388:B I *D sky130_fd_sc_hd__and3_2
*I *3389:A I *D sky130_fd_sc_hd__nand2_2
*I *3345:X O *D sky130_fd_sc_hd__or2_4
*CAP
1 *3384:C 0.000101076
2 *3350:B 1.46098e-05
3 *3347:A 7.48821e-05
4 *3358:B1 0
5 *3388:B 0.000333756
6 *3389:A 9.1101e-05
7 *3345:X 0.000178323
8 *277:60 0.000218163
9 *277:47 0.000358914
10 *277:38 0.000181555
11 *277:14 0.000570892
12 *277:10 0.000324358
13 *3347:A *279:6 4.77807e-05
14 *3347:A *709:71 4.53873e-05
15 *3384:C *3384:D 4.77769e-05
16 *3384:C *3391:A1 3.33763e-05
17 *3388:B *278:32 7.27704e-06
18 *3388:B *320:6 8.46818e-05
19 *3389:A *3389:B 8.52883e-05
20 *3389:A *3390:C 4.40028e-05
21 *277:10 *3356:B 0.000160338
22 *277:10 *3358:A2 4.05127e-05
23 *277:14 *278:8 2.69443e-06
24 *277:14 *278:32 6.45575e-05
25 *277:47 *3347:B 0.000128684
26 *277:47 *3358:C1 8.53011e-05
27 *277:47 *290:18 0.000112408
28 *277:47 *709:71 1.07593e-05
29 *3385:B *277:60 0.000113222
30 *3385:C *3350:B 8.52972e-05
31 *3385:C *3384:C 6.54361e-06
32 *3385:C *277:60 9.23804e-06
33 *3388:A *3384:C 5.62661e-05
34 *3390:B *3384:C 1.28874e-05
35 *180:42 *3384:C 3.52569e-05
36 *180:42 *277:60 2.21697e-05
37 *181:23 *3350:B 8.52972e-05
*RES
1 *3345:X *277:10 6.465 
2 *277:10 *277:14 2.595 
3 *277:14 *3389:A 5.445 
4 *277:14 *3388:B 8.34 
5 *277:10 *277:38 2 
6 *277:38 *3358:B1 1.6 
7 *277:38 *277:47 4.26 
8 *277:47 *3347:A 3.1 
9 *277:47 *277:60 4.145 
10 *277:60 *3350:B 4.395 
11 *277:60 *3384:C 6.03 
*END

*D_NET *278 0.00313935
*CONN
*I *3389:B I *D sky130_fd_sc_hd__nand2_2
*I *3388:C I *D sky130_fd_sc_hd__and3_2
*I *3384:D I *D sky130_fd_sc_hd__and4_2
*I *3350:C I *D sky130_fd_sc_hd__nand3_2
*I *3358:C1 I *D sky130_fd_sc_hd__o211ai_2
*I *3347:B I *D sky130_fd_sc_hd__nand3_2
*I *3346:Y O *D sky130_fd_sc_hd__nand2_2
*CAP
1 *3389:B 5.66327e-05
2 *3388:C 0
3 *3384:D 0.000172391
4 *3350:C 3.36894e-05
5 *3358:C1 3.27518e-05
6 *3347:B 0.000123825
7 *3346:Y 0.000247292
8 *278:47 0.000250364
9 *278:34 0.000145566
10 *278:32 0.000195009
11 *278:10 0.000156577
12 *278:8 0.000351765
13 *3347:B *709:71 8.52972e-05
14 *3350:C *3390:C 3.95874e-05
15 *3350:C *290:18 4.22944e-05
16 *3384:D *3391:A1 2.98944e-05
17 *3384:D *320:6 9.83921e-06
18 *3389:B *3390:C 0.000196071
19 *278:8 *3357:B 7.68097e-05
20 *278:8 *898:47 0
21 *278:32 *290:18 4.83032e-05
22 *278:34 *3390:C 8.41384e-05
23 *278:47 *3387:A2_N 6.90254e-05
24 *3384:C *3384:D 4.77769e-05
25 *3385:C *3350:C 0.000133078
26 *3385:C *278:47 1.46781e-05
27 *3388:A *3384:D 4.77807e-05
28 *3388:A *278:47 2.61744e-05
29 *3388:B *278:32 7.27704e-06
30 *3389:A *3389:B 8.52883e-05
31 *181:23 *3350:C 4.89395e-05
32 *277:14 *278:8 2.69443e-06
33 *277:14 *278:32 6.45575e-05
34 *277:47 *3347:B 0.000128684
35 *277:47 *3358:C1 8.53011e-05
*RES
1 *3346:Y *278:8 7.53 
2 *278:8 *278:10 2 
3 *278:10 *3347:B 4.495 
4 *278:10 *3358:C1 2.395 
5 *278:8 *278:32 4.4 
6 *278:32 *278:34 0.795 
7 *278:34 *3350:C 3.085 
8 *278:34 *278:47 5.38 
9 *278:47 *3384:D 3.775 
10 *278:47 *3388:C 1.6 
11 *278:32 *3389:B 3.43 
*END

*D_NET *279 0.00496804
*CONN
*I *3369:C1 I *D sky130_fd_sc_hd__o2111a_2
*I *3348:C1 I *D sky130_fd_sc_hd__o211ai_2
*I *3373:C I *D sky130_fd_sc_hd__and3_2
*I *3364:C1 I *D sky130_fd_sc_hd__o211a_2
*I *3347:Y O *D sky130_fd_sc_hd__nand3_2
*CAP
1 *3369:C1 3.94689e-05
2 *3348:C1 0.000705083
3 *3373:C 0.000120855
4 *3364:C1 0.000136523
5 *3347:Y 0.000468925
6 *279:8 0.000257378
7 *279:6 0.00113454
8 *3348:C1 *280:10 2.88357e-05
9 *3348:C1 *296:18 0.000272876
10 *3364:C1 *561:13 2.50751e-05
11 *3369:C1 *3942:CLK 6.47357e-05
12 *3373:C *3359:C 2.85623e-05
13 *3373:C *3360:A2 1.08758e-05
14 *3373:C *3376:A1 5.83121e-06
15 *3373:C *281:10 1.0397e-05
16 *3373:C *290:18 4.66108e-05
17 *3373:C *561:13 7.94942e-05
18 *279:6 *709:71 3.97205e-05
19 *3344:A *279:6 8.46818e-05
20 *3344:C *279:6 0.000136014
21 *3347:A *279:6 4.77807e-05
22 *3348:B1 *3369:C1 2.57991e-05
23 *3350:A *279:6 4.89395e-05
24 *3364:A2 *3348:C1 8.23329e-05
25 *3369:B1 *3369:C1 3.89366e-05
26 *3373:B *3364:C1 2.98644e-05
27 *3373:B *3373:C 8.27307e-05
28 *176:14 *3364:C1 6.54361e-06
29 *176:14 *3373:C 5.36975e-06
30 *276:6 *3348:C1 1.91597e-05
31 *276:6 *3364:C1 3.63576e-05
32 *276:6 *279:6 0.00049269
33 *276:10 *3348:C1 0.000153288
34 *276:10 *3364:C1 0.000195445
35 *276:16 *3348:C1 6.3145e-06
*RES
1 *3347:Y *279:6 10.33 
2 *279:6 *279:8 2 
3 *279:8 *3364:C1 6.39 
4 *279:8 *3373:C 6.3 
5 *279:6 *3348:C1 10.36 
6 *3348:C1 *3369:C1 8.58 
*END

*D_NET *280 0.00425359
*CONN
*I *3371:B I *D sky130_fd_sc_hd__nand4_2
*I *3361:A2 I *D sky130_fd_sc_hd__a32o_2
*I *3362:C I *D sky130_fd_sc_hd__nand3_2
*I *3366:B1 I *D sky130_fd_sc_hd__a2bb2oi_2
*I *3348:Y O *D sky130_fd_sc_hd__o211ai_2
*CAP
1 *3371:B 2.75226e-05
2 *3361:A2 0
3 *3362:C 0.000100772
4 *3366:B1 0.00015601
5 *3348:Y 0.000344384
6 *280:29 0.000260768
7 *280:21 0.000248097
8 *280:10 0.000560973
9 *3362:C *3361:A1 1.46828e-05
10 *3362:C *3361:A3 4.82863e-05
11 *3362:C *3367:A2 1.01661e-05
12 *3362:C *3367:B1_N 0.000182349
13 *3362:C *4022:A 0.000124895
14 *3362:C *297:12 6.14776e-05
15 *3362:C *688:14 0.000197269
16 *3366:B1 *3366:B2 0.00016063
17 *3366:B1 *565:10 6.1357e-05
18 *3371:B *3372:C1 1.83756e-05
19 *280:10 *3942:CLK 0.000156911
20 *280:10 *292:10 0.00027835
21 *280:10 *565:70 0.000268151
22 *280:10 *565:72 9.24825e-05
23 *280:10 *565:74 0.000158845
24 *280:10 *688:14 2.42236e-05
25 *280:21 *292:10 0.000101317
26 *280:21 *688:14 9.32213e-05
27 *280:29 *3361:A3 3.57349e-05
28 *280:29 *3361:B1 6.48692e-05
29 *280:29 *292:21 6.65804e-05
30 *280:29 *688:14 0.000306053
31 *3348:C1 *280:10 2.88357e-05
*RES
1 *3348:Y *280:10 12.66 
2 *280:10 *3366:B1 6.465 
3 *280:10 *280:21 2.145 
4 *280:21 *280:29 6.08 
5 *280:29 *3362:C 9.575 
6 *280:29 *3361:A2 1.6 
7 *280:21 *3371:B 4.05 
*END

*D_NET *281 0.00467359
*CONN
*I *3374:B I *D sky130_fd_sc_hd__and3_2
*I *3386:A1 I *D sky130_fd_sc_hd__a21o_2
*I *3352:A I *D sky130_fd_sc_hd__nand3_2
*I *3370:B I *D sky130_fd_sc_hd__and3_2
*I *3349:Y O *D sky130_fd_sc_hd__nand3_2
*CAP
1 *3374:B 0.000119148
2 *3386:A1 0.000130821
3 *3352:A 0.000147606
4 *3370:B 3.54892e-05
5 *3349:Y 0.000302185
6 *281:38 0.000281839
7 *281:14 0.000442797
8 *281:10 0.000593757
9 *3352:A *3352:B 8.58227e-05
10 *3352:A *3359:A 9.09788e-06
11 *3352:A *296:18 0
12 *3370:B *304:22 4.75959e-05
13 *3374:B *3374:A 0.000118527
14 *3374:B *3374:C 4.5783e-05
15 *3374:B *3376:A1 4.92206e-05
16 *3374:B *3376:A2 4.43871e-06
17 *3374:B *3948:A 2.50318e-07
18 *3374:B *561:15 2.75145e-05
19 *3386:A1 *3386:A2 4.99619e-05
20 *3386:A1 *3386:B1 7.73858e-05
21 *3386:A1 *733:37 4.66108e-05
22 *281:10 *3359:C 0.000179579
23 *281:10 *3360:A2 4.77807e-05
24 *281:10 *3376:A1 6.54778e-05
25 *281:10 *282:10 0.000345002
26 *281:10 *290:18 0.000552744
27 *281:14 *282:14 8.40213e-05
28 *281:14 *282:31 1.46828e-05
29 *281:14 *304:22 0.000269916
30 *281:38 *3374:A 2.92496e-05
31 *281:38 *3376:A1 3.50033e-05
32 *3373:C *281:10 1.0397e-05
33 *176:14 *281:10 7.3553e-05
34 *176:27 *281:10 0.000260712
35 *176:27 *281:38 8.5242e-05
36 *178:27 *3352:A 4.37983e-06
*RES
1 *3349:Y *281:10 13.155 
2 *281:10 *281:14 5.555 
3 *281:14 *3370:B 2.05 
4 *281:14 *3352:A 7.79 
5 *281:10 *281:38 1.125 
6 *281:38 *3386:A1 5.775 
7 *281:38 *3374:B 6.45 
*END

*D_NET *282 0.00513459
*CONN
*I *3386:A2 I *D sky130_fd_sc_hd__a21o_2
*I *3352:B I *D sky130_fd_sc_hd__nand3_2
*I *3370:C I *D sky130_fd_sc_hd__and3_2
*I *3374:C I *D sky130_fd_sc_hd__and3_2
*I *3350:Y O *D sky130_fd_sc_hd__nand3_2
*CAP
1 *3386:A2 6.24048e-05
2 *3352:B 0.000159779
3 *3370:C 5.71875e-05
4 *3374:C 0.000135997
5 *3350:Y 0.000653954
6 *282:31 0.000281819
7 *282:14 0.000360715
8 *282:10 0.000876224
9 *3352:B *3352:C 9.35768e-05
10 *3352:B *3372:C1 0
11 *3352:B *296:18 0
12 *3370:C *3372:C1 0
13 *3370:C *304:22 8.52845e-05
14 *3370:C *733:37 8.41307e-05
15 *3374:C *3948:A 1.36353e-05
16 *3374:C *304:22 8.30853e-06
17 *3374:C *561:15 4.7494e-06
18 *3386:A2 *3386:B1 8.65905e-05
19 *3386:A2 *561:13 1.65192e-05
20 *282:10 *290:18 0.000283089
21 *282:10 *304:22 0
22 *282:10 *561:13 0.000103417
23 *282:14 *3386:B1 0.00023468
24 *282:14 *733:37 5.30022e-05
25 *282:31 *3386:B1 4.00541e-06
26 *282:31 *304:22 0.000223305
27 *282:31 *733:37 0.000271694
28 *3227:A *3370:C 5.18317e-06
29 *3352:A *3352:B 8.58227e-05
30 *3374:B *3374:C 4.5783e-05
31 *3386:A1 *3386:A2 4.99619e-05
32 *176:27 *3374:C 7.06865e-05
33 *178:6 *3352:B 0.000158539
34 *178:27 *3352:B 2.84864e-05
35 *181:23 *282:10 9.23578e-05
36 *281:10 *282:10 0.000345002
37 *281:14 *282:14 8.40213e-05
38 *281:14 *282:31 1.46828e-05
*RES
1 *3350:Y *282:10 14.01 
2 *282:10 *282:14 5.21 
3 *282:14 *3374:C 7.94 
4 *282:14 *282:31 2.88 
5 *282:31 *3370:C 7.01 
6 *282:31 *3352:B 9.335 
7 *282:10 *3386:A2 5.01 
*END

*D_NET *283 0.00161793
*CONN
*I *3352:C I *D sky130_fd_sc_hd__nand3_2
*I *3351:Y O *D sky130_fd_sc_hd__nor2_2
*CAP
1 *3352:C 0.00040956
2 *3351:Y 0.00040956
3 *3352:C *3359:A 0.000134878
4 *3352:C *284:10 2.88357e-05
5 *3352:B *3352:C 9.35768e-05
6 *178:6 *3352:C 2.59156e-05
7 *178:27 *3352:C 0.00042658
8 *271:21 *3352:C 8.90199e-05
*RES
1 *3351:Y *3352:C 15.735 
*END

*D_NET *284 0.00411989
*CONN
*I *3362:A I *D sky130_fd_sc_hd__nand3_2
*I *3361:A3 I *D sky130_fd_sc_hd__a32o_2
*I *3371:C I *D sky130_fd_sc_hd__nand4_2
*I *3365:A I *D sky130_fd_sc_hd__nand2_2
*I *3366:B2 I *D sky130_fd_sc_hd__a2bb2oi_2
*I *3352:Y O *D sky130_fd_sc_hd__nand3_2
*CAP
1 *3362:A 0.000190668
2 *3361:A3 2.01995e-05
3 *3371:C 0
4 *3365:A 0.000163371
5 *3366:B2 0.000108846
6 *3352:Y 0.000375243
7 *284:43 0.000266622
8 *284:34 6.74222e-05
9 *284:21 0.000226026
10 *284:10 0.000535075
11 *3361:A3 *3361:A1 8.40213e-05
12 *3362:A *3362:B 0
13 *3362:A *3367:A1 8.53113e-06
14 *3362:A *3368:A1 0
15 *3362:A *3378:A1 6.20248e-05
16 *3362:A *3378:A2 1.91597e-05
17 *3362:A *3891:CLK 5.82123e-05
18 *3362:A *291:45 0
19 *3362:A *294:10 9.188e-05
20 *3362:A *565:10 0.000162486
21 *3362:A *688:14 2.59981e-05
22 *3365:A *3371:D 2.15986e-05
23 *3365:A *731:28 2.23901e-05
24 *3366:B2 *565:10 4.66108e-05
25 *284:10 *3229:B 3.21146e-05
26 *284:10 *3372:A1 0.000178886
27 *284:10 *565:10 2.92496e-05
28 *284:10 *687:12 0
29 *284:10 *688:14 7.89034e-05
30 *284:21 *565:10 0.000152127
31 *284:21 *688:14 8.78813e-05
32 *284:34 *565:10 4.54719e-05
33 *284:34 *688:14 3.05373e-05
34 *284:43 *565:10 0.000152814
35 *284:43 *688:14 8.97486e-05
36 *3352:C *284:10 2.88357e-05
37 *3362:C *3361:A3 4.82863e-05
38 *3366:B1 *3366:B2 0.00016063
39 *178:6 *284:10 0.000412286
40 *280:29 *3361:A3 3.57349e-05
*RES
1 *3352:Y *284:10 11.43 
2 *284:10 *3366:B2 5.775 
3 *284:10 *284:21 1.89 
4 *284:21 *3365:A 6.045 
5 *284:21 *284:34 0.615 
6 *284:34 *3371:C 3.6 
7 *284:34 *284:43 1.89 
8 *284:43 *3361:A3 4.395 
9 *284:43 *3362:A 7.965 
*END

*D_NET *285 0.000351547
*CONN
*I *3355:C I *D sky130_fd_sc_hd__nand4_2
*I *3353:X O *D sky130_fd_sc_hd__or2_2
*CAP
1 *3355:C 0.00010475
2 *3353:X 0.00010475
3 *3355:C *566:10 0.000139352
4 *274:14 *3355:C 2.69443e-06
5 *275:10 *3355:C 0
*RES
1 *3353:X *3355:C 9.285 
*END

*D_NET *286 0.000214214
*CONN
*I *3355:D I *D sky130_fd_sc_hd__nand4_2
*I *3354:Y O *D sky130_fd_sc_hd__nand2_2
*CAP
1 *3355:D 8.01837e-05
2 *3354:Y 8.01837e-05
3 *3355:D *566:10 5.38465e-05
4 *181:23 *3355:D 0
*RES
1 *3354:Y *3355:D 8.835 
*END

*D_NET *287 0.00216643
*CONN
*I *3359:B I *D sky130_fd_sc_hd__nand3_2
*I *3360:A1 I *D sky130_fd_sc_hd__a21o_4
*I *3355:Y O *D sky130_fd_sc_hd__nand4_2
*CAP
1 *3359:B 0.000178529
2 *3360:A1 4.58778e-05
3 *3355:Y 0.000526806
4 *287:10 0.000751212
5 *3359:B *3359:C 4.77719e-05
6 *3360:A1 *3360:A2 4.77719e-05
7 *3384:A *3359:B 6.60042e-05
8 *176:14 *3359:B 2.98644e-05
9 *176:14 *287:10 0.000367201
10 *176:27 *3359:B 0.000105393
*RES
1 *3355:Y *287:10 12.63 
2 *287:10 *3360:A1 4.395 
3 *287:10 *3359:B 7.08 
*END

*D_NET *288 0.000346947
*CONN
*I *3358:A1 I *D sky130_fd_sc_hd__o211ai_2
*I *3356:Y O *D sky130_fd_sc_hd__nor2_2
*CAP
1 *3358:A1 0.000130249
2 *3356:Y 0.000130249
3 *3358:A1 *3356:B 8.64488e-05
*RES
1 *3356:Y *3358:A1 9.12 
*END

*D_NET *289 0.00018506
*CONN
*I *3358:A2 I *D sky130_fd_sc_hd__o211ai_2
*I *3357:X O *D sky130_fd_sc_hd__and2_2
*CAP
1 *3358:A2 7.22738e-05
2 *3357:X 7.22738e-05
3 *277:10 *3358:A2 4.05127e-05
*RES
1 *3357:X *3358:A2 8.58 
*END

*D_NET *290 0.00426901
*CONN
*I *3359:C I *D sky130_fd_sc_hd__nand3_2
*I *3360:A2 I *D sky130_fd_sc_hd__a21o_4
*I *3358:Y O *D sky130_fd_sc_hd__o211ai_2
*CAP
1 *3359:C 0.000132921
2 *3360:A2 9.12496e-05
3 *3358:Y 0.000557974
4 *290:18 0.000782145
5 *3359:C *3376:A1 0.000114518
6 *3359:C *561:13 1.37188e-05
7 *290:18 *3376:A1 1.42674e-05
8 *3349:A *290:18 4.77769e-05
9 *3350:C *290:18 4.22944e-05
10 *3359:B *3359:C 4.77719e-05
11 *3360:A1 *3360:A2 4.77719e-05
12 *3373:C *3359:C 2.85623e-05
13 *3373:C *3360:A2 1.08758e-05
14 *3373:C *290:18 4.66108e-05
15 *3384:A *3359:C 0.000156764
16 *3385:B *290:18 0.000196077
17 *3385:C *290:18 0.000476526
18 *181:23 *290:18 0.000237277
19 *277:47 *290:18 0.000112408
20 *278:32 *290:18 4.83032e-05
21 *281:10 *3359:C 0.000179579
22 *281:10 *3360:A2 4.77807e-05
23 *281:10 *290:18 0.000552744
24 *282:10 *290:18 0.000283089
*RES
1 *3358:Y *290:18 20.51 
2 *290:18 *3360:A2 3.085 
3 *290:18 *3359:C 9.23 
*END

*D_NET *291 0.00536053
*CONN
*I *3363:C I *D sky130_fd_sc_hd__nand3b_2
*I *3379:A1 I *D sky130_fd_sc_hd__a21o_2
*I *3378:B1 I *D sky130_fd_sc_hd__o211ai_2
*I *3375:A I *D sky130_fd_sc_hd__nand2_2
*I *3361:B1 I *D sky130_fd_sc_hd__a32o_2
*I *3372:B1 I *D sky130_fd_sc_hd__o211ai_2
*I *3359:Y O *D sky130_fd_sc_hd__nand3_2
*CAP
1 *3363:C 2.03919e-05
2 *3379:A1 0.00020695
3 *3378:B1 3.20785e-05
4 *3375:A 0.000139949
5 *3361:B1 0.000143403
6 *3372:B1 0
7 *3359:Y 0.000297632
8 *291:60 0.000322804
9 *291:45 0.000194035
10 *291:21 0.000283352
11 *291:19 0.000185641
12 *291:10 0.000416778
13 *3361:B1 *3361:A1 4.00541e-06
14 *3361:B1 *3361:B2 6.0078e-05
15 *3361:B1 *292:32 1.91597e-05
16 *3363:C *3380:B 2.03321e-05
17 *3363:C *294:23 5.16418e-05
18 *3375:A *3376:B1 9.04187e-05
19 *3375:A *292:32 4.66826e-05
20 *3378:B1 *3380:B 5.83121e-06
21 *3378:B1 *294:10 1.19928e-05
22 *3378:B1 *296:18 6.51782e-05
23 *3379:A1 *3379:A2 0.000308586
24 *291:10 *292:10 0.000139719
25 *291:10 *296:18 0.000138423
26 *291:19 *292:10 0.000352761
27 *291:19 *292:21 0.000141599
28 *291:19 *296:18 0.00049436
29 *291:45 *3368:A1 0.000116158
30 *291:45 *292:21 4.38051e-05
31 *291:45 *292:49 1.07797e-05
32 *291:45 *296:18 0.000183745
33 *291:60 *3375:B 7.5416e-05
34 *291:60 *3380:B 2.75229e-05
35 *291:60 *292:49 0.000139245
36 *291:60 *294:10 2.54431e-05
37 *291:60 *294:23 6.21553e-05
38 *291:60 *296:18 3.57349e-05
39 *3362:A *291:45 0
40 *178:6 *291:10 0.000381874
41 *280:29 *3361:B1 6.48692e-05
*RES
1 *3359:Y *291:10 8.79 
2 *291:10 *3372:B1 3.6 
3 *291:10 *291:19 5.715 
4 *291:19 *291:21 2 
5 *291:21 *3361:B1 4.0675 
6 *291:21 *3375:A 4.135 
7 *291:19 *291:45 4.4 
8 *291:45 *3378:B1 2.41 
9 *291:45 *291:60 4.775 
10 *291:60 *3379:A1 6.465 
11 *291:60 *3363:C 4.215 
*END

*D_NET *292 0.00494643
*CONN
*I *3376:B1 I *D sky130_fd_sc_hd__o211ai_2
*I *3379:A2 I *D sky130_fd_sc_hd__a21o_2
*I *3363:B I *D sky130_fd_sc_hd__nand3b_2
*I *3378:C1 I *D sky130_fd_sc_hd__o211ai_2
*I *3361:B2 I *D sky130_fd_sc_hd__a32o_2
*I *3371:A I *D sky130_fd_sc_hd__nand4_2
*I *3360:X O *D sky130_fd_sc_hd__a21o_4
*CAP
1 *3376:B1 0.000231188
2 *3379:A2 0.000109496
3 *3363:B 5.25104e-05
4 *3378:C1 0
5 *3361:B2 5.79164e-05
6 *3371:A 0
7 *3360:X 0.00035149
8 *292:49 0.000238293
9 *292:36 0.000117532
10 *292:32 0.000343036
11 *292:21 0.000189743
12 *292:10 0.000412714
13 *3376:B1 *3376:C1 0.000122184
14 *3379:A2 *3379:B1 0.000197826
15 *3379:A2 *3383:B1 5.06989e-05
16 *292:10 *296:18 0.000104152
17 *292:10 *732:27 0.000272272
18 *292:36 *3375:B 7.89767e-05
19 *292:36 *296:18 0.00013994
20 *292:49 *3368:A1 1.52862e-05
21 *292:49 *3375:B 1.26548e-05
22 *292:49 *3380:B 4.94404e-05
23 *3361:B1 *3361:B2 6.0078e-05
24 *3361:B1 *292:32 1.91597e-05
25 *3375:A *3376:B1 9.04187e-05
26 *3375:A *292:32 4.66826e-05
27 *3379:A1 *3379:A2 0.000308586
28 *280:10 *292:10 0.00027835
29 *280:21 *292:10 0.000101317
30 *280:29 *292:21 6.65804e-05
31 *291:10 *292:10 0.000139719
32 *291:19 *292:10 0.000352761
33 *291:19 *292:21 0.000141599
34 *291:45 *292:21 4.38051e-05
35 *291:45 *292:49 1.07797e-05
36 *291:60 *292:49 0.000139245
*RES
1 *3360:X *292:10 14.13 
2 *292:10 *3371:A 3.6 
3 *292:10 *292:21 4.145 
4 *292:21 *3361:B2 2.755 
5 *292:21 *292:32 1.14 
6 *292:32 *292:36 3.635 
7 *292:36 *3378:C1 3.6 
8 *292:36 *292:49 4.25 
9 *292:49 *3363:B 2.41 
10 *292:49 *3379:A2 5.155 
11 *292:32 *3376:B1 5.86 
*END

*D_NET *293 0.0012867
*CONN
*I *3368:A1 I *D sky130_fd_sc_hd__a32oi_2
*I *3361:X O *D sky130_fd_sc_hd__a32o_2
*CAP
1 *3368:A1 0.000312321
2 *3361:X 0.000312321
3 *3368:A1 *3367:A1 0
4 *3368:A1 *3368:A2 0.000112893
5 *3368:A1 *3380:B 0.000337502
6 *3368:A1 *3383:A2 8.02182e-05
7 *3362:A *3368:A1 0
8 *291:45 *3368:A1 0.000116158
9 *292:49 *3368:A1 1.52862e-05
*RES
1 *3361:X *3368:A1 14.7 
*END

*D_NET *294 0.0021531
*CONN
*I *3379:B1 I *D sky130_fd_sc_hd__a21o_2
*I *3363:A_N I *D sky130_fd_sc_hd__nand3b_2
*I *3375:B I *D sky130_fd_sc_hd__nand2_2
*I *3362:Y O *D sky130_fd_sc_hd__nand3_2
*CAP
1 *3379:B1 5.93729e-05
2 *3363:A_N 0
3 *3375:B 0.000127194
4 *3362:Y 0.000390644
5 *294:23 0.000129397
6 *294:10 0.000587862
7 *3375:B *3941:RESET_B 0
8 *3375:B *296:18 9.29751e-06
9 *3379:B1 *3380:C 5.06989e-05
10 *294:10 *3362:B 4.00541e-06
11 *294:10 *3378:A1 1.60203e-05
12 *294:10 *3378:A2 1.47256e-05
13 *294:10 *3380:B 4.82919e-05
14 *294:10 *296:18 0.000107599
15 *3362:A *294:10 9.188e-05
16 *3363:C *294:23 5.16418e-05
17 *3378:B1 *294:10 1.19928e-05
18 *3379:A2 *3379:B1 0.000197826
19 *291:60 *3375:B 7.5416e-05
20 *291:60 *294:10 2.54431e-05
21 *291:60 *294:23 6.21553e-05
22 *292:36 *3375:B 7.89767e-05
23 *292:49 *3375:B 1.26548e-05
*RES
1 *3362:Y *294:10 8.55 
2 *294:10 *3375:B 6.51 
3 *294:10 *294:23 3.38 
4 *294:23 *3363:A_N 1.6 
5 *294:23 *3379:B1 3.43 
*END

*D_NET *295 0.000748072
*CONN
*I *3368:A2 I *D sky130_fd_sc_hd__a32oi_2
*I *3363:Y O *D sky130_fd_sc_hd__nand3b_2
*CAP
1 *3368:A2 0.000166185
2 *3363:Y 0.000166185
3 *3368:A2 *3367:A1 0.00030281
4 *3368:A1 *3368:A2 0.000112893
*RES
1 *3363:Y *3368:A2 11.325 
*END

*D_NET *296 0.00519469
*CONN
*I *3367:A1 I *D sky130_fd_sc_hd__o21ba_2
*I *3378:A1 I *D sky130_fd_sc_hd__o211ai_2
*I *3364:X O *D sky130_fd_sc_hd__o211a_2
*CAP
1 *3367:A1 0.000293054
2 *3378:A1 2.28251e-05
3 *3364:X 0.000725266
4 *296:18 0.00104114
5 *3367:A1 *3368:A3 0.000153058
6 *3367:A1 *3891:CLK 7.75894e-05
7 *3367:A1 *299:14 8.83758e-05
8 *3367:A1 *554:10 0.000135697
9 *3378:A1 *3378:A2 9.61303e-05
10 *296:18 *3372:C1 0.000335149
11 *296:18 *3378:A2 5.57182e-05
12 *296:18 *3941:RESET_B 0
13 *3348:C1 *296:18 0.000272876
14 *3352:A *296:18 0
15 *3352:B *296:18 0
16 *3362:A *3367:A1 8.53113e-06
17 *3362:A *3378:A1 6.20248e-05
18 *3364:A2 *296:18 0.000198994
19 *3368:A1 *3367:A1 0
20 *3368:A2 *3367:A1 0.00030281
21 *3375:B *296:18 9.29751e-06
22 *3378:B1 *296:18 6.51782e-05
23 *272:23 *296:18 2.01934e-05
24 *276:16 *296:18 1.08036e-05
25 *291:10 *296:18 0.000138423
26 *291:19 *296:18 0.00049436
27 *291:45 *296:18 0.000183745
28 *291:60 *296:18 3.57349e-05
29 *292:10 *296:18 0.000104152
30 *292:36 *296:18 0.00013994
31 *294:10 *3378:A1 1.60203e-05
32 *294:10 *296:18 0.000107599
*RES
1 *3364:X *296:18 24.89 
2 *296:18 *3378:A1 2.755 
3 *296:18 *3367:A1 13.055 
*END

*D_NET *297 0.002331
*CONN
*I *3367:A2 I *D sky130_fd_sc_hd__o21ba_2
*I *3378:A2 I *D sky130_fd_sc_hd__o211ai_2
*I *3365:Y O *D sky130_fd_sc_hd__nand2_2
*CAP
1 *3367:A2 0.000273206
2 *3378:A2 0.000119203
3 *3365:Y 0.000187337
4 *297:12 0.000579746
5 *3367:A2 *3367:B1_N 0
6 *3367:A2 *3889:RESET_B 3.14077e-05
7 *3367:A2 *3890:D 0.000283165
8 *3367:A2 *3891:CLK 0.000139843
9 *3367:A2 *299:14 4.77769e-05
10 *3378:A2 *565:18 4.66108e-05
11 *297:12 *3361:A1 0.00011686
12 *297:12 *3367:B1_N 0
13 *297:12 *3891:CLK 5.38986e-06
14 *297:12 *565:10 0.000183063
15 *297:12 *565:18 1.88904e-05
16 *297:12 *687:12 4.11224e-05
17 *3362:A *3378:A2 1.91597e-05
18 *3362:C *3367:A2 1.01661e-05
19 *3362:C *297:12 6.14776e-05
20 *3378:A1 *3378:A2 9.61303e-05
21 *294:10 *3378:A2 1.47256e-05
22 *296:18 *3378:A2 5.57182e-05
*RES
1 *3365:Y *297:12 8.595 
2 *297:12 *3378:A2 6.135 
3 *297:12 *3367:A2 10.275 
*END

*D_NET *298 0.00203734
*CONN
*I *3367:B1_N I *D sky130_fd_sc_hd__o21ba_2
*I *3366:Y O *D sky130_fd_sc_hd__a2bb2oi_2
*CAP
1 *3367:B1_N 0.000591283
2 *3366:Y 0.000591283
3 *3367:B1_N *3889:RESET_B 9.37846e-05
4 *3367:B1_N *299:14 1.08758e-05
5 *3367:B1_N *687:12 0.000163201
6 *3367:B1_N *715:12 0.000404563
7 *3362:C *3367:B1_N 0.000182349
8 *3367:A2 *3367:B1_N 0
9 *297:12 *3367:B1_N 0
*RES
1 *3366:Y *3367:B1_N 20.28 
*END

*D_NET *299 0.00238358
*CONN
*I *3368:B1 I *D sky130_fd_sc_hd__a32oi_2
*I *3383:A2 I *D sky130_fd_sc_hd__o2111a_2
*I *3367:X O *D sky130_fd_sc_hd__o21ba_2
*CAP
1 *3368:B1 0
2 *3383:A2 0.000348505
3 *3367:X 0.000277362
4 *299:14 0.000625866
5 *3383:A2 *3368:B2 5.80021e-05
6 *3383:A2 *3380:B 7.2338e-05
7 *3383:A2 *3380:C 0
8 *3383:A2 *3891:CLK 0.000310512
9 *299:14 *3889:RESET_B 0.000436834
10 *299:14 *300:6 2.69153e-05
11 *3367:A1 *299:14 8.83758e-05
12 *3367:A2 *299:14 4.77769e-05
13 *3367:B1_N *299:14 1.08758e-05
14 *3368:A1 *3383:A2 8.02182e-05
*RES
1 *3367:X *299:14 8.32 
2 *299:14 *3383:A2 11.12 
3 *299:14 *3368:B1 1.6 
*END

*D_NET *300 0.00170758
*CONN
*I *3382:A I *D sky130_fd_sc_hd__nor2_2
*I *3383:D1 I *D sky130_fd_sc_hd__o2111a_2
*I *3368:Y O *D sky130_fd_sc_hd__a32oi_2
*CAP
1 *3382:A 0.000129324
2 *3383:D1 0.00013253
3 *3368:Y 0.000151655
4 *300:6 0.00041351
5 *3382:A *3889:RESET_B 0.000298278
6 *3383:D1 *3381:B 3.75126e-05
7 *3383:D1 *3891:CLK 5.06989e-05
8 *3383:D1 *312:6 4.77757e-05
9 *300:6 *3889:RESET_B 0.000419379
10 *299:14 *300:6 2.69153e-05
*RES
1 *3368:Y *300:6 5.5 
2 *300:6 *3383:D1 8.03 
3 *300:6 *3382:A 4.825 
*END

*D_NET *301 0.00195563
*CONN
*I *3372:A1 I *D sky130_fd_sc_hd__o211ai_2
*I *3369:X O *D sky130_fd_sc_hd__o2111a_2
*CAP
1 *3372:A1 0.000417012
2 *3369:X 0.000417012
3 *3372:A1 *3942:CLK 0.000208353
4 *3372:A1 *565:74 3.18465e-05
5 *3372:A1 *688:14 0.000308292
6 *3372:A1 *729:20 0.00024886
7 *3369:A1 *3372:A1 5.34461e-05
8 *3369:B1 *3372:A1 4.41432e-05
9 *3369:D1 *3372:A1 4.77769e-05
10 *284:10 *3372:A1 0.000178886
*RES
1 *3369:X *3372:A1 18.495 
*END

*D_NET *302 0.00060736
*CONN
*I *3372:A2 I *D sky130_fd_sc_hd__o211ai_2
*I *3370:X O *D sky130_fd_sc_hd__and3_2
*CAP
1 *3372:A2 0.000149385
2 *3370:X 0.000149385
3 *3372:A2 *3941:D 0.000202848
4 *3372:A2 *304:22 6.79541e-05
5 *3372:A2 *733:37 3.77879e-05
*RES
1 *3370:X *3372:A2 6.89 
*END

*D_NET *303 0.00123766
*CONN
*I *3372:C1 I *D sky130_fd_sc_hd__o211ai_2
*I *3371:Y O *D sky130_fd_sc_hd__nand4_2
*CAP
1 *3372:C1 0.000367197
2 *3371:Y 0.000367197
3 *3372:C1 *733:12 0.000149741
4 *3352:B *3372:C1 0
5 *3370:C *3372:C1 0
6 *3371:B *3372:C1 1.83756e-05
7 *296:18 *3372:C1 0.000335149
*RES
1 *3371:Y *3372:C1 13.65 
*END

*D_NET *304 0.00579601
*CONN
*I *3393:A1 I *D sky130_fd_sc_hd__a21bo_2
*I *3377:B I *D sky130_fd_sc_hd__nand3b_2
*I *3387:B2 I *D sky130_fd_sc_hd__a2bb2oi_2
*I *3391:C1 I *D sky130_fd_sc_hd__o211a_2
*I *3372:Y O *D sky130_fd_sc_hd__o211ai_2
*CAP
1 *3393:A1 5.24349e-05
2 *3377:B 0.000174574
3 *3387:B2 0.000333855
4 *3391:C1 0
5 *3372:Y 0.000816766
6 *304:44 0.000707412
7 *304:31 0.000879757
8 *304:22 0.000882265
9 *3377:B *3377:A_N 9.63179e-05
10 *3377:B *3383:B1 0
11 *3377:B *3393:A2 3.91768e-05
12 *3387:B2 *3387:B1 0.000292445
13 *3387:B2 *561:35 2.8185e-05
14 *3393:A1 *3377:A_N 8.65961e-05
15 *3393:A1 *3393:A2 4.82919e-05
16 *3393:A1 *4054:A 1.7396e-05
17 *3393:A1 *308:12 0
18 *304:22 *3387:B1 5.53249e-06
19 *304:22 *3391:A2 2.63122e-05
20 *304:22 *566:10 7.15381e-05
21 *304:22 *733:37 4.58296e-05
22 *304:31 *3387:B1 6.28765e-05
23 *304:31 *561:13 0
24 *304:44 *3376:A1 0
25 *304:44 *3387:B1 1.71013e-05
26 *304:44 *3399:A 0
27 *304:44 *3399:B 0
28 *304:44 *3401:B1 0
29 *304:44 *4054:A 4.49498e-05
30 *304:44 *308:12 0
31 *304:44 *323:12 0
32 *304:44 *561:13 0
33 *304:44 *561:35 0
34 *3370:B *304:22 4.75959e-05
35 *3370:C *304:22 8.52845e-05
36 *3372:A2 *304:22 6.79541e-05
37 *3374:C *304:22 8.30853e-06
38 *3384:A *304:22 0.000323575
39 *176:27 *304:22 4.04619e-05
40 *281:14 *304:22 0.000269916
41 *282:10 *304:22 0
42 *282:31 *304:22 0.000223305
*RES
1 *3372:Y *304:22 21.385 
2 *304:22 *3391:C1 3.6 
3 *304:22 *304:31 1.38 
4 *304:31 *3387:B2 8.115 
5 *304:31 *304:44 8.265 
6 *304:44 *3377:B 6.045 
7 *304:44 *3393:A1 5.01 
*END

*D_NET *305 0.00162407
*CONN
*I *3376:A1 I *D sky130_fd_sc_hd__o211ai_2
*I *3373:X O *D sky130_fd_sc_hd__and3_2
*CAP
1 *3376:A1 0.000459201
2 *3373:X 0.000459201
3 *3376:A1 *3374:A 0.000139245
4 *3376:A1 *3376:A2 0
5 *3376:A1 *308:12 1.83756e-05
6 *3376:A1 *561:13 0.000263729
7 *3359:C *3376:A1 0.000114518
8 *3373:C *3376:A1 5.83121e-06
9 *3374:B *3376:A1 4.92206e-05
10 *281:10 *3376:A1 6.54778e-05
11 *281:38 *3376:A1 3.50033e-05
12 *290:18 *3376:A1 1.42674e-05
13 *304:44 *3376:A1 0
*RES
1 *3373:X *3376:A1 17.385 
*END

*D_NET *306 0.000528694
*CONN
*I *3376:A2 I *D sky130_fd_sc_hd__o211ai_2
*I *3374:X O *D sky130_fd_sc_hd__and3_2
*CAP
1 *3376:A2 0.000247443
2 *3374:X 0.000247443
3 *3376:A2 *3948:A 2.937e-05
4 *3374:B *3376:A2 4.43871e-06
5 *3376:A1 *3376:A2 0
*RES
1 *3374:X *3376:A2 11.07 
*END

*D_NET *307 0.000230424
*CONN
*I *3376:C1 I *D sky130_fd_sc_hd__o211ai_2
*I *3375:Y O *D sky130_fd_sc_hd__nand2_2
*CAP
1 *3376:C1 5.41197e-05
2 *3375:Y 5.41197e-05
3 *3376:B1 *3376:C1 0.000122184
*RES
1 *3375:Y *3376:C1 4.34 
*END

*D_NET *308 0.0013629
*CONN
*I *3393:A2 I *D sky130_fd_sc_hd__a21bo_2
*I *3377:C I *D sky130_fd_sc_hd__nand3b_2
*I *3376:Y O *D sky130_fd_sc_hd__o211ai_2
*CAP
1 *3393:A2 0.000103286
2 *3377:C 0
3 *3376:Y 0.000500178
4 *308:12 0.000603464
5 *3393:A2 *3377:A_N 5.0128e-05
6 *3376:A1 *308:12 1.83756e-05
7 *3377:B *3393:A2 3.91768e-05
8 *3393:A1 *3393:A2 4.82919e-05
9 *3393:A1 *308:12 0
10 *304:44 *308:12 0
*RES
1 *3376:Y *308:12 12.83 
2 *308:12 *3377:C 1.6 
3 *308:12 *3393:A2 3.79 
*END

*D_NET *309 0.000966058
*CONN
*I *3383:B1 I *D sky130_fd_sc_hd__o2111a_2
*I *3381:A I *D sky130_fd_sc_hd__nand2_2
*I *3377:Y O *D sky130_fd_sc_hd__nand3b_2
*CAP
1 *3383:B1 0.00032081
2 *3381:A 0
3 *3377:Y 7.29631e-05
4 *309:6 0.000393774
5 *3383:B1 *3380:B 0
6 *3383:B1 *3380:C 0.000127812
7 *3377:B *3383:B1 0
8 *3379:A2 *3383:B1 5.06989e-05
*RES
1 *3377:Y *309:6 2.74 
2 *309:6 *3381:A 1.6 
3 *309:6 *3383:B1 11.06 
*END

*D_NET *310 0.00084403
*CONN
*I *3380:B I *D sky130_fd_sc_hd__nand3b_2
*I *3378:Y O *D sky130_fd_sc_hd__o211ai_2
*CAP
1 *3380:B 0.000141386
2 *3378:Y 0.000141386
3 *3380:B *3380:C 0
4 *3363:C *3380:B 2.03321e-05
5 *3368:A1 *3380:B 0.000337502
6 *3378:B1 *3380:B 5.83121e-06
7 *3383:A2 *3380:B 7.2338e-05
8 *3383:B1 *3380:B 0
9 *291:60 *3380:B 2.75229e-05
10 *292:49 *3380:B 4.94404e-05
11 *294:10 *3380:B 4.82919e-05
*RES
1 *3378:Y *3380:B 11.58 
*END

*D_NET *311 0.0014538
*CONN
*I *3380:C I *D sky130_fd_sc_hd__nand3b_2
*I *3379:X O *D sky130_fd_sc_hd__a21o_2
*CAP
1 *3380:C 0.00024447
2 *3379:X 0.00024447
3 *3380:C *3383:A1 0.000235364
4 *3380:C *3891:CLK 0.000455122
5 *3380:C *312:6 4.21518e-05
6 *3380:C *553:6 5.37119e-05
7 *3379:B1 *3380:C 5.06989e-05
8 *3380:B *3380:C 0
9 *3383:A2 *3380:C 0
10 *3383:B1 *3380:C 0.000127812
*RES
1 *3379:X *3380:C 14.235 
*END

*D_NET *312 0.00132008
*CONN
*I *3381:B I *D sky130_fd_sc_hd__nand2_2
*I *3383:C1 I *D sky130_fd_sc_hd__o2111a_2
*I *3380:Y O *D sky130_fd_sc_hd__nand3b_2
*CAP
1 *3381:B 0.000260859
2 *3383:C1 0
3 *3380:Y 0.000178958
4 *312:6 0.000439817
5 *3381:B *3891:CLK 4.35931e-05
6 *312:6 *3368:B2 4.89395e-05
7 *312:6 *3383:A1 0.000199002
8 *312:6 *3891:CLK 2.14725e-05
9 *3380:C *312:6 4.21518e-05
10 *3383:D1 *3381:B 3.75126e-05
11 *3383:D1 *312:6 4.77757e-05
*RES
1 *3380:Y *312:6 5.155 
2 *312:6 *3383:C1 1.6 
3 *312:6 *3381:B 9.74 
*END

*D_NET *313 0.000629236
*CONN
*I *3382:B I *D sky130_fd_sc_hd__nor2_2
*I *3381:Y O *D sky130_fd_sc_hd__nand2_2
*CAP
1 *3382:B 0.00027764
2 *3381:Y 0.00027764
3 *3382:B *3889:RESET_B 2.69217e-05
4 *3382:B *3891:D 4.70338e-05
*RES
1 *3381:Y *3382:B 11.58 
*END

*D_NET *314 0.0016957
*CONN
*I *3401:A1 I *D sky130_fd_sc_hd__o311a_4
*I *3382:Y O *D sky130_fd_sc_hd__nor2_2
*CAP
1 *3401:A1 0.000749234
2 *3382:Y 0.000749234
3 *3401:A1 *3394:A 0
4 *3401:A1 *3401:A2 0
5 *3401:A1 *3889:RESET_B 8.41384e-05
6 *3401:A1 *3891:RESET_B 0.000113097
7 *3401:A1 *4054:A 0
8 *3401:A1 *555:10 0
*RES
1 *3382:Y *3401:A1 18.885 
*END

*D_NET *315 0.0024842
*CONN
*I *3401:A2 I *D sky130_fd_sc_hd__o311a_4
*I *3383:X O *D sky130_fd_sc_hd__o2111a_2
*CAP
1 *3401:A2 0.000872191
2 *3383:X 0.000872191
3 *3401:A2 *3401:B1 0.000142669
4 *3401:A2 *3891:CLK 8.51879e-05
5 *3401:A2 *3891:D 4.10576e-05
6 *3401:A2 *3891:RESET_B 9.70252e-06
7 *3401:A2 *4054:A 0.000319612
8 *3401:A2 *555:10 0.000141592
9 *3401:A1 *3401:A2 0
*RES
1 *3383:X *3401:A2 20.25 
*END

*D_NET *316 0.000541667
*CONN
*I *3387:A1_N I *D sky130_fd_sc_hd__a2bb2oi_2
*I *3384:X O *D sky130_fd_sc_hd__and4_2
*CAP
1 *3387:A1_N 0.000245017
2 *3384:X 0.000245017
3 *3387:A1_N *3391:A1 4.89395e-05
4 *3387:A1_N *320:29 0
5 *3387:A1_N *327:29 0
6 *3390:B *3387:A1_N 2.69443e-06
*RES
1 *3384:X *3387:A1_N 11.07 
*END

*D_NET *317 0.00100841
*CONN
*I *3387:A2_N I *D sky130_fd_sc_hd__a2bb2oi_2
*I *3385:X O *D sky130_fd_sc_hd__and3_2
*CAP
1 *3387:A2_N 0.000350763
2 *3385:X 0.000350763
3 *3387:A2_N *320:29 0.000109839
4 *3387:A2_N *566:39 9.71067e-05
5 *3387:A2_N *566:48 3.09164e-05
6 *278:47 *3387:A2_N 6.90254e-05
*RES
1 *3385:X *3387:A2_N 13.8 
*END

*D_NET *318 0.00113084
*CONN
*I *3391:B1 I *D sky130_fd_sc_hd__o211a_2
*I *3387:B1 I *D sky130_fd_sc_hd__a2bb2oi_2
*I *3386:X O *D sky130_fd_sc_hd__a21o_2
*CAP
1 *3391:B1 0
2 *3387:B1 0.000173304
3 *3386:X 0.000130361
4 *318:8 0.000303666
5 *3387:B1 *3391:A2 9.50342e-06
6 *3387:B1 *561:35 0.000118166
7 *318:8 *3386:B1 0
8 *318:8 *3391:A1 3.48139e-06
9 *318:8 *566:10 1.4399e-05
10 *3387:B2 *3387:B1 0.000292445
11 *304:22 *3387:B1 5.53249e-06
12 *304:31 *3387:B1 6.28765e-05
13 *304:44 *3387:B1 1.71013e-05
*RES
1 *3386:X *318:8 3.445 
2 *318:8 *3387:B1 10.115 
3 *318:8 *3391:B1 1.6 
*END

*D_NET *319 0.00163023
*CONN
*I *3400:B I *D sky130_fd_sc_hd__or3_4
*I *3392:A1 I *D sky130_fd_sc_hd__o21ai_2
*I *3396:A2 I *D sky130_fd_sc_hd__o21bai_2
*I *3397:B I *D sky130_fd_sc_hd__nor2_2
*I *3387:Y O *D sky130_fd_sc_hd__a2bb2oi_2
*CAP
1 *3400:B 0
2 *3392:A1 4.62254e-05
3 *3396:A2 0
4 *3397:B 0.000158799
5 *3387:Y 0.000124174
6 *319:34 0.000183911
7 *319:14 0.000191594
8 *319:10 0.000294655
9 *3392:A1 *3392:B1 2.05056e-05
10 *3392:A1 *3394:A 5.30673e-05
11 *3392:A1 *3400:C 0.00012657
12 *3397:B *3397:A 8.40269e-05
13 *3397:B *3398:A 8.3762e-05
14 *319:10 *320:29 0
15 *319:10 *327:29 8.97486e-05
16 *319:14 *3398:A 0.0001249
17 *319:14 *3399:A 4.82919e-05
18 *319:34 *323:12 0
19 *319:34 *566:48 0
*RES
1 *3387:Y *319:10 5.94 
2 *319:10 *319:14 3.14 
3 *319:14 *3397:B 4.84 
4 *319:14 *3396:A2 1.6 
5 *319:10 *319:34 4.145 
6 *319:34 *3392:A1 3.085 
7 *319:34 *3400:B 1.6 
*END

*D_NET *320 0.00292399
*CONN
*I *3397:A I *D sky130_fd_sc_hd__nor2_2
*I *3396:A1 I *D sky130_fd_sc_hd__o21bai_2
*I *3391:A1 I *D sky130_fd_sc_hd__o211a_2
*I *3388:X O *D sky130_fd_sc_hd__and3_2
*CAP
1 *3397:A 2.01864e-05
2 *3396:A1 0
3 *3391:A1 0.000340122
4 *3388:X 5.71777e-05
5 *320:29 0.000285357
6 *320:6 0.00066247
7 *3391:A1 *3391:A2 0.000215078
8 *3391:A1 *323:12 0
9 *3391:A1 *327:29 0
10 *3391:A1 *566:10 1.31168e-05
11 *3397:A *3398:A 8.40269e-05
12 *320:29 *327:29 0
13 *320:29 *566:39 9.71067e-05
14 *320:29 *566:48 0.000219699
15 *3384:A *3391:A1 0.000311582
16 *3384:C *3391:A1 3.33763e-05
17 *3384:D *3391:A1 2.98944e-05
18 *3384:D *320:6 9.83921e-06
19 *3387:A1_N *3391:A1 4.89395e-05
20 *3387:A1_N *320:29 0
21 *3387:A2_N *320:29 0.000109839
22 *3388:A *3391:A1 1.79174e-05
23 *3388:B *320:6 8.46818e-05
24 *3390:B *3391:A1 0.000196073
25 *3397:B *3397:A 8.40269e-05
26 *318:8 *3391:A1 3.48139e-06
27 *319:10 *320:29 0
*RES
1 *3388:X *320:6 2.74 
2 *320:6 *3391:A1 13.6362 
3 *320:6 *320:29 9.97 
4 *320:29 *3396:A1 1.6 
5 *320:29 *3397:A 2.395 
*END

*D_NET *321 0.00206982
*CONN
*I *3390:C I *D sky130_fd_sc_hd__and3_2
*I *3389:Y O *D sky130_fd_sc_hd__nand2_2
*CAP
1 *3390:C 0.000639059
2 *3389:Y 0.000639059
3 *3350:C *3390:C 3.95874e-05
4 *3385:C *3390:C 4.77807e-05
5 *3389:A *3390:C 4.40028e-05
6 *3389:B *3390:C 0.000196071
7 *181:23 *3390:C 0.000380118
8 *278:34 *3390:C 8.41384e-05
*RES
1 *3389:Y *3390:C 16.92 
*END

*D_NET *322 0.000663061
*CONN
*I *3391:A2 I *D sky130_fd_sc_hd__o211a_2
*I *3390:X O *D sky130_fd_sc_hd__and3_2
*CAP
1 *3391:A2 0.000173333
2 *3390:X 0.000173333
3 *3391:A2 *323:12 0
4 *3391:A2 *561:35 5.53249e-06
5 *3391:A2 *566:10 3.78625e-05
6 *3384:A *3391:A2 2.21074e-05
7 *3387:B1 *3391:A2 9.50342e-06
8 *3391:A1 *3391:A2 0.000215078
9 *304:22 *3391:A2 2.63122e-05
*RES
1 *3390:X *3391:A2 10.32 
*END

*D_NET *323 0.00144608
*CONN
*I *3400:C I *D sky130_fd_sc_hd__or3_4
*I *3392:A2 I *D sky130_fd_sc_hd__o21ai_2
*I *3391:X O *D sky130_fd_sc_hd__o211a_2
*CAP
1 *3400:C 8.3742e-05
2 *3392:A2 0
3 *3391:X 0.000404768
4 *323:12 0.00048851
5 *3400:C *3392:B1 4.99619e-05
6 *323:12 *3399:A 0.000160665
7 *323:12 *3399:B 9.3062e-06
8 *323:12 *3949:A 3.42935e-05
9 *323:12 *327:29 0
10 *323:12 *561:35 0
11 *323:12 *566:10 8.8266e-05
12 *3391:A1 *323:12 0
13 *3391:A2 *323:12 0
14 *3392:A1 *3400:C 0.00012657
15 *304:44 *323:12 0
16 *319:34 *323:12 0
*RES
1 *3391:X *323:12 12.875 
2 *323:12 *3392:A2 1.6 
3 *323:12 *3400:C 3.43 
*END

*D_NET *324 0.000676446
*CONN
*I *3394:A I *D sky130_fd_sc_hd__nand2_2
*I *3392:Y O *D sky130_fd_sc_hd__o21ai_2
*CAP
1 *3394:A 0.000240056
2 *3392:Y 0.000240056
3 *3394:A *3401:A3 0.000143266
4 *3394:A *3401:B1 0
5 *3394:A *3401:C1 0
6 *3394:A *566:61 0
7 *3392:A1 *3394:A 5.30673e-05
8 *3401:A1 *3394:A 0
*RES
1 *3392:Y *3394:A 11.415 
*END

*D_NET *325 0.000208981
*CONN
*I *3394:B I *D sky130_fd_sc_hd__nand2_2
*I *3393:X O *D sky130_fd_sc_hd__a21bo_2
*CAP
1 *3394:B 0.00010449
2 *3393:X 0.00010449
*RES
1 *3393:X *3394:B 4.685 
*END

*D_NET *326 0.00034868
*CONN
*I *3401:A3 I *D sky130_fd_sc_hd__o311a_4
*I *3394:Y O *D sky130_fd_sc_hd__nand2_2
*CAP
1 *3401:A3 0.000102707
2 *3394:Y 0.000102707
3 *3401:A3 *3401:C1 0
4 *3401:A3 *566:61 0
5 *3394:A *3401:A3 0.000143266
*RES
1 *3394:Y *3401:A3 9.285 
*END

*D_NET *327 0.00513534
*CONN
*I *3396:B1_N I *D sky130_fd_sc_hd__o21bai_2
*I *3398:B I *D sky130_fd_sc_hd__nand2_2
*I *3407:B1 I *D sky130_fd_sc_hd__a21oi_2
*I *3395:X O *D sky130_fd_sc_hd__xor2_2
*CAP
1 *3396:B1_N 9.71884e-06
2 *3398:B 0
3 *3407:B1 0.000996377
4 *3395:X 2.29088e-05
5 *327:29 0.000800057
6 *327:6 0.00180962
7 *3396:B1_N *3398:A 4.82919e-05
8 *3396:B1_N *3399:A 4.82919e-05
9 *3407:B1 *3409:B1 0.000123637
10 *3407:B1 *3409:C1 9.46111e-06
11 *3407:B1 *3913:D 4.21991e-05
12 *3407:B1 *3938:D 3.19089e-05
13 *3407:B1 *561:59 0
14 *3407:B1 *709:38 0
15 *327:29 *709:58 0
16 *3234:B *3407:B1 0
17 *3261:B *3407:B1 0
18 *3350:A *327:29 6.83991e-05
19 *3387:A1_N *327:29 0
20 *3390:B *327:29 0.000107447
21 *3391:A1 *327:29 0
22 *15:30 *3407:B1 7.8306e-05
23 *15:30 *327:6 2.82103e-05
24 *180:42 *3407:B1 0
25 *180:42 *327:29 0.000820751
26 *319:10 *327:29 8.97486e-05
27 *320:29 *327:29 0
28 *323:12 *327:29 0
*RES
1 *3395:X *327:6 2.05 
2 *327:6 *3407:B1 19.475 
3 *327:6 *327:29 20.68 
4 *327:29 *3398:B 1.6 
5 *327:29 *3396:B1_N 2.05 
*END

*D_NET *328 0.00111419
*CONN
*I *3399:A I *D sky130_fd_sc_hd__nand2_2
*I *3396:Y O *D sky130_fd_sc_hd__o21bai_2
*CAP
1 *3399:A 0.000354449
2 *3396:Y 0.000354449
3 *3399:A *3398:A 5.93869e-05
4 *3399:A *3399:B 8.86565e-05
5 *3396:B1_N *3399:A 4.82919e-05
6 *304:44 *3399:A 0
7 *319:14 *3399:A 4.82919e-05
8 *323:12 *3399:A 0.000160665
*RES
1 *3396:Y *3399:A 13.8 
*END

*D_NET *329 0.000980566
*CONN
*I *3398:A I *D sky130_fd_sc_hd__nand2_2
*I *3397:Y O *D sky130_fd_sc_hd__nor2_2
*CAP
1 *3398:A 0.000290099
2 *3397:Y 0.000290099
3 *3396:B1_N *3398:A 4.82919e-05
4 *3397:A *3398:A 8.40269e-05
5 *3397:B *3398:A 8.3762e-05
6 *3399:A *3398:A 5.93869e-05
7 *319:14 *3398:A 0.0001249
*RES
1 *3397:Y *3398:A 8.51 
*END

*D_NET *330 0.000436593
*CONN
*I *3399:B I *D sky130_fd_sc_hd__nand2_2
*I *3398:Y O *D sky130_fd_sc_hd__nand2_2
*CAP
1 *3399:B 0.000169315
2 *3398:Y 0.000169315
3 *3399:A *3399:B 8.86565e-05
4 *304:44 *3399:B 0
5 *323:12 *3399:B 9.3062e-06
*RES
1 *3398:Y *3399:B 9.975 
*END

*D_NET *331 0.000797667
*CONN
*I *3401:B1 I *D sky130_fd_sc_hd__o311a_4
*I *3399:Y O *D sky130_fd_sc_hd__nand2_2
*CAP
1 *3401:B1 0.000327499
2 *3399:Y 0.000327499
3 *3394:A *3401:B1 0
4 *3401:A2 *3401:B1 0.000142669
5 *304:44 *3401:B1 0
*RES
1 *3399:Y *3401:B1 12.84 
*END

*D_NET *332 0.000284095
*CONN
*I *3401:C1 I *D sky130_fd_sc_hd__o311a_4
*I *3400:X O *D sky130_fd_sc_hd__or3_4
*CAP
1 *3401:C1 0.000103711
2 *3400:X 0.000103711
3 *3401:C1 *566:48 4.18603e-06
4 *3401:C1 *566:61 7.24866e-05
5 *3394:A *3401:C1 0
6 *3401:A3 *3401:C1 0
*RES
1 *3400:X *3401:C1 9.345 
*END

*D_NET *333 0.00075946
*CONN
*I *3409:A1 I *D sky130_fd_sc_hd__o211a_2
*I *3402:Y O *D sky130_fd_sc_hd__nor2_2
*CAP
1 *3409:A1 0.000145577
2 *3402:Y 0.000145577
3 *3409:A1 *3403:A 4.77807e-05
4 *3409:A1 *3407:A2 0
5 *3409:A1 *3409:A2 0.000164754
6 *3409:A1 *3409:B1 2.57619e-05
7 *3409:A1 *3409:C1 4.5783e-05
8 *3409:A1 *875:10 0.000184226
*RES
1 *3402:Y *3409:A1 11.4338 
*END

*D_NET *334 0.00139219
*CONN
*I *3409:A2 I *D sky130_fd_sc_hd__o211a_2
*I *3403:X O *D sky130_fd_sc_hd__and2_2
*CAP
1 *3409:A2 0.000362761
2 *3403:X 0.000362761
3 *3409:A2 *3403:A 1.74876e-05
4 *3409:A2 *3409:B1 0.000474695
5 *3409:A2 *3409:C1 9.72742e-06
6 *3409:A2 *3938:D 0
7 *3409:A1 *3409:A2 0.000164754
*RES
1 *3403:X *3409:A2 14.385 
*END

*D_NET *335 0.00175279
*CONN
*I *3409:B1 I *D sky130_fd_sc_hd__o211a_2
*I *3404:Y O *D sky130_fd_sc_hd__xnor2_2
*CAP
1 *3409:B1 0.00031662
2 *3404:Y 0.00031662
3 *3409:B1 *3402:A 1.43622e-05
4 *3409:B1 *3403:A 8.35118e-05
5 *3409:B1 *3403:B 4.77807e-05
6 *3409:B1 *3407:A2 0
7 *3409:B1 *3409:C1 9.06548e-06
8 *3409:B1 *3913:D 0.000312092
9 *3409:B1 *3936:CLK 2.4997e-05
10 *3409:B1 *3938:D 3.64998e-06
11 *3407:B1 *3409:B1 0.000123637
12 *3409:A1 *3409:B1 2.57619e-05
13 *3409:A2 *3409:B1 0.000474695
*RES
1 *3404:Y *3409:B1 16.44 
*END

*D_NET *336 0.001442
*CONN
*I *3407:A1 I *D sky130_fd_sc_hd__a21oi_2
*I *3408:A1 I *D sky130_fd_sc_hd__o211a_2
*I *3405:Y O *D sky130_fd_sc_hd__inv_2
*CAP
1 *3407:A1 0
2 *3408:A1 0.000244651
3 *3405:Y 0.000173476
4 *336:10 0.000418127
5 *3408:A1 *3407:A2 5.84378e-05
6 *3408:A1 *3408:A2 0.000113497
7 *3408:A1 *3408:C1 0.000268521
8 *336:10 *3407:A2 1.70935e-05
9 *336:10 *642:24 2.46089e-05
10 *336:10 *712:24 0.000123589
*RES
1 *3405:Y *336:10 6.375 
2 *336:10 *3408:A1 9.315 
3 *336:10 *3407:A1 3.6 
*END

*D_NET *337 0.000408845
*CONN
*I *3408:B1 I *D sky130_fd_sc_hd__o211a_2
*I *3406:Y O *D sky130_fd_sc_hd__xnor2_2
*CAP
1 *3408:B1 0.000197204
2 *3406:Y 0.000197204
3 *3408:B1 *3408:A2 9.12494e-06
4 *3408:B1 *3408:C1 5.31158e-06
*RES
1 *3406:Y *3408:B1 9.72 
*END

*D_NET *338 0.000713857
*CONN
*I *3408:C1 I *D sky130_fd_sc_hd__o211a_2
*I *3407:Y O *D sky130_fd_sc_hd__a21oi_2
*CAP
1 *3408:C1 0.000204942
2 *3407:Y 0.000204942
3 *3408:C1 *3407:A2 1.56428e-05
4 *3408:C1 *3408:A2 1.44983e-05
5 *3408:A1 *3408:C1 0.000268521
6 *3408:B1 *3408:C1 5.31158e-06
*RES
1 *3407:Y *3408:C1 11.325 
*END

*D_NET *339 0.000819283
*CONN
*I *3409:C1 I *D sky130_fd_sc_hd__o211a_2
*I *3408:X O *D sky130_fd_sc_hd__o211a_2
*CAP
1 *3409:C1 0.00028051
2 *3408:X 0.00028051
3 *3409:C1 *3407:A2 0
4 *3409:C1 *3408:A2 0
5 *3409:C1 *3938:D 0
6 *3409:C1 *875:10 0.000184226
7 *3407:B1 *3409:C1 9.46111e-06
8 *3409:A1 *3409:C1 4.5783e-05
9 *3409:A2 *3409:C1 9.72742e-06
10 *3409:B1 *3409:C1 9.06548e-06
*RES
1 *3408:X *3409:C1 12.225 
*END

*D_NET *340 5.97061e-05
*CONN
*I *3412:A I *D sky130_fd_sc_hd__nor2_2
*I *3410:X O *D sky130_fd_sc_hd__xor2_2
*CAP
1 *3412:A 2.9853e-05
2 *3410:X 2.9853e-05
*RES
1 *3410:X *3412:A 3.65 
*END

*D_NET *341 0.0035112
*CONN
*I *3412:B I *D sky130_fd_sc_hd__nor2_2
*I *3411:X O *D sky130_fd_sc_hd__xor2_2
*CAP
1 *3412:B 0.00110376
2 *3411:X 0.00110376
3 *3412:B *3241:A1 3.4949e-05
4 *3412:B *3241:B1 2.63406e-05
5 *3412:B *3243:C 0.000131168
6 *3412:B *3244:A1 0.000118081
7 *3412:B *3925:CLK 0.000102049
8 *3412:B *3986:A 0.000266218
9 *3412:B *572:10 0.000101388
10 *3239:A2 *3412:B 0
11 *3241:A2 *3412:B 1.87038e-05
12 *3242:A1 *3412:B 0.00022786
13 *3245:B *3412:B 1.91597e-05
14 *188:12 *3412:B 7.8336e-05
15 *188:33 *3412:B 3.57349e-05
16 *202:54 *3412:B 0.000143704
*RES
1 *3411:X *3412:B 25.785 
*END

*D_NET *342 0.00169131
*CONN
*I *3414:B I *D sky130_fd_sc_hd__and4_4
*I *3412:Y O *D sky130_fd_sc_hd__nor2_2
*CAP
1 *3414:B 0.000570339
2 *3412:Y 0.000570339
3 *3414:B *3925:D 6.07872e-05
4 *3414:B *717:14 0.000458007
5 *3414:A *3414:B 3.1835e-05
*RES
1 *3412:Y *3414:B 16.74 
*END

*D_NET *343 0.000736368
*CONN
*I *3414:D I *D sky130_fd_sc_hd__and4_4
*I *3413:X O *D sky130_fd_sc_hd__xor2_2
*CAP
1 *3414:D 0.000298008
2 *3413:X 0.000298008
3 *3414:D *3415:A 0
4 *3414:D *3918:CLK 5.64836e-05
5 *3414:D *3918:D 4.99619e-05
6 *3414:D *887:10 3.39064e-05
*RES
1 *3413:X *3414:D 11.655 
*END

*D_NET *344 0.000926509
*CONN
*I *3415:A I *D sky130_fd_sc_hd__buf_6
*I *3414:X O *D sky130_fd_sc_hd__and4_4
*CAP
1 *3415:A 0.000377538
2 *3414:X 0.000377538
3 *3415:A *3918:D 0
4 *3415:A *3922:RESET_B 0
5 *3415:A *3928:D 8.52883e-05
6 *3415:A *604:36 4.8854e-05
7 *3415:A *716:17 0
8 *3415:A *717:14 3.72916e-05
9 *3414:D *3415:A 0
*RES
1 *3414:X *3415:A 13.275 
*END

*D_NET *345 0.00111126
*CONN
*I *3418:A0 I *D sky130_fd_sc_hd__mux2_2
*I *3416:X O *D sky130_fd_sc_hd__mux4_2
*CAP
1 *3418:A0 0.000387642
2 *3416:X 0.000387642
3 *3418:A0 *3416:S0 0.000273105
4 *3418:A0 *3418:A1 0
5 *3418:A0 *3589:S 0
6 *3418:A0 *584:12 6.28687e-05
*RES
1 *3416:X *3418:A0 12.825 
*END

*D_NET *346 0.00208935
*CONN
*I *3418:A1 I *D sky130_fd_sc_hd__mux2_2
*I *3417:X O *D sky130_fd_sc_hd__mux4_2
*CAP
1 *3418:A1 0.000541793
2 *3417:X 0.000541793
3 *3418:A1 *3416:S1 4.66108e-05
4 *3418:A1 *3417:A0 7.54986e-05
5 *3418:A1 *3417:A1 6.13304e-05
6 *3418:A1 *3417:S0 2.29804e-05
7 *3418:A1 *3418:S 0.000239807
8 *3418:A1 *3589:S 0.000202168
9 *3418:A1 *461:98 5.23362e-05
10 *3418:A1 *585:22 4.50017e-05
11 *3418:A1 *585:38 2.13396e-05
12 *3418:A1 *626:55 9.70988e-05
13 *3418:A1 *686:122 0.000141592
14 *3418:A0 *3418:A1 0
*RES
1 *3417:X *3418:A1 18.825 
*END

*D_NET *347 0.00637097
*CONN
*I *3424:A0 I *D sky130_fd_sc_hd__mux2_2
*I *3418:X O *D sky130_fd_sc_hd__mux2_2
*CAP
1 *3424:A0 0
2 *3418:X 0.00223728
3 *347:12 0.00223728
4 *347:12 *3416:A0 0
5 *347:12 *3424:S 0
6 *347:12 *3440:A1 0
7 *347:12 *3441:A 0.000183043
8 *347:12 *3450:A0 8.21712e-05
9 *347:12 *3450:A1 0.000185405
10 *347:12 *3475:B 0.000271546
11 *347:12 *3481:B1 0
12 *347:12 *3572:S 0
13 *347:12 *3577:A 0.000497196
14 *347:12 *3598:A 0
15 *347:12 *3727:S 5.0751e-05
16 *347:12 *3732:A 0.000141606
17 *347:12 *3735:A0 4.23878e-05
18 *347:12 *3735:S 0
19 *347:12 *3742:A 0.000221631
20 *347:12 *3882:CLK 0
21 *347:12 *352:73 0
22 *347:12 *544:38 0
23 *347:12 *544:61 9.57735e-05
24 *347:12 *622:12 0
25 *347:12 *626:55 0.0001249
26 *347:12 *662:59 0
27 *347:12 *852:14 0
*RES
1 *3418:X *347:12 49.685 
2 *347:12 *3424:A0 1.6 
*END

*D_NET *348 0.00146773
*CONN
*I *3422:A0 I *D sky130_fd_sc_hd__mux2_2
*I *3419:X O *D sky130_fd_sc_hd__mux4_2
*CAP
1 *3422:A0 0.000443833
2 *3419:X 0.000443833
3 *3422:A0 *3419:S0 2.68464e-05
4 *3422:A0 *3422:A1 1.47256e-05
5 *3422:A0 *3422:S 4.82919e-05
6 *3422:A0 *3675:A0 7.23602e-05
7 *3422:A0 *3675:A1 4.6368e-06
8 *3422:A0 *3676:A 0.000226536
9 *3422:A0 *684:21 8.76124e-05
10 *3422:A0 *684:27 9.90519e-05
*RES
1 *3419:X *3422:A0 15.555 
*END

*D_NET *349 0.00275051
*CONN
*I *3422:A1 I *D sky130_fd_sc_hd__mux2_2
*I *3420:X O *D sky130_fd_sc_hd__mux4_2
*CAP
1 *3422:A1 0.000589947
2 *3420:X 0.000589947
3 *3422:A1 *3420:A0 0.000311282
4 *3422:A1 *3422:S 5.83121e-06
5 *3422:A1 *3424:S 3.09233e-05
6 *3422:A1 *3440:A1 0.000319532
7 *3422:A1 *3481:B1 0.000674557
8 *3422:A1 *3692:A0 7.03276e-05
9 *3422:A1 *574:8 2.11084e-05
10 *3422:A1 *684:27 0.000122331
11 *3422:A0 *3422:A1 1.47256e-05
*RES
1 *3420:X *3422:A1 20.595 
*END

*D_NET *350 0.0139643
*CONN
*I *4087:A I *D sky130_fd_sc_hd__clkbuf_2
*I *3456:S I *D sky130_fd_sc_hd__mux2_2
*I *3480:S I *D sky130_fd_sc_hd__mux2_2
*I *3422:S I *D sky130_fd_sc_hd__mux2_2
*I *3439:S I *D sky130_fd_sc_hd__mux2_2
*I *3421:X O *D sky130_fd_sc_hd__clkbuf_1
*CAP
1 *4087:A 0.000124972
2 *3456:S 0
3 *3480:S 0
4 *3422:S 0.000635971
5 *3439:S 0.000252327
6 *3421:X 0
7 *350:57 0.00129868
8 *350:36 0.00135077
9 *350:30 0.00263087
10 *350:4 0.0023201
11 *3422:S *3481:B1 0.000240589
12 *3422:S *3709:A1 4.41363e-05
13 *3422:S *3710:A 0.00028325
14 *3422:S *3988:A 0.000207802
15 *3422:S *3991:A 0.000159667
16 *3422:S *562:75 0
17 *3422:S *562:81 0
18 *3422:S *684:27 1.47347e-05
19 *3439:S *3437:A0 0.000352781
20 *3439:S *3439:A0 0
21 *3439:S *3440:A1 0
22 *3439:S *3662:A1 0.000241483
23 *3439:S *3663:A 0.00015738
24 *3439:S *3680:A 4.12057e-05
25 *3439:S *822:10 8.53113e-06
26 *4087:A *3635:S 0.000121043
27 *350:30 *3456:A1 0.000156754
28 *350:30 *3635:S 8.41384e-05
29 *350:30 *3683:A1 7.94515e-05
30 *350:30 *3720:A 4.8854e-05
31 *350:30 *525:60 0.000135382
32 *350:30 *562:214 0.000214961
33 *350:30 *562:220 3.90721e-05
34 *350:30 *562:224 4.90291e-05
35 *350:30 *562:248 7.96104e-06
36 *350:30 *581:10 0.000308645
37 *350:30 *594:10 0.000173792
38 *350:30 *634:31 1.7635e-05
39 *350:30 *692:30 7.96104e-06
40 *350:30 *725:59 4.28112e-06
41 *350:36 *3456:A1 3.054e-05
42 *350:36 *3457:B1 5.68804e-06
43 *350:57 *3478:S1 0
44 *350:57 *3480:A0 0.000203178
45 *350:57 *3623:S 0.000199833
46 *350:57 *3679:S 0.00050339
47 *350:57 *3680:A 2.28474e-05
48 *350:57 *3690:A 0.000725567
49 *350:57 *3723:A1 0
50 *350:57 *3988:A 0
51 *350:57 *562:81 0
52 *350:57 *592:14 0
53 *350:57 *851:8 0
54 *3422:A0 *3422:S 4.82919e-05
55 *3422:A1 *3422:S 5.83121e-06
56 *3850:D *3439:S 0.000141606
57 *3855:D *350:57 0.000141606
58 *3864:D *3422:S 9.23635e-05
59 *173:29 *4087:A 2.93137e-05
*RES
1 *3421:X *350:4 1.6 
2 *350:4 *350:30 34.9141 
3 *350:30 *350:36 6.95 
4 *350:36 *3439:S 10.98 
5 *350:36 *350:57 19.28 
6 *350:57 *3422:S 19.85 
7 *350:57 *3480:S 1.6 
8 *350:30 *3456:S 1.6 
9 *350:4 *4087:A 3.445 
*END

*D_NET *351 0.000332139
*CONN
*I *3424:A1 I *D sky130_fd_sc_hd__mux2_2
*I *3422:X O *D sky130_fd_sc_hd__mux2_2
*CAP
1 *3424:A1 2.90144e-05
2 *3422:X 2.90144e-05
3 *3424:A1 *3424:S 0.000117903
4 *3424:A1 *684:27 0.000156207
*RES
1 *3422:X *3424:A1 4.6175 
*END

*D_NET *352 0.0149927
*CONN
*I *3448:S I *D sky130_fd_sc_hd__mux2_2
*I *3471:B1 I *D sky130_fd_sc_hd__o21a_2
*I *3464:S I *D sky130_fd_sc_hd__mux2_2
*I *3431:B1 I *D sky130_fd_sc_hd__o21a_2
*I *3481:B2 I *D sky130_fd_sc_hd__a22o_2
*I *3440:S I *D sky130_fd_sc_hd__mux2_2
*I *3424:S I *D sky130_fd_sc_hd__mux2_2
*I *3457:B2 I *D sky130_fd_sc_hd__a22o_2
*I *3423:X O *D sky130_fd_sc_hd__buf_1
*CAP
1 *3448:S 0
2 *3471:B1 1.90984e-05
3 *3464:S 0
4 *3431:B1 0
5 *3481:B2 0.000177899
6 *3440:S 1.86412e-05
7 *3424:S 0.00017003
8 *3457:B2 0
9 *3423:X 0.000536782
10 *352:73 0.000401919
11 *352:67 0.000930397
12 *352:58 0.00150389
13 *352:50 0.00119001
14 *352:44 0.000798333
15 *352:34 0.00121265
16 *352:14 0.00115738
17 *3424:S *3440:A1 8.72765e-05
18 *3424:S *3481:B1 0.000116645
19 *3424:S *684:27 2.29083e-05
20 *3440:S *3440:A0 0.000124895
21 *3440:S *544:38 0.000124895
22 *3471:B1 *3471:A1 4.00541e-06
23 *3481:B2 *3451:B 0.000176544
24 *3481:B2 *3475:A 3.06212e-05
25 *3481:B2 *3481:B1 0.000184733
26 *3481:B2 *3992:A 2.39856e-05
27 *3481:B2 *610:12 7.58604e-05
28 *3481:B2 *681:58 5.7344e-05
29 *352:14 *3448:A0 0
30 *352:14 *3448:A1 0.000272235
31 *352:14 *4010:A 9.8042e-05
32 *352:14 *442:14 0.000472687
33 *352:14 *461:26 1.56651e-05
34 *352:14 *727:22 0.000178025
35 *352:34 *3471:A1 8.5235e-05
36 *352:34 *3471:A2 1.47256e-05
37 *352:34 *3535:A 9.15784e-05
38 *352:34 *3552:C 0
39 *352:34 *3570:A_N 4.66108e-05
40 *352:34 *3571:A 2.20732e-05
41 *352:34 *3725:B 0
42 *352:34 *3915:CLK 0.000158175
43 *352:34 *432:20 3.12319e-05
44 *352:34 *461:26 8.95033e-05
45 *352:34 *562:302 9.75971e-05
46 *352:34 *562:329 3.11802e-05
47 *352:34 *700:10 5.12248e-05
48 *352:34 *727:22 4.03577e-05
49 *352:44 *3432:A1 7.10578e-05
50 *352:44 *3460:S 0
51 *352:44 *3464:A1 0.000346703
52 *352:44 *3470:S1 8.65961e-05
53 *352:44 *3472:A1 5.93998e-05
54 *352:44 *3472:B1 1.03323e-05
55 *352:44 *3511:S 0.000195671
56 *352:44 *3571:A 1.7386e-05
57 *352:44 *3721:S 4.43871e-06
58 *352:44 *3877:CLK 0
59 *352:44 *562:37 0.000308926
60 *352:44 *674:8 1.88407e-05
61 *352:44 *685:10 4.82863e-05
62 *352:44 *727:28 0.000112349
63 *352:50 *3431:A2 4.66108e-05
64 *352:50 *3432:A2 2.16833e-05
65 *352:50 *3464:A1 4.77757e-05
66 *352:50 *3511:S 3.14927e-05
67 *352:50 *388:16 0.000272662
68 *352:50 *681:44 0.000408018
69 *352:50 *681:58 8.40269e-05
70 *352:58 *3432:A2 6.56784e-05
71 *352:58 *3432:B1 3.03775e-05
72 *352:58 *3433:B1_N 4.99619e-05
73 *352:58 *3453:A1 8.16598e-05
74 *352:58 *3453:A2 2.11084e-05
75 *352:58 *3453:B1 3.45213e-05
76 *352:58 *3457:A2 0.000313619
77 *352:58 *3597:S 0.000102013
78 *352:58 *674:39 0.00015765
79 *352:67 *3457:A1 0.000419949
80 *352:67 *3457:A2 3.87855e-05
81 *352:67 *4098:A 5.80043e-05
82 *352:73 *3481:B1 0.000250623
83 *352:73 *4098:A 3.64622e-05
84 *3422:A1 *3424:S 3.09233e-05
85 *3424:A1 *3424:S 0.000117903
86 *3570:D *352:34 4.82919e-05
87 *347:12 *3424:S 0
88 *347:12 *352:73 0
*RES
1 *3423:X *352:14 16.7 
2 *352:14 *352:34 16.075 
3 *352:34 *352:44 17.215 
4 *352:44 *352:50 6.435 
5 *352:50 *352:58 14.805 
6 *352:58 *3457:B2 1.6 
7 *352:58 *352:67 7.275 
8 *352:67 *352:73 6.05 
9 *352:73 *3424:S 7.53 
10 *352:73 *3440:S 4.74 
11 *352:67 *3481:B2 10.52 
12 *352:50 *3431:B1 1.6 
13 *352:44 *3464:S 1.6 
14 *352:34 *3471:B1 1.96 
15 *352:14 *3448:S 1.6 
*END

*D_NET *353 0.00140979
*CONN
*I *3425:A I *D sky130_fd_sc_hd__buf_1
*I *3424:X O *D sky130_fd_sc_hd__mux2_2
*CAP
1 *3425:A 0.000480263
2 *3424:X 0.000480263
3 *3425:A *3441:A 0.000244405
4 *3425:A *3753:A 0.000204854
*RES
1 *3424:X *3425:A 12.065 
*END

*D_NET *354 0.000651977
*CONN
*I *3428:A0 I *D sky130_fd_sc_hd__mux2_2
*I *3426:X O *D sky130_fd_sc_hd__mux4_2
*CAP
1 *3428:A0 0.000152639
2 *3426:X 0.000152639
3 *3428:A0 *3428:A1 7.8699e-05
4 *3428:A0 *3428:S 0.000268001
*RES
1 *3426:X *3428:A0 10.815 
*END

*D_NET *355 0.00243241
*CONN
*I *3428:A1 I *D sky130_fd_sc_hd__mux2_2
*I *3427:X O *D sky130_fd_sc_hd__mux4_2
*CAP
1 *3428:A1 0.000638421
2 *3427:X 0.000638421
3 *3428:A1 *3428:S 0.000117159
4 *3428:A1 *3536:S 0.00030358
5 *3428:A1 *3538:S 0.000292059
6 *3428:A1 *3806:CLK 0
7 *3428:A1 *630:16 0.000364065
8 *3428:A0 *3428:A1 7.8699e-05
*RES
1 *3427:X *3428:A1 19.815 
*END

*D_NET *356 0.00368997
*CONN
*I *3433:A2 I *D sky130_fd_sc_hd__a21bo_2
*I *3428:X O *D sky130_fd_sc_hd__mux2_2
*CAP
1 *3433:A2 0.000595108
2 *3428:X 0.000595108
3 *3433:A2 *3433:A1 8.57024e-05
4 *3433:A2 *3476:S0 0
5 *3433:A2 *3583:A 0.000159957
6 *3433:A2 *3747:A 0.000673538
7 *3433:A2 *4026:A 0.000267846
8 *3433:A2 *413:85 0.000176994
9 *3433:A2 *452:37 8.40213e-05
10 *3433:A2 *580:8 0.000192125
11 *3433:A2 *686:10 0.000152132
12 *3433:A2 *686:22 0.000427724
13 *3433:A2 *749:10 0.000142076
14 *3433:A2 *757:10 0.000137642
*RES
1 *3428:X *3433:A2 26.19 
*END

*D_NET *357 0.00194499
*CONN
*I *3432:A2 I *D sky130_fd_sc_hd__o21ai_2
*I *3429:X O *D sky130_fd_sc_hd__mux4_2
*CAP
1 *3432:A2 0.000359036
2 *3429:X 0.000359036
3 *3432:A2 *3431:A2 0.000441131
4 *3432:A2 *3432:B1 8.40269e-05
5 *3432:A2 *3433:B1_N 4.9253e-06
6 *3432:A2 *3597:S 0.00019637
7 *3432:A2 *3754:A1 4.82863e-05
8 *3432:A2 *4008:A 0
9 *3432:A2 *4024:A 0.000139238
10 *3432:A2 *388:16 4.14009e-05
11 *3432:A2 *681:58 0.000184182
12 *352:50 *3432:A2 2.16833e-05
13 *352:58 *3432:A2 6.56784e-05
*RES
1 *3429:X *3432:A2 17.085 
*END

*D_NET *358 0.00297846
*CONN
*I *3431:A2 I *D sky130_fd_sc_hd__o21a_2
*I *3430:X O *D sky130_fd_sc_hd__mux4_2
*CAP
1 *3431:A2 0.000789176
2 *3430:X 0.000789176
3 *3431:A2 *3430:A0 0.000183043
4 *3431:A2 *3430:S0 0.00043743
5 *3431:A2 *3487:A 3.67779e-05
6 *3431:A2 *3661:A 7.76353e-05
7 *3431:A2 *3976:A 1.7386e-05
8 *3431:A2 *4024:A 3.57846e-05
9 *3431:A2 *388:16 8.53113e-06
10 *3431:A2 *630:16 0.000115782
11 *3431:A2 *669:14 0
12 *3432:A2 *3431:A2 0.000441131
13 *3841:D *3431:A2 0
14 *352:50 *3431:A2 4.66108e-05
*RES
1 *3430:X *3431:A2 25.545 
*END

*D_NET *359 0.000168616
*CONN
*I *3432:B1 I *D sky130_fd_sc_hd__o21ai_2
*I *3431:X O *D sky130_fd_sc_hd__o21a_2
*CAP
1 *3432:B1 2.71058e-05
2 *3431:X 2.71058e-05
3 *3432:A2 *3432:B1 8.40269e-05
4 *352:58 *3432:B1 3.03775e-05
*RES
1 *3431:X *3432:B1 3.995 
*END

*D_NET *360 0.00334816
*CONN
*I *3433:B1_N I *D sky130_fd_sc_hd__a21bo_2
*I *3432:Y O *D sky130_fd_sc_hd__o21ai_2
*CAP
1 *3433:B1_N 0.00104321
2 *3432:Y 0.00104321
3 *3433:B1_N *3432:A1 1.22762e-05
4 *3433:B1_N *3476:S0 0.000139933
5 *3433:B1_N *3597:S 1.03423e-05
6 *3433:B1_N *3600:A 2.03321e-05
7 *3433:B1_N *3746:S 0
8 *3433:B1_N *3788:CLK 0
9 *3433:B1_N *3813:CLK 7.6664e-05
10 *3433:B1_N *4008:A 0.00025762
11 *3433:B1_N *4095:A 0
12 *3433:B1_N *452:37 6.24422e-05
13 *3433:B1_N *461:53 0
14 *3433:B1_N *611:49 0
15 *3432:A2 *3433:B1_N 4.9253e-06
16 *3773:D *3433:B1_N 0.000137095
17 *3805:D *3433:B1_N 4.6657e-05
18 *3813:D *3433:B1_N 0.000443492
19 *352:58 *3433:B1_N 4.99619e-05
*RES
1 *3432:Y *3433:B1_N 29.2425 
*END

*D_NET *361 0.00170791
*CONN
*I *3436:A0 I *D sky130_fd_sc_hd__mux2_2
*I *3434:X O *D sky130_fd_sc_hd__mux4_2
*CAP
1 *3436:A0 0.00050865
2 *3434:X 0.00050865
3 *3436:A0 *3434:A0 0.0002336
4 *3436:A0 *3434:S0 0.000170985
5 *3436:A0 *461:88 0.000286022
*RES
1 *3434:X *3436:A0 15.555 
*END

*D_NET *362 0.00184241
*CONN
*I *3436:A1 I *D sky130_fd_sc_hd__mux2_2
*I *3435:X O *D sky130_fd_sc_hd__mux4_2
*CAP
1 *3436:A1 0.000467916
2 *3435:X 0.000467916
3 *3436:A1 *3434:S1 0.000340813
4 *3436:A1 *3440:A0 2.06497e-05
5 *3436:A1 *3540:A0 4.76682e-05
6 *3436:A1 *3540:A1 0
7 *3436:A1 *3558:A0 4.60992e-05
8 *3436:A1 *3997:A 0.000118081
9 *3436:A1 *622:84 0.000118081
10 *3794:D *3436:A1 0.000191882
11 *3810:D *3436:A1 2.33079e-05
*RES
1 *3435:X *3436:A1 16.47 
*END

*D_NET *363 0.00639929
*CONN
*I *3440:A0 I *D sky130_fd_sc_hd__mux2_2
*I *3436:X O *D sky130_fd_sc_hd__mux2_2
*CAP
1 *3440:A0 0.00171915
2 *3436:X 0.00171915
3 *3440:A0 *3434:S0 0.000286524
4 *3440:A0 *3436:S 2.69217e-05
5 *3440:A0 *3457:A1 0.000113797
6 *3440:A0 *3474:S0 0
7 *3440:A0 *3475:A 0
8 *3440:A0 *3481:B1 0
9 *3440:A0 *3587:A 7.61604e-05
10 *3440:A0 *3807:CLK 0
11 *3440:A0 *3997:A 0.000382357
12 *3440:A0 *4101:A 0.000210792
13 *3440:A0 *461:88 0
14 *3440:A0 *544:38 0.000202056
15 *3440:A0 *562:75 0.000511932
16 *3440:A0 *562:106 0.000839232
17 *3440:A0 *681:58 7.35729e-05
18 *3436:A1 *3440:A0 2.06497e-05
19 *3440:S *3440:A0 0.000124895
20 *3807:D *3440:A0 0
21 *3815:D *3440:A0 9.21068e-05
*RES
1 *3436:X *3440:A0 46.05 
*END

*D_NET *364 0.00062006
*CONN
*I *3439:A0 I *D sky130_fd_sc_hd__mux2_2
*I *3437:X O *D sky130_fd_sc_hd__mux4_2
*CAP
1 *3439:A0 0.000208739
2 *3437:X 0.000208739
3 *3439:A0 *3437:S0 2.75229e-05
4 *3439:A0 *3440:A1 0.000175058
5 *3439:A0 *822:10 0
6 *3439:S *3439:A0 0
7 *3850:D *3439:A0 0
*RES
1 *3437:X *3439:A0 11.325 
*END

*D_NET *365 0.00158618
*CONN
*I *3439:A1 I *D sky130_fd_sc_hd__mux2_2
*I *3438:X O *D sky130_fd_sc_hd__mux4_2
*CAP
1 *3439:A1 0.000564766
2 *3438:X 0.000564766
3 *3439:A1 *3438:A0 7.19352e-05
4 *3439:A1 *3438:S1 0
5 *3439:A1 *3440:A1 7.30547e-05
6 *3439:A1 *3610:A0 4.91927e-05
7 *3439:A1 *3611:A 0
8 *3439:A1 *3662:A1 0.000120655
9 *3439:A1 *3663:A 0.000120655
10 *3439:A1 *516:57 0
11 *3439:A1 *621:41 0
12 *3439:A1 *664:48 1.39456e-05
13 *3439:A1 *684:50 0
14 *3439:A1 *798:8 7.21296e-06
*RES
1 *3438:X *3439:A1 17.37 
*END

*D_NET *366 0.00611983
*CONN
*I *3440:A1 I *D sky130_fd_sc_hd__mux2_2
*I *3439:X O *D sky130_fd_sc_hd__mux2_2
*CAP
1 *3440:A1 0.00155654
2 *3439:X 0.00155654
3 *3440:A1 *3420:A0 9.24049e-05
4 *3440:A1 *3437:A3 8.91927e-05
5 *3440:A1 *3481:B1 0.000175713
6 *3440:A1 *3484:A0 0.000129226
7 *3440:A1 *3485:A 0
8 *3440:A1 *3498:S 0.000888641
9 *3440:A1 *3662:A1 6.97034e-05
10 *3440:A1 *3679:A0 9.10064e-06
11 *3440:A1 *3680:A 0
12 *3440:A1 *3692:A0 7.03276e-05
13 *3440:A1 *3706:S 0.000105175
14 *3440:A1 *3713:A0 5.83121e-06
15 *3440:A1 *3713:A1 7.10498e-05
16 *3440:A1 *3713:S 8.52972e-05
17 *3440:A1 *3724:A 0.000104618
18 *3440:A1 *3863:CLK 0.000206157
19 *3440:A1 *3988:A 0
20 *3440:A1 *516:57 0
21 *3440:A1 *544:38 8.65905e-05
22 *3440:A1 *625:50 4.4591e-05
23 *3440:A1 *822:10 0
24 *3440:A1 *830:10 0.000118206
25 *3422:A1 *3440:A1 0.000319532
26 *3424:S *3440:A1 8.72765e-05
27 *3439:A0 *3440:A1 0.000175058
28 *3439:A1 *3440:A1 7.30547e-05
29 *3439:S *3440:A1 0
30 *347:12 *3440:A1 0
*RES
1 *3439:X *3440:A1 49.6 
*END

*D_NET *367 0.00224632
*CONN
*I *3441:A I *D sky130_fd_sc_hd__buf_1
*I *3440:X O *D sky130_fd_sc_hd__mux2_2
*CAP
1 *3441:A 0.000584419
2 *3440:X 0.000584419
3 *3441:A *3526:A1 0
4 *3441:A *3753:A 0.000348281
5 *3441:A *3856:CLK 0
6 *3441:A *4094:A 1.9872e-05
7 *3441:A *544:38 3.26084e-05
8 *3441:A *684:27 0.000199833
9 *3425:A *3441:A 0.000244405
10 *3884:D *3441:A 4.94457e-05
11 *347:12 *3441:A 0.000183043
*RES
1 *3440:X *3441:A 19.47 
*END

*D_NET *368 0.00113102
*CONN
*I *3444:A0 I *D sky130_fd_sc_hd__mux2_2
*I *3442:X O *D sky130_fd_sc_hd__mux4_2
*CAP
1 *3444:A0 0.000327208
2 *3442:X 0.000327208
3 *3444:A0 *3444:A1 0.000158114
4 *3444:A0 *3448:A0 0.000268144
5 *3444:A0 *571:8 0
6 *3444:A0 *729:80 5.03424e-05
*RES
1 *3442:X *3444:A0 12.99 
*END

*D_NET *369 0.0028451
*CONN
*I *3444:A1 I *D sky130_fd_sc_hd__mux2_2
*I *3443:X O *D sky130_fd_sc_hd__mux4_2
*CAP
1 *3444:A1 0.000961198
2 *3443:X 0.000961198
3 *3444:A1 *3524:A1 0
4 *3444:A1 *3984:A 0.000160314
5 *3444:A1 *3985:A 0.000573353
6 *3444:A1 *442:24 0
7 *3444:A1 *571:8 3.09233e-05
8 *3444:A1 *602:21 0
9 *3444:A1 *687:54 0
10 *3444:A1 *767:12 0
11 *3444:A0 *3444:A1 0.000158114
*RES
1 *3443:X *3444:A1 23.79 
*END

*D_NET *370 0.0021676
*CONN
*I *3448:A0 I *D sky130_fd_sc_hd__mux2_2
*I *3444:X O *D sky130_fd_sc_hd__mux2_2
*CAP
1 *3448:A0 0.000592752
2 *3444:X 0.000592752
3 *3448:A0 *3442:A0 0.000113222
4 *3448:A0 *3726:A 0.000316118
5 *3448:A0 *3985:A 0
6 *3448:A0 *432:20 0.000147931
7 *3448:A0 *442:14 0
8 *3448:A0 *562:347 0
9 *3448:A0 *571:8 0
10 *3448:A0 *855:8 0.000136679
11 *3444:A0 *3448:A0 0.000268144
12 *352:14 *3448:A0 0
*RES
1 *3444:X *3448:A0 19.8 
*END

*D_NET *371 0.000178168
*CONN
*I *3447:A0 I *D sky130_fd_sc_hd__mux2_2
*I *3445:X O *D sky130_fd_sc_hd__mux4_2
*CAP
1 *3447:A0 4.17629e-05
2 *3445:X 4.17629e-05
3 *3447:A0 *3447:A1 3.89366e-05
4 *3447:A0 *3664:A0 5.05228e-05
5 *3447:A0 *823:10 5.18317e-06
*RES
1 *3445:X *3447:A0 8.325 
*END

*D_NET *372 0.00286021
*CONN
*I *3447:A1 I *D sky130_fd_sc_hd__mux2_2
*I *3446:X O *D sky130_fd_sc_hd__mux4_2
*CAP
1 *3447:A1 0.000948673
2 *3446:X 0.000948673
3 *3447:A1 *3446:A0 0
4 *3447:A1 *3681:A0 0
5 *3447:A1 *3895:CLK 6.12027e-05
6 *3447:A1 *3978:A 0.000653571
7 *3447:A1 *632:25 0.000209151
8 *3447:A0 *3447:A1 3.89366e-05
*RES
1 *3446:X *3447:A1 25.215 
*END

*D_NET *373 0.00604107
*CONN
*I *3448:A1 I *D sky130_fd_sc_hd__mux2_2
*I *3447:X O *D sky130_fd_sc_hd__mux2_2
*CAP
1 *3448:A1 0.00168168
2 *3447:X 0.00168168
3 *3448:A1 *3534:A 0
4 *3448:A1 *3553:A 0.000336536
5 *3448:A1 *3656:B 0.000160658
6 *3448:A1 *3664:A0 4.70326e-05
7 *3448:A1 *4086:A 0
8 *3448:A1 *403:36 0.00101922
9 *3448:A1 *442:14 9.30717e-05
10 *3448:A1 *461:26 0.000344575
11 *3448:A1 *683:59 5.00526e-05
12 *3448:A1 *705:10 0
13 *3448:A1 *705:32 0
14 *3448:A1 *727:22 2.51154e-05
15 *3448:A1 *869:14 0.000174611
16 *3708:B *3448:A1 0.00015461
17 *173:10 *3448:A1 0
18 *352:14 *3448:A1 0.000272235
*RES
1 *3447:X *3448:A1 43.275 
*END

*D_NET *374 0.00700923
*CONN
*I *3449:A I *D sky130_fd_sc_hd__buf_1
*I *3448:X O *D sky130_fd_sc_hd__mux2_2
*CAP
1 *3449:A 0.00285987
2 *3448:X 0.00285987
3 *3449:A *3268:A2 0.000194045
4 *3449:A *3916:D 0.000114492
5 *3449:A *3917:D 2.75145e-05
6 *3449:A *3937:CLK 0.000293619
7 *3449:A *3937:D 6.97118e-05
8 *3449:A *3937:RESET_B 7.06657e-05
9 *3449:A *461:26 0.000173966
10 *3449:A *727:22 0.000233368
11 *3268:B1_N *3449:A 2.68464e-05
12 *3588:A *3449:A 8.52649e-05
*RES
1 *3448:X *3449:A 44.685 
*END

*D_NET *375 0.00091816
*CONN
*I *3451:B I *D sky130_fd_sc_hd__or2_2
*I *3450:X O *D sky130_fd_sc_hd__mux4_2
*CAP
1 *3451:B 0.000253101
2 *3450:X 0.000253101
3 *3451:B *3475:A 0.000127366
4 *3451:B *3992:A 1.45231e-05
5 *3451:B *610:12 8.40213e-05
6 *3451:B *681:58 9.50342e-06
7 *3481:B2 *3451:B 0.000176544
*RES
1 *3450:X *3451:B 11.355 
*END

*D_NET *376 0.00104514
*CONN
*I *3457:A1 I *D sky130_fd_sc_hd__a22o_2
*I *3451:X O *D sky130_fd_sc_hd__or2_2
*CAP
1 *3457:A1 0.000156227
2 *3451:X 0.000156227
3 *3457:A1 *3457:A2 3.5457e-05
4 *3457:A1 *4098:A 0.000120271
5 *3457:A1 *681:58 4.32126e-05
6 *3440:A0 *3457:A1 0.000113797
7 *352:67 *3457:A1 0.000419949
*RES
1 *3451:X *3457:A1 12.48 
*END

*D_NET *377 0.00107578
*CONN
*I *3453:A2 I *D sky130_fd_sc_hd__o21a_2
*I *3452:X O *D sky130_fd_sc_hd__mux4_2
*CAP
1 *3453:A2 0.000289527
2 *3452:X 0.000289527
3 *3453:A2 *3453:B1 0.000143443
4 *3453:A2 *3544:A0 9.50342e-06
5 *3453:A2 *3597:S 2.75229e-05
6 *3453:A2 *3865:CLK 0
7 *3453:A2 *562:56 0.000112097
8 *3453:A2 *768:10 0.00018305
9 *3796:D *3453:A2 0
10 *352:58 *3453:A2 2.11084e-05
*RES
1 *3452:X *3453:A2 13.56 
*END

*D_NET *378 0.00081851
*CONN
*I *3457:A2 I *D sky130_fd_sc_hd__a22o_2
*I *3453:X O *D sky130_fd_sc_hd__o21a_2
*CAP
1 *3457:A2 0.000215325
2 *3453:X 0.000215325
3 *3457:A1 *3457:A2 3.5457e-05
4 *352:58 *3457:A2 0.000313619
5 *352:67 *3457:A2 3.87855e-05
*RES
1 *3453:X *3457:A2 7.92875 
*END

*D_NET *379 0.00290867
*CONN
*I *3456:A0 I *D sky130_fd_sc_hd__mux2_2
*I *3454:X O *D sky130_fd_sc_hd__mux4_2
*CAP
1 *3456:A0 0.000758534
2 *3454:X 0.000758534
3 *3456:A0 *3454:A0 8.8266e-05
4 *3456:A0 *3454:A1 9.21168e-05
5 *3456:A0 *3456:A1 0.000569273
6 *3456:A0 *3718:A 4.66108e-05
7 *3456:A0 *3974:A 0.000257005
8 *3456:A0 *581:10 0.000146621
9 *3456:A0 *590:25 0.000119048
10 *3852:D *3456:A0 7.26583e-05
*RES
1 *3454:X *3456:A0 22.575 
*END

*D_NET *380 0.00428895
*CONN
*I *3456:A1 I *D sky130_fd_sc_hd__mux2_2
*I *3455:X O *D sky130_fd_sc_hd__mux4_2
*CAP
1 *3456:A1 0.00116254
2 *3455:X 0.00116254
3 *3456:A1 *3454:A1 0
4 *3456:A1 *3455:A0 7.55105e-05
5 *3456:A1 *3455:S0 0
6 *3456:A1 *3614:A0 0.000126679
7 *3456:A1 *3615:A 0
8 *3456:A1 *3717:A1 2.49909e-05
9 *3456:A1 *3861:CLK 0
10 *3456:A1 *3974:A 0.000695008
11 *3456:A1 *581:10 0.000113857
12 *3456:A1 *800:8 9.85903e-05
13 *3456:A0 *3456:A1 0.000569273
14 *3852:D *3456:A1 7.26583e-05
15 *350:30 *3456:A1 0.000156754
16 *350:36 *3456:A1 3.054e-05
*RES
1 *3455:X *3456:A1 30.66 
*END

*D_NET *381 0.00659029
*CONN
*I *3457:B1 I *D sky130_fd_sc_hd__a22o_2
*I *3456:X O *D sky130_fd_sc_hd__mux2_2
*CAP
1 *3457:B1 0.0032923
2 *3456:X 0.0032923
3 *3457:B1 *594:10 0
4 *350:36 *3457:B1 5.68804e-06
*RES
1 *3456:X *3457:B1 18.0812 
*END

*D_NET *382 0.000344694
*CONN
*I *3460:A0 I *D sky130_fd_sc_hd__mux2_2
*I *3458:X O *D sky130_fd_sc_hd__mux4_2
*CAP
1 *3460:A0 7.2292e-05
2 *3458:X 7.2292e-05
3 *3460:A0 *3460:A1 0.000120186
4 *3460:A0 *681:44 6.5525e-05
5 *3460:A0 *865:12 1.4399e-05
*RES
1 *3458:X *3460:A0 9.03 
*END

*D_NET *383 0.00298222
*CONN
*I *3460:A1 I *D sky130_fd_sc_hd__mux2_2
*I *3459:X O *D sky130_fd_sc_hd__mux4_2
*CAP
1 *3460:A1 0.000827672
2 *3459:X 0.000827672
3 *3460:A1 *3459:A0 0.000120655
4 *3460:A1 *3459:S1 0.000177642
5 *3460:A1 *3546:A0 9.14049e-05
6 *3460:A1 *3565:A 5.83373e-05
7 *3460:A1 *3877:CLK 0
8 *3460:A1 *4052:A 0.000729404
9 *3460:A1 *432:30 1.79483e-05
10 *3460:A1 *452:14 0
11 *3460:A1 *666:16 0
12 *3460:A1 *681:44 1.13002e-05
13 *3460:A1 *865:12 0
14 *3460:A0 *3460:A1 0.000120186
15 *3877:D *3460:A1 0
*RES
1 *3459:X *3460:A1 24.96 
*END

*D_NET *384 0.000592698
*CONN
*I *3464:A0 I *D sky130_fd_sc_hd__mux2_2
*I *3460:X O *D sky130_fd_sc_hd__mux2_2
*CAP
1 *3464:A0 0.000219532
2 *3460:X 0.000219532
3 *3464:A0 *3754:A0 8.53113e-06
4 *3464:A0 *544:32 5.90239e-06
5 *3464:A0 *562:37 8.64752e-05
6 *3464:A0 *681:44 5.27253e-05
*RES
1 *3460:X *3464:A0 10.2525 
*END

*D_NET *385 0.000289324
*CONN
*I *3463:A0 I *D sky130_fd_sc_hd__mux2_2
*I *3461:X O *D sky130_fd_sc_hd__mux4_2
*CAP
1 *3463:A0 2.87168e-05
2 *3461:X 2.87168e-05
3 *3463:A0 *3463:A1 0.000115945
4 *3463:A0 *692:30 0.000115945
*RES
1 *3461:X *3463:A0 8.58 
*END

*D_NET *386 0.00296702
*CONN
*I *3463:A1 I *D sky130_fd_sc_hd__mux2_2
*I *3462:X O *D sky130_fd_sc_hd__mux4_2
*CAP
1 *3463:A1 0.000702632
2 *3462:X 0.000702632
3 *3463:A1 *3446:S0 1.64067e-05
4 *3463:A1 *3462:S1 3.196e-05
5 *3463:A1 *3669:A 0.000310424
6 *3463:A1 *3827:CLK 0
7 *3463:A1 *3981:A 0
8 *3463:A1 *562:248 0.000204804
9 *3463:A1 *562:262 9.16315e-05
10 *3463:A1 *692:30 4.98012e-05
11 *3463:A1 *692:32 0.000122583
12 *3463:A1 *692:38 0.000618206
13 *3463:A0 *3463:A1 0.000115945
*RES
1 *3462:X *3463:A1 25.395 
*END

*D_NET *387 0.00682103
*CONN
*I *3464:A1 I *D sky130_fd_sc_hd__mux2_2
*I *3463:X O *D sky130_fd_sc_hd__mux2_2
*CAP
1 *3464:A1 0.000816638
2 *3463:X 0.000816638
3 *3464:A1 *3511:S 0.000383062
4 *3464:A1 *3635:A1 0.000220269
5 *3464:A1 *3653:A 0.000206123
6 *3464:A1 *3721:A0 0.000355129
7 *3464:A1 *3822:CLK 0.000197472
8 *3464:A1 *3877:CLK 0.000122033
9 *3464:A1 *4052:A 0.00110308
10 *3464:A1 *597:8 0.000293816
11 *3464:A1 *597:12 5.20193e-05
12 *3464:A1 *634:31 0.00050173
13 *3464:A1 *692:30 0.00122062
14 *3464:A1 *721:79 0.000137922
15 *352:44 *3464:A1 0.000346703
16 *352:50 *3464:A1 4.77757e-05
*RES
1 *3463:X *3464:A1 40.185 
*END

*D_NET *388 0.00960124
*CONN
*I *3465:A I *D sky130_fd_sc_hd__buf_1
*I *3464:X O *D sky130_fd_sc_hd__mux2_2
*CAP
1 *3465:A 0.00307634
2 *3464:X 0.000505759
3 *388:16 0.0035821
4 *3465:A *3477:A1 1.32026e-05
5 *3465:A *3477:A2 4.77769e-05
6 *3465:A *3481:A2 0.000260181
7 *3465:A *3544:A0 0.00013073
8 *3465:A *3544:A1 1.01639e-05
9 *3465:A *3544:S 1.74678e-05
10 *3465:A *3545:A 4.66108e-05
11 *3465:A *4099:A 5.88561e-05
12 *3465:A *4101:A 0.000193926
13 *3465:A *724:32 1.56428e-05
14 *3465:A *724:36 3.112e-05
15 *3465:A *761:10 7.5687e-06
16 *388:16 *3458:S0 0.000325408
17 *388:16 *3754:A1 3.31282e-05
18 *388:16 *630:16 0.000151575
19 *388:16 *724:49 2.47547e-05
20 *388:16 *724:73 0.000742825
21 *3431:A2 *388:16 8.53113e-06
22 *3432:A2 *388:16 4.14009e-05
23 *3804:D *3465:A 3.51254e-06
24 *352:50 *388:16 0.000272662
*RES
1 *3464:X *388:16 20 
2 *388:16 *3465:A 42.17 
*END

*D_NET *389 0.00102777
*CONN
*I *3468:A0 I *D sky130_fd_sc_hd__mux2_2
*I *3466:X O *D sky130_fd_sc_hd__mux4_2
*CAP
1 *3468:A0 0.000152668
2 *3466:X 0.000152668
3 *3468:A0 *3443:S1 1.73877e-05
4 *3468:A0 *3468:A1 0.000106194
5 *3468:A0 *3468:S 7.04684e-05
6 *3468:A0 *3739:A0 4.66108e-05
7 *3468:A0 *3739:S 8.65961e-05
8 *3468:A0 *442:37 0.000113797
9 *3468:A0 *688:51 5.83121e-06
10 *3468:A0 *722:18 0.000275553
*RES
1 *3466:X *3468:A0 12.135 
*END

*D_NET *390 0.00228691
*CONN
*I *3468:A1 I *D sky130_fd_sc_hd__mux2_2
*I *3467:X O *D sky130_fd_sc_hd__mux4_2
*CAP
1 *3468:A1 0.000477053
2 *3467:X 0.000477053
3 *3468:A1 *3443:S1 5.11729e-05
4 *3468:A1 *3467:A1 2.49909e-05
5 *3468:A1 *3468:S 4.31222e-06
6 *3468:A1 *3739:A0 4.66108e-05
7 *3468:A1 *3756:A0 0.00013598
8 *3468:A1 *3756:S 0.000192505
9 *3468:A1 *4049:A 1.27474e-05
10 *3468:A1 *442:37 0.000120036
11 *3468:A1 *635:10 7.12228e-06
12 *3468:A1 *722:18 0.000199833
13 *3468:A1 *722:76 0.00026898
14 *3468:A0 *3468:A1 0.000106194
15 *3798:D *3468:A1 0.000162325
*RES
1 *3467:X *3468:A1 17.85 
*END

*D_NET *391 0.000318897
*CONN
*I *3473:A2 I *D sky130_fd_sc_hd__a21bo_2
*I *3468:X O *D sky130_fd_sc_hd__mux2_2
*CAP
1 *3473:A2 7.77835e-05
2 *3468:X 7.77835e-05
3 *3473:A2 *3601:S 6.5525e-05
4 *3473:A2 *688:51 4.82919e-05
5 *26:20 *3473:A2 4.95134e-05
*RES
1 *3468:X *3473:A2 9.03 
*END

*D_NET *392 0.0018575
*CONN
*I *3472:A2 I *D sky130_fd_sc_hd__o21ai_2
*I *3469:X O *D sky130_fd_sc_hd__mux4_2
*CAP
1 *3472:A2 0.000452386
2 *3469:X 0.000452386
3 *3472:A2 *3470:S0 0.000185218
4 *3472:A2 *3470:S1 9.98035e-05
5 *3472:A2 *3472:A1 0
6 *3472:A2 *3472:B1 0.000265136
7 *3472:A2 *3511:S 6.97118e-05
8 *3472:A2 *507:30 4.93662e-06
9 *3472:A2 *570:10 4.70912e-05
10 *3472:A2 *674:8 0
11 *3472:A2 *691:12 7.89767e-05
12 *3472:A2 *727:28 4.52787e-05
13 *3472:A2 *826:8 7.1624e-05
14 *26:22 *3472:A2 8.49475e-05
*RES
1 *3469:X *3472:A2 18.33 
*END

*D_NET *393 0.00280251
*CONN
*I *3471:A2 I *D sky130_fd_sc_hd__o21a_2
*I *3470:X O *D sky130_fd_sc_hd__mux4_2
*CAP
1 *3471:A2 0.000574702
2 *3470:X 0.000574702
3 *3471:A2 *3471:A1 1.88369e-05
4 *3471:A2 *3571:A 4.82863e-05
5 *3471:A2 *470:25 0.00015829
6 *3471:A2 *562:204 0.00075747
7 *3471:A2 *721:10 0.000234988
8 *3471:A2 *721:12 0.000236155
9 *3846:D *3471:A2 9.12759e-05
10 *202:65 *3471:A2 7.97083e-05
11 *202:78 *3471:A2 1.33644e-05
12 *352:34 *3471:A2 1.47256e-05
*RES
1 *3470:X *3471:A2 24.27 
*END

*D_NET *394 0.000861891
*CONN
*I *3472:B1 I *D sky130_fd_sc_hd__o21ai_2
*I *3471:X O *D sky130_fd_sc_hd__o21a_2
*CAP
1 *3472:B1 0.00015229
2 *3471:X 0.00015229
3 *3472:B1 *727:28 0.000281844
4 *3472:A2 *3472:B1 0.000265136
5 *352:44 *3472:B1 1.03323e-05
*RES
1 *3471:X *3472:B1 11.16 
*END

*D_NET *395 0.00516728
*CONN
*I *3473:B1_N I *D sky130_fd_sc_hd__a21bo_2
*I *3472:Y O *D sky130_fd_sc_hd__o21ai_2
*CAP
1 *3473:B1_N 0.00128997
2 *3472:Y 0.00128997
3 *3473:B1_N *3442:A2 0
4 *3473:B1_N *3473:A1 4.82863e-05
5 *3473:B1_N *3571:A 0
6 *3473:B1_N *3601:S 0.000351282
7 *3473:B1_N *3751:A 5.21235e-05
8 *3473:B1_N *413:54 0
9 *3473:B1_N *413:75 0.000318905
10 *3473:B1_N *461:168 0.00038124
11 *3473:B1_N *751:10 0
12 *3883:D *3473:B1_N 0
13 *26:20 *3473:B1_N 0.00039848
14 *26:22 *3473:B1_N 0.00103703
*RES
1 *3472:Y *3473:B1_N 41.0025 
*END

*D_NET *396 0.000940809
*CONN
*I *3475:B I *D sky130_fd_sc_hd__or2_2
*I *3474:X O *D sky130_fd_sc_hd__mux4_2
*CAP
1 *3475:B 0.000280327
2 *3474:X 0.000280327
3 *3475:B *544:61 0.000108608
4 *347:12 *3475:B 0.000271546
*RES
1 *3474:X *3475:B 12.885 
*END

*D_NET *397 0.00171701
*CONN
*I *3481:A1 I *D sky130_fd_sc_hd__a22o_2
*I *3475:X O *D sky130_fd_sc_hd__or2_2
*CAP
1 *3481:A1 0.000210979
2 *3475:X 0.000210979
3 *3481:A1 *3475:A 0.000652375
4 *3481:A1 *3807:CLK 0.00013664
5 *3481:A1 *610:12 0.000136877
6 *3481:A1 *610:23 0.000369162
*RES
1 *3475:X *3481:A1 15.15 
*END

*D_NET *398 0.00125568
*CONN
*I *3477:A2 I *D sky130_fd_sc_hd__o21a_2
*I *3476:X O *D sky130_fd_sc_hd__mux4_2
*CAP
1 *3477:A2 0.000377629
2 *3476:X 0.000377629
3 *3477:A2 *3544:A0 4.89395e-05
4 *3477:A2 *3551:A 0
5 *3477:A2 *3568:A0 0.000286066
6 *3477:A2 *3568:A1 1.73074e-05
7 *3477:A2 *3746:S 0
8 *3477:A2 *666:24 3.97211e-05
9 *3477:A2 *729:86 3.18192e-05
10 *3477:A2 *771:10 2.87867e-05
11 *3465:A *3477:A2 4.77769e-05
*RES
1 *3476:X *3477:A2 14.895 
*END

*D_NET *399 0.00255275
*CONN
*I *3481:A2 I *D sky130_fd_sc_hd__a22o_2
*I *3477:X O *D sky130_fd_sc_hd__o21a_2
*CAP
1 *3481:A2 0.000601164
2 *3477:X 0.000601164
3 *3481:A2 *3475:A 0.000166542
4 *3481:A2 *3544:A1 4.77757e-05
5 *3481:A2 *3992:A 3.71991e-05
6 *3481:A2 *4101:A 0.0005044
7 *3481:A2 *610:12 3.61897e-05
8 *3481:A2 *784:10 0.000122797
9 *3465:A *3481:A2 0.000260181
10 *3804:D *3481:A2 0.000175338
*RES
1 *3477:X *3481:A2 21.555 
*END

*D_NET *400 0.00249874
*CONN
*I *3480:A0 I *D sky130_fd_sc_hd__mux2_2
*I *3478:X O *D sky130_fd_sc_hd__mux4_2
*CAP
1 *3480:A0 0.000687871
2 *3478:X 0.000687871
3 *3480:A0 *3478:S0 0.000157919
4 *3480:A0 *3623:S 0.000380875
5 *3480:A0 *3672:A0 3.17252e-05
6 *3480:A0 *3672:S 0
7 *3480:A0 *3673:A 7.23533e-05
8 *3480:A0 *567:8 0.000100749
9 *3480:A0 *835:10 0.000176195
10 *350:57 *3480:A0 0.000203178
*RES
1 *3478:X *3480:A0 20.685 
*END

*D_NET *401 0.0033289
*CONN
*I *3480:A1 I *D sky130_fd_sc_hd__mux2_2
*I *3479:X O *D sky130_fd_sc_hd__mux4_2
*CAP
1 *3480:A1 0.00095181
2 *3479:X 0.00095181
3 *3480:A1 *3479:S0 0
4 *3480:A1 *3484:A1 4.66108e-05
5 *3480:A1 *3484:S 0.0003104
6 *3480:A1 *3499:A 0.000206224
7 *3480:A1 *3623:S 0.000181611
8 *3480:A1 *3707:A 0
9 *3480:A1 *4011:A 0.000203294
10 *3480:A1 *684:31 0.000424138
11 *3480:A1 *719:68 5.30057e-05
*RES
1 *3479:X *3480:A1 23.835 
*END

*D_NET *402 0.00378044
*CONN
*I *3481:B1 I *D sky130_fd_sc_hd__a22o_2
*I *3480:X O *D sky130_fd_sc_hd__mux2_2
*CAP
1 *3481:B1 0.000756996
2 *3480:X 0.000756996
3 *3481:B1 *3598:A 0.000136884
4 *3481:B1 *3623:S 2.75145e-05
5 *3481:B1 *3988:A 0.000206327
6 *3481:B1 *3991:A 8.38761e-05
7 *3481:B1 *3992:A 2.49909e-05
8 *3481:B1 *562:75 0
9 *3481:B1 *610:12 5.16348e-05
10 *3481:B1 *681:58 0
11 *3422:A1 *3481:B1 0.000674557
12 *3422:S *3481:B1 0.000240589
13 *3424:S *3481:B1 0.000116645
14 *3440:A0 *3481:B1 0
15 *3440:A1 *3481:B1 0.000175713
16 *3481:B2 *3481:B1 0.000184733
17 *3864:D *3481:B1 9.23635e-05
18 *347:12 *3481:B1 0
19 *352:73 *3481:B1 0.000250623
*RES
1 *3480:X *3481:B1 29.115 
*END

*D_NET *403 0.00453399
*CONN
*I *3534:C I *D sky130_fd_sc_hd__and3_2
*I *3725:C I *D sky130_fd_sc_hd__and3b_2
*I *3656:B I *D sky130_fd_sc_hd__and3b_2
*I *3483:C_N I *D sky130_fd_sc_hd__nor3b_4
*I *3482:X O *D sky130_fd_sc_hd__and4bb_2
*CAP
1 *3534:C 2.701e-05
2 *3725:C 0.000100757
3 *3656:B 0.000218074
4 *3483:C_N 2.24179e-05
5 *3482:X 8.3908e-05
6 *403:36 0.000687364
7 *403:17 0.000777671
8 *403:8 0.000106326
9 *3483:C_N *869:20 4.66108e-05
10 *3656:B *3656:C 6.4609e-05
11 *3656:B *3657:A 0.000402389
12 *3656:B *707:33 4.48033e-05
13 *3725:C *3534:A 4.60123e-05
14 *3725:C *3535:A 5.17132e-05
15 *3725:C *3725:A_N 0.000140567
16 *403:8 *869:14 8.65961e-05
17 *403:8 *869:20 2.28628e-05
18 *403:36 *3535:A 3.51072e-05
19 *403:36 *3657:A 0.000341019
20 *403:36 *3725:A_N 0
21 *403:36 *703:61 0
22 *3448:A1 *3656:B 0.000160658
23 *3448:A1 *403:36 0.00101922
24 *3708:B *3656:B 4.82919e-05
*RES
1 *3482:X *403:8 3.1 
2 *403:8 *3483:C_N 2.05 
3 *403:8 *403:17 2 
4 *403:17 *3656:B 9.405 
5 *403:17 *403:36 15.575 
6 *403:36 *3725:C 4.2175 
7 *403:36 *3534:C 2.215 
*END

*D_NET *404 0.0136982
*CONN
*I *3498:S I *D sky130_fd_sc_hd__mux2_2
*I *3484:S I *D sky130_fd_sc_hd__mux2_2
*I *3486:S I *D sky130_fd_sc_hd__mux2_2
*I *4086:A I *D sky130_fd_sc_hd__clkbuf_2
*I *3496:S I *D sky130_fd_sc_hd__mux2_2
*I *3483:Y O *D sky130_fd_sc_hd__nor3b_4
*CAP
1 *3498:S 0.000685739
2 *3484:S 0.00187727
3 *3486:S 2.58183e-05
4 *4086:A 0.000158728
5 *3496:S 0
6 *3483:Y 2.95327e-05
7 *404:40 0.00280352
8 *404:14 0.000582179
9 *404:8 0.00203915
10 *3484:S *3623:S 0.00111753
11 *3484:S *623:28 0.00042195
12 *3486:S *507:46 7.23533e-05
13 *3486:S *623:22 2.92496e-05
14 *3486:S *633:25 2.34345e-05
15 *3498:S *3484:A0 9.50342e-06
16 *3498:S *3498:A0 1.14192e-05
17 *3498:S *3499:A 7.6952e-05
18 *3498:S *3706:A0 7.06238e-05
19 *3498:S *3706:S 0.000181006
20 *3498:S *3707:A 0
21 *3498:S *583:10 0.000419428
22 *4086:A *3497:A 0
23 *4086:A *705:10 3.64998e-06
24 *404:8 *3656:A_N 9.54469e-05
25 *404:8 *3766:CLK 4.76659e-05
26 *404:14 *3496:A1 0.00019017
27 *404:14 *3605:A 8.07785e-05
28 *404:14 *3622:C 0.000226841
29 *404:14 *3656:A_N 5.39961e-05
30 *404:14 *3766:CLK 0.000177649
31 *404:14 *663:16 0
32 *404:14 *705:10 0
33 *404:14 *705:32 0
34 *404:14 *705:60 0
35 *404:40 *3608:A0 0.000119756
36 *404:40 *4081:A 2.76356e-05
37 *404:40 *507:46 0.000153794
38 *404:40 *623:22 7.23602e-05
39 *404:40 *633:25 4.92206e-05
40 *404:40 *665:12 0.000314209
41 *404:40 *669:14 0.000116912
42 *404:40 *669:24 1.34594e-05
43 *404:40 *707:33 3.18249e-05
44 *3440:A1 *3498:S 0.000888641
45 *3448:A1 *4086:A 0
46 *3480:A1 *3484:S 0.0003104
47 *3833:D *3484:S 8.84163e-05
*RES
1 *3483:Y *404:8 4.725 
2 *404:8 *404:14 11.255 
3 *404:14 *3496:S 1.6 
4 *404:14 *4086:A 8.195 
5 *404:8 *404:40 28.42 
6 *404:40 *3486:S 4.47 
7 *404:40 *3484:S 24.525 
8 *3484:S *3498:S 24.525 
*END

*D_NET *405 0.00217803
*CONN
*I *3485:A I *D sky130_fd_sc_hd__buf_1
*I *3484:X O *D sky130_fd_sc_hd__mux2_2
*CAP
1 *3485:A 0.000746064
2 *3484:X 0.000746064
3 *3485:A *3420:S0 9.01848e-05
4 *3485:A *3484:A0 0
5 *3485:A *3484:A1 0
6 *3485:A *3623:S 4.82919e-05
7 *3485:A *3692:A1 0.000124934
8 *3485:A *3856:CLK 8.51879e-05
9 *3485:A *3864:CLK 0.000114649
10 *3485:A *625:50 0
11 *3485:A *684:27 0
12 *3485:A *684:31 0
13 *3440:A1 *3485:A 0
14 *3856:D *3485:A 0.000222659
*RES
1 *3484:X *3485:A 21.42 
*END

*D_NET *406 0.000699182
*CONN
*I *3487:A I *D sky130_fd_sc_hd__buf_1
*I *3486:X O *D sky130_fd_sc_hd__mux2_2
*CAP
1 *3487:A 0.000295077
2 *3486:X 0.000295077
3 *3487:A *3430:A0 2.84224e-05
4 *3487:A *3976:A 0
5 *3487:A *488:27 4.38278e-05
6 *3487:A *593:24 0
7 *3487:A *633:25 0
8 *3487:A *797:10 0
9 *3431:A2 *3487:A 3.67779e-05
*RES
1 *3486:X *3487:A 11.76 
*END

*D_NET *407 0.00141333
*CONN
*I *3489:A I *D sky130_fd_sc_hd__buf_1
*I *3488:X O *D sky130_fd_sc_hd__mux2_2
*CAP
1 *3489:A 0.00028016
2 *3488:X 0.00028016
3 *3489:A *3438:A0 0.000244274
4 *3489:A *3488:A0 0.000243165
5 *3489:A *3488:A1 5.73739e-05
6 *3489:A *798:8 0.000308194
*RES
1 *3488:X *3489:A 14.4 
*END

*D_NET *408 0.00212486
*CONN
*I *3491:A I *D sky130_fd_sc_hd__buf_1
*I *3490:X O *D sky130_fd_sc_hd__mux2_2
*CAP
1 *3491:A 0.0004318
2 *3490:X 0.0004318
3 *3491:A *3763:CLK 0.000102834
4 *3491:A *619:21 6.02273e-05
5 *3491:A *632:14 0.00066165
6 *3763:D *3491:A 0
7 *3819:D *3491:A 0.000433584
8 *4060:A *3491:A 2.97004e-06
*RES
1 *3490:X *3491:A 18.93 
*END

*D_NET *409 0.000555383
*CONN
*I *3493:A I *D sky130_fd_sc_hd__buf_1
*I *3492:X O *D sky130_fd_sc_hd__mux2_2
*CAP
1 *3493:A 6.25238e-05
2 *3492:X 6.25238e-05
3 *3493:A *3492:A1 0.000241483
4 *3493:A *633:21 0.000188852
*RES
1 *3492:X *3493:A 5.99 
*END

*D_NET *410 0.000248617
*CONN
*I *3495:A I *D sky130_fd_sc_hd__buf_1
*I *3494:X O *D sky130_fd_sc_hd__mux2_2
*CAP
1 *3495:A 7.71824e-05
2 *3494:X 7.71824e-05
3 *3495:A *634:10 9.42517e-05
4 *3495:A *672:32 0
*RES
1 *3494:X *3495:A 8.835 
*END

*D_NET *411 0.000484536
*CONN
*I *3497:A I *D sky130_fd_sc_hd__buf_1
*I *3496:X O *D sky130_fd_sc_hd__mux2_2
*CAP
1 *3497:A 0.000160621
2 *3496:X 0.000160621
3 *3497:A *663:16 0
4 *3497:A *672:14 0.000163293
5 *4086:A *3497:A 0
*RES
1 *3496:X *3497:A 10.32 
*END

*D_NET *412 0.00134236
*CONN
*I *3499:A I *D sky130_fd_sc_hd__buf_1
*I *3498:X O *D sky130_fd_sc_hd__mux2_2
*CAP
1 *3499:A 0.000480265
2 *3498:X 0.000480265
3 *3499:A *3479:S0 0
4 *3499:A *3498:A0 2.49909e-05
5 *3499:A *719:68 7.3664e-05
6 *3480:A1 *3499:A 0.000206224
7 *3498:S *3499:A 7.6952e-05
*RES
1 *3498:X *3499:A 14.52 
*END

*D_NET *413 0.0253994
*CONN
*I *3513:S I *D sky130_fd_sc_hd__mux2_2
*I *3503:S I *D sky130_fd_sc_hd__mux2_2
*I *3505:S I *D sky130_fd_sc_hd__mux2_2
*I *3515:S I *D sky130_fd_sc_hd__mux2_2
*I *3509:S I *D sky130_fd_sc_hd__mux2_2
*I *3501:S I *D sky130_fd_sc_hd__mux2_2
*I *3507:S I *D sky130_fd_sc_hd__mux2_2
*I *3511:S I *D sky130_fd_sc_hd__mux2_2
*I *3500:X O *D sky130_fd_sc_hd__and4bb_2
*CAP
1 *3513:S 0
2 *3503:S 0
3 *3505:S 7.6126e-05
4 *3515:S 2.66909e-05
5 *3509:S 0.000405309
6 *3501:S 0.000178647
7 *3507:S 1.55345e-05
8 *3511:S 0.00163928
9 *3500:X 0.00203867
10 *413:112 0.000804122
11 *413:108 0.000940456
12 *413:91 0.00263325
13 *413:85 0.00275682
14 *413:75 0.00195721
15 *413:54 0.00157771
16 *3501:S *3518:S 4.91189e-05
17 *3505:S *3434:A2 0.000196045
18 *3507:S *3507:A0 5.83121e-06
19 *3507:S *3507:A1 4.66108e-05
20 *3507:S *620:22 1.08758e-05
21 *3509:S *3516:A 0
22 *3509:S *3532:A1 0.000116158
23 *3509:S *3887:CLK 0.000186787
24 *3509:S *4047:A 0.000706417
25 *3509:S *720:16 0
26 *3511:S *3460:S 0
27 *3511:S *3472:A1 7.06865e-05
28 *3511:S *3517:D 5.53249e-06
29 *3511:S *3571:A 0
30 *3511:S *3754:A1 0.00016031
31 *3511:S *562:37 0.000149462
32 *3511:S *630:16 8.78813e-05
33 *3511:S *681:44 3.93101e-05
34 *3511:S *727:22 0.000178465
35 *3515:S *3515:A0 0.000122797
36 *3515:S *720:23 6.92853e-05
37 *413:54 *3442:A2 0.000297332
38 *413:54 *3442:S0 0.000309986
39 *413:54 *3517:B 9.47454e-05
40 *413:54 *3517:D 0.000114492
41 *413:54 *3734:A 5.36975e-06
42 *413:54 *422:10 2.50967e-05
43 *413:54 *535:26 0.000178341
44 *413:54 *620:22 3.57349e-05
45 *413:54 *620:33 2.92496e-05
46 *413:54 *687:78 4.76051e-05
47 *413:75 *3466:S0 0.000165048
48 *413:75 *3473:A1 6.1357e-05
49 *413:75 *3507:A0 2.75145e-05
50 *413:75 *3601:S 0.00063418
51 *413:75 *461:168 0.000452057
52 *413:75 *620:33 0.00023102
53 *413:75 *620:42 0.000293692
54 *413:75 *620:70 9.73562e-05
55 *413:75 *751:10 9.17274e-05
56 *413:85 *3428:S 0.000233561
57 *413:85 *3503:A0 0.000118081
58 *413:85 *3513:A1 8.49205e-05
59 *413:85 *3514:A 8.57024e-05
60 *413:85 *4026:A 8.34281e-06
61 *413:85 *580:8 0.00022786
62 *413:85 *624:42 1.91597e-05
63 *413:91 *3503:A0 4.82863e-05
64 *413:91 *3540:A0 4.77719e-05
65 *413:91 *3540:A1 0.000135199
66 *413:91 *3540:S 0.000616046
67 *413:91 *3541:A 0.000129837
68 *413:91 *3967:A 0.000122797
69 *413:91 *624:42 2.75145e-05
70 *413:91 *624:48 9.27495e-05
71 *413:108 *3518:S 0
72 *413:108 *3522:A1 7.1624e-05
73 *413:108 *3744:S 0.000405566
74 *413:108 *3872:CLK 7.76471e-05
75 *413:108 *4011:A 1.31816e-05
76 *413:108 *544:78 0.000120069
77 *413:112 *3532:A1 0.000225175
78 *413:112 *4047:A 6.73424e-05
79 *413:112 *544:78 0
80 *413:112 *668:51 0
81 *413:112 *720:10 0
82 *413:112 *720:16 0
83 *3433:A2 *413:85 0.000176994
84 *3464:A1 *3511:S 0.000383062
85 *3472:A2 *3511:S 6.97118e-05
86 *3473:B1_N *413:54 0
87 *3473:B1_N *413:75 0.000318905
88 *3517:C *413:54 0.000135568
89 *3774:D *413:85 0.000159325
90 *3875:D *413:54 0.00028011
91 *202:78 *3511:S 0.000226848
92 *352:44 *3511:S 0.000195671
93 *352:50 *3511:S 3.14927e-05
*RES
1 *3500:X *3511:S 38.54 
2 *3500:X *413:54 17.03 
3 *413:54 *3507:S 2.05 
4 *413:54 *413:75 30.79 
5 *413:75 *413:85 14.745 
6 *413:85 *413:91 27.99 
7 *413:91 *3501:S 8.12 
8 *413:91 *413:108 12.56 
9 *413:108 *413:112 7.185 
10 *413:112 *3509:S 13.95 
11 *413:112 *3515:S 4.74 
12 *413:108 *3505:S 5.43 
13 *413:85 *3503:S 1.6 
14 *413:75 *3513:S 1.6 
*END

*D_NET *414 0.000192535
*CONN
*I *3502:A I *D sky130_fd_sc_hd__buf_2
*I *3501:X O *D sky130_fd_sc_hd__mux2_2
*CAP
1 *3502:A 9.62676e-05
2 *3501:X 9.62676e-05
*RES
1 *3501:X *3502:A 4.61 
*END

*D_NET *415 0.00106312
*CONN
*I *3504:A I *D sky130_fd_sc_hd__buf_2
*I *3503:X O *D sky130_fd_sc_hd__mux2_2
*CAP
1 *3504:A 0.00018693
2 *3503:X 0.00018693
3 *3504:A *3435:S0 0.000121039
4 *3504:A *3521:A 4.17561e-05
5 *3504:A *3540:S 0.000179928
6 *3504:A *3793:CLK 3.77199e-05
7 *3504:A *624:48 0.000308811
*RES
1 *3503:X *3504:A 13.035 
*END

*D_NET *416 0.00105464
*CONN
*I *3506:A I *D sky130_fd_sc_hd__buf_2
*I *3505:X O *D sky130_fd_sc_hd__mux2_2
*CAP
1 *3506:A 0.000379512
2 *3505:X 0.000379512
3 *3506:A *3770:CLK 4.77807e-05
4 *3506:A *750:12 0.000100766
5 *3770:D *3506:A 0.000147071
*RES
1 *3505:X *3506:A 13.845 
*END

*D_NET *417 0.000769268
*CONN
*I *3508:A I *D sky130_fd_sc_hd__buf_2
*I *3507:X O *D sky130_fd_sc_hd__mux2_2
*CAP
1 *3508:A 0.000318542
2 *3507:X 0.000318542
3 *3508:A *662:34 0.000124895
4 *3508:A *666:16 0
5 *3771:D *3508:A 7.28902e-06
6 *26:22 *3508:A 0
*RES
1 *3507:X *3508:A 11.1412 
*END

*D_NET *418 0.00181656
*CONN
*I *3510:A I *D sky130_fd_sc_hd__buf_2
*I *3509:X O *D sky130_fd_sc_hd__mux2_2
*CAP
1 *3510:A 0.000433569
2 *3509:X 0.000433569
3 *3510:A *4047:A 0
4 *3510:A *4107:A 0
5 *3510:A *609:60 0
6 *3772:D *3510:A 0.000607173
7 *3884:D *3510:A 0.000342247
*RES
1 *3509:X *3510:A 17.445 
*END

*D_NET *419 0.00136536
*CONN
*I *3512:A I *D sky130_fd_sc_hd__buf_2
*I *3511:X O *D sky130_fd_sc_hd__mux2_2
*CAP
1 *3512:A 0.000238967
2 *3511:X 0.000238967
3 *3512:A *4008:A 0.000445371
4 *3512:A *461:53 0.000269277
5 *3512:A *576:12 4.99619e-05
6 *3512:A *668:20 0.000122817
*RES
1 *3511:X *3512:A 14.505 
*END

*D_NET *420 0.000229867
*CONN
*I *3514:A I *D sky130_fd_sc_hd__buf_2
*I *3513:X O *D sky130_fd_sc_hd__mux2_2
*CAP
1 *3514:A 7.20821e-05
2 *3513:X 7.20821e-05
3 *413:85 *3514:A 8.57024e-05
*RES
1 *3513:X *3514:A 4.61 
*END

*D_NET *421 0.00114863
*CONN
*I *3516:A I *D sky130_fd_sc_hd__buf_2
*I *3515:X O *D sky130_fd_sc_hd__mux2_2
*CAP
1 *3516:A 0.000471694
2 *3515:X 0.000471694
3 *3516:A *3533:A 0
4 *3516:A *3783:CLK 0
5 *3516:A *3887:CLK 0
6 *3516:A *4098:A 3.38262e-05
7 *3516:A *4104:A 0
8 *3516:A *720:16 5.37518e-05
9 *3509:S *3516:A 0
10 *3775:D *3516:A 0.000117659
*RES
1 *3515:X *3516:A 15.27 
*END

*D_NET *422 0.0102183
*CONN
*I *3524:S I *D sky130_fd_sc_hd__mux2_2
*I *3530:S I *D sky130_fd_sc_hd__mux2_2
*I *3520:S I *D sky130_fd_sc_hd__mux2_2
*I *4084:A I *D sky130_fd_sc_hd__buf_2
*I *3517:Y O *D sky130_fd_sc_hd__nand4b_1
*CAP
1 *3524:S 0
2 *3530:S 0.000473162
3 *3520:S 0.000756918
4 *4084:A 3.12221e-05
5 *3517:Y 0.000313862
6 *422:39 0.00201272
7 *422:29 0.00115333
8 *422:10 0.000715779
9 *3520:S *3476:S0 3.09257e-05
10 *3520:S *3729:A1 0.000780343
11 *3520:S *3729:S 0.00029121
12 *3520:S *588:22 3.62299e-05
13 *3520:S *588:42 5.01076e-05
14 *3520:S *699:52 0.000102454
15 *3530:S *3466:A2 0.000163985
16 *3530:S *4100:A 0
17 *3530:S *452:117 0
18 *3530:S *587:10 0
19 *3530:S *587:12 0
20 *3530:S *754:10 0.000136877
21 *4084:A *3734:A 4.33601e-05
22 *4084:A *535:26 4.77769e-05
23 *422:10 *3517:A_N 4.82863e-05
24 *422:10 *3517:D 3.05373e-05
25 *422:10 *3571:A 5.83121e-06
26 *422:10 *3875:CLK 0.000173792
27 *422:10 *535:18 0
28 *422:10 *535:26 1.64067e-05
29 *422:10 *687:78 9.53328e-05
30 *422:29 *3442:A3 0.000144227
31 *422:29 *3524:A1 0.000144558
32 *422:29 *3875:CLK 0.000195233
33 *422:29 *535:26 0.00105212
34 *422:29 *620:22 0.000116158
35 *422:29 *666:10 1.91597e-05
36 *422:39 *3524:A1 4.82863e-05
37 *422:39 *3578:A0 4.75977e-05
38 *422:39 *452:111 0.00011192
39 *422:39 *461:168 0.000502803
40 *422:39 *666:10 0.000142327
41 *422:39 *777:12 4.40643e-05
42 *3517:C *422:10 4.41506e-05
43 *3803:D *422:39 4.83032e-05
44 *3811:D *422:39 0
45 *3875:D *422:10 2.18022e-05
46 *26:20 *3530:S 0
47 *26:22 *422:39 0
48 *413:54 *422:10 2.50967e-05
*RES
1 *3517:Y *422:10 8.685 
2 *422:10 *4084:A 4.395 
3 *422:10 *422:29 15.35 
4 *422:29 *422:39 17.225 
5 *422:39 *3520:S 23.395 
6 *422:39 *3530:S 11.865 
7 *422:29 *3524:S 1.6 
*END

*D_NET *423 0.00030506
*CONN
*I *3519:A I *D sky130_fd_sc_hd__buf_1
*I *3518:X O *D sky130_fd_sc_hd__mux2_2
*CAP
1 *3519:A 0.000138181
2 *3518:X 0.000138181
3 *3776:D *3519:A 2.86975e-05
*RES
1 *3518:X *3519:A 5.3 
*END

*D_NET *424 0.000744648
*CONN
*I *3521:A I *D sky130_fd_sc_hd__buf_1
*I *3520:X O *D sky130_fd_sc_hd__mux2_2
*CAP
1 *3521:A 0.00017843
2 *3520:X 0.00017843
3 *3521:A *3540:S 0.000111607
4 *3521:A *3786:CLK 0.000122817
5 *3504:A *3521:A 4.17561e-05
6 *3769:D *3521:A 0.000111607
*RES
1 *3520:X *3521:A 10.7925 
*END

*D_NET *425 0.000178443
*CONN
*I *3523:A I *D sky130_fd_sc_hd__buf_1
*I *3522:X O *D sky130_fd_sc_hd__mux2_2
*CAP
1 *3523:A 8.92216e-05
2 *3522:X 8.92216e-05
*RES
1 *3522:X *3523:A 4.61 
*END

*D_NET *426 0.000945767
*CONN
*I *3525:A I *D sky130_fd_sc_hd__buf_1
*I *3524:X O *D sky130_fd_sc_hd__mux2_2
*CAP
1 *3525:A 0.000312054
2 *3524:X 0.000312054
3 *3525:A *666:10 0.000311294
4 *3525:A *666:16 0
5 *26:22 *3525:A 1.03663e-05
*RES
1 *3524:X *3525:A 11.7 
*END

*D_NET *427 0.00198703
*CONN
*I *3527:A I *D sky130_fd_sc_hd__buf_1
*I *3526:X O *D sky130_fd_sc_hd__mux2_2
*CAP
1 *3527:A 0.000735087
2 *3526:X 0.000735087
3 *3527:A *3780:CLK 0
4 *3527:A *4107:A 0.000341559
5 *3527:A *4108:A 0
6 *3527:A *609:25 8.35106e-05
7 *3772:D *3527:A 4.89295e-05
8 *3780:D *3527:A 4.2857e-05
*RES
1 *3526:X *3527:A 19.86 
*END

*D_NET *428 0.000252381
*CONN
*I *3529:A I *D sky130_fd_sc_hd__buf_1
*I *3528:X O *D sky130_fd_sc_hd__mux2_2
*CAP
1 *3529:A 0.000104634
2 *3528:X 0.000104634
3 *3529:A *668:12 4.31127e-05
*RES
1 *3528:X *3529:A 4.955 
*END

*D_NET *429 0.000194043
*CONN
*I *3531:A I *D sky130_fd_sc_hd__buf_1
*I *3530:X O *D sky130_fd_sc_hd__mux2_2
*CAP
1 *3531:A 7.69617e-05
2 *3530:X 7.69617e-05
3 *3531:A *688:51 3.31103e-05
4 *3782:D *3531:A 7.00889e-06
*RES
1 *3530:X *3531:A 4.61 
*END

*D_NET *430 0.00103654
*CONN
*I *3533:A I *D sky130_fd_sc_hd__buf_1
*I *3532:X O *D sky130_fd_sc_hd__mux2_2
*CAP
1 *3533:A 0.000398837
2 *3532:X 0.000398837
3 *3533:A *4104:A 0.000139245
4 *3533:A *720:16 0
5 *3516:A *3533:A 0
6 *3783:D *3533:A 1.08758e-05
7 *4064:A *3533:A 8.87475e-05
*RES
1 *3532:X *3533:A 13.245 
*END

*D_NET *431 0.000963857
*CONN
*I *3535:A I *D sky130_fd_sc_hd__clkbuf_1
*I *3534:X O *D sky130_fd_sc_hd__and3_2
*CAP
1 *3535:A 0.000303669
2 *3534:X 0.000303669
3 *3535:A *3534:A 8.49205e-05
4 *3535:A *3725:A_N 1.75281e-05
5 *3535:A *3726:A 0
6 *3535:A *432:20 5.53549e-06
7 *3535:A *461:26 7.01359e-05
8 *3535:A *562:347 0
9 *3725:C *3535:A 5.17132e-05
10 *352:34 *3535:A 9.15784e-05
11 *403:36 *3535:A 3.51072e-05
*RES
1 *3534:X *3535:A 11.79 
*END

*D_NET *432 0.0159229
*CONN
*I *4083:A I *D sky130_fd_sc_hd__clkbuf_2
*I *3546:S I *D sky130_fd_sc_hd__mux2_2
*I *3540:S I *D sky130_fd_sc_hd__mux2_2
*I *3550:S I *D sky130_fd_sc_hd__mux2_2
*I *3544:S I *D sky130_fd_sc_hd__mux2_2
*I *3535:X O *D sky130_fd_sc_hd__clkbuf_1
*CAP
1 *4083:A 0.000128727
2 *3546:S 0
3 *3540:S 0.00100484
4 *3550:S 5.10952e-05
5 *3544:S 0.000246325
6 *3535:X 0.00203584
7 *432:47 0.00110378
8 *432:34 0.00108953
9 *432:30 0.0022384
10 *432:20 0.00360761
11 *3540:S *3746:A1 7.755e-05
12 *3540:S *3746:S 0.000568635
13 *3540:S *3813:CLK 0
14 *3540:S *4095:A 0
15 *3540:S *562:162 8.41015e-06
16 *3540:S *624:48 4.58262e-06
17 *3540:S *624:50 4.4579e-05
18 *3544:S *3477:A1 8.52972e-05
19 *3544:S *3544:A1 4.89395e-05
20 *3544:S *3545:A 7.41855e-05
21 *3544:S *3550:A1 5.23362e-05
22 *3544:S *3746:S 0.00055087
23 *3544:S *611:47 4.98438e-05
24 *3544:S *611:49 0.000180348
25 *3550:S *3476:S0 2.77283e-05
26 *4083:A *3985:A 0
27 *4083:A *442:14 0
28 *432:20 *461:26 3.30665e-05
29 *432:20 *562:329 1.70935e-05
30 *432:20 *562:347 1.03833e-05
31 *432:20 *683:59 0
32 *432:30 *3459:S1 9.6949e-06
33 *432:30 *3546:A0 2.05056e-05
34 *432:30 *3565:A 4.82919e-05
35 *432:30 *3750:S 0
36 *432:34 *3547:A 7.76937e-05
37 *432:34 *3550:A1 2.49909e-05
38 *432:34 *3565:A 0.000265651
39 *432:34 *461:57 0.000526591
40 *432:47 *3550:A1 0.000139245
41 *432:47 *3746:S 0.000152821
42 *432:47 *4095:A 0
43 *3448:A0 *432:20 0.000147931
44 *3460:A1 *432:30 1.79483e-05
45 *3465:A *3544:S 1.74678e-05
46 *3504:A *3540:S 0.000179928
47 *3521:A *3540:S 0.000111607
48 *3535:A *432:20 5.53549e-06
49 *3769:D *3540:S 8.82872e-05
50 *3777:D *3540:S 0.000101469
51 *352:34 *432:20 3.12319e-05
52 *413:91 *3540:S 0.000616046
*RES
1 *3535:X *432:20 8.46283 
2 *432:20 *432:30 6.1875 
3 *432:30 *432:34 15.56 
4 *432:34 *3544:S 11.565 
5 *432:34 *432:47 1.89 
6 *432:47 *3550:S 4.395 
7 *432:47 *3540:S 26.205 
8 *432:30 *3546:S 1.6 
9 *432:20 *4083:A 6.1175 
*END

*D_NET *433 0.000874065
*CONN
*I *3537:A I *D sky130_fd_sc_hd__buf_1
*I *3536:X O *D sky130_fd_sc_hd__mux2_2
*CAP
1 *3537:A 0.000144692
2 *3536:X 0.000144692
3 *3537:A *3417:A0 4.15401e-05
4 *3537:A *3417:A1 0.00016031
5 *3537:A *3554:A0 2.92496e-05
6 *3537:A *3555:A 0
7 *3537:A *686:122 0.000176202
8 *3537:A *772:10 8.5242e-05
9 *3784:D *3537:A 9.21373e-05
*RES
1 *3536:X *3537:A 11.1375 
*END

*D_NET *434 0.00187571
*CONN
*I *3539:A I *D sky130_fd_sc_hd__buf_1
*I *3538:X O *D sky130_fd_sc_hd__mux2_2
*CAP
1 *3539:A 0.000483242
2 *3538:X 0.000483242
3 *3539:A *3426:S0 0.00011852
4 *3539:A *3427:S1 0
5 *3539:A *3538:A0 1.1561e-05
6 *3539:A *3556:A0 0
7 *3539:A *3556:S 0.000207954
8 *3539:A *3972:A 0.000332114
9 *3539:A *4077:A 0
10 *3539:A *694:8 0
11 *3539:A *765:10 0.000123985
12 *3785:D *3539:A 0.000115095
*RES
1 *3538:X *3539:A 18.495 
*END

*D_NET *435 0.00132486
*CONN
*I *3541:A I *D sky130_fd_sc_hd__buf_1
*I *3540:X O *D sky130_fd_sc_hd__mux2_2
*CAP
1 *3541:A 0.000323062
2 *3540:X 0.000323062
3 *3541:A *3540:A0 0.000413314
4 *3541:A *3554:S 0
5 *3541:A *3558:A0 0.000135589
6 *413:91 *3541:A 0.000129837
*RES
1 *3540:X *3541:A 14.415 
*END

*D_NET *436 0.00115492
*CONN
*I *3543:A I *D sky130_fd_sc_hd__buf_1
*I *3542:X O *D sky130_fd_sc_hd__mux2_2
*CAP
1 *3543:A 0.000354061
2 *3542:X 0.000354061
3 *3543:A *3443:S0 9.49848e-05
4 *3543:A *3443:S1 0.00015575
5 *3543:A *602:21 0
6 *3543:A *699:52 0.00019606
*RES
1 *3542:X *3543:A 13.935 
*END

*D_NET *437 0.00107769
*CONN
*I *3545:A I *D sky130_fd_sc_hd__buf_1
*I *3544:X O *D sky130_fd_sc_hd__mux2_2
*CAP
1 *3545:A 0.00012754
2 *3544:X 0.00012754
3 *3545:A *3746:S 0.000308393
4 *3545:A *3788:CLK 0.000201319
5 *3545:A *611:49 0.000192107
6 *3465:A *3545:A 4.66108e-05
7 *3544:S *3545:A 7.41855e-05
*RES
1 *3544:X *3545:A 12.345 
*END

*D_NET *438 0.000187296
*CONN
*I *3547:A I *D sky130_fd_sc_hd__buf_1
*I *3546:X O *D sky130_fd_sc_hd__mux2_2
*CAP
1 *3547:A 1.59545e-05
2 *3546:X 1.59545e-05
3 *3547:A *3565:A 7.76937e-05
4 *432:34 *3547:A 7.76937e-05
*RES
1 *3546:X *3547:A 3.9275 
*END

*D_NET *439 0.00143846
*CONN
*I *3549:A I *D sky130_fd_sc_hd__buf_1
*I *3548:X O *D sky130_fd_sc_hd__mux2_2
*CAP
1 *3549:A 0.000716317
2 *3548:X 0.000716317
3 *3549:A *635:10 5.83121e-06
*RES
1 *3548:X *3549:A 18.21 
*END

*D_NET *440 0.00154452
*CONN
*I *3551:A I *D sky130_fd_sc_hd__buf_1
*I *3550:X O *D sky130_fd_sc_hd__mux2_2
*CAP
1 *3551:A 0.000410441
2 *3550:X 0.000410441
3 *3551:A *3568:A0 4.82919e-05
4 *3551:A *3569:A 8.52845e-05
5 *3551:A *3746:S 0.000152781
6 *3551:A *662:34 0.000142905
7 *3551:A *666:16 0.000198939
8 *3551:A *771:10 9.54399e-05
9 *3551:A *779:10 0
10 *3477:A2 *3551:A 0
*RES
1 *3550:X *3551:A 16.485 
*END

*D_NET *441 0.00123259
*CONN
*I *3553:A I *D sky130_fd_sc_hd__clkbuf_1
*I *3552:X O *D sky130_fd_sc_hd__and4b_2
*CAP
1 *3553:A 0.000210045
2 *3552:X 0.000210045
3 *3553:A *683:59 9.76456e-05
4 *3553:A *703:61 4.77719e-05
5 *3553:A *726:31 0.000269292
6 *3448:A1 *3553:A 0.000336536
7 *173:10 *3553:A 6.12586e-05
*RES
1 *3552:X *3553:A 13.65 
*END

*D_NET *442 0.0146211
*CONN
*I *4082:A I *D sky130_fd_sc_hd__buf_2
*I *3566:S I *D sky130_fd_sc_hd__mux2_2
*I *3556:S I *D sky130_fd_sc_hd__mux2_2
*I *3560:S I *D sky130_fd_sc_hd__mux2_2
*I *3553:X O *D sky130_fd_sc_hd__clkbuf_1
*CAP
1 *4082:A 0
2 *3566:S 0.000487117
3 *3556:S 0.00164182
4 *3560:S 6.70635e-05
5 *3553:X 0.00123779
6 *442:37 0.00288719
7 *442:24 0.00121732
8 *442:14 0.00162979
9 *3556:S *3556:A0 0.000242695
10 *3556:S *3557:A 0.000269339
11 *3556:S *3585:A 0.000122801
12 *3556:S *3601:A1 1.54665e-05
13 *3556:S *3601:S 0.000311374
14 *3556:S *3602:A 2.69217e-05
15 *3556:S *765:10 3.42902e-05
16 *3560:S *620:70 8.41307e-05
17 *3566:S *3467:A0 2.01504e-05
18 *3566:S *3467:A1 4.77757e-05
19 *3566:S *778:14 4.63155e-05
20 *442:14 *3985:A 8.40213e-05
21 *442:14 *4003:A 0
22 *442:14 *602:8 0.000134018
23 *442:14 *683:59 0
24 *442:14 *727:22 0.000493244
25 *442:24 *3524:A1 1.22676e-05
26 *442:24 *3542:A1 1.10951e-05
27 *442:24 *3560:A0 0.000173302
28 *442:24 *535:26 0
29 *442:24 *666:10 6.69608e-06
30 *442:24 *775:10 0.000113891
31 *442:37 *3443:S1 0
32 *442:37 *3466:A0 9.30787e-05
33 *442:37 *3467:S1 0
34 *442:37 *3542:A1 1.46781e-05
35 *442:37 *3561:A 2.03162e-05
36 *442:37 *3739:S 0
37 *442:37 *3756:A0 0.000139245
38 *442:37 *3790:CLK 0.000331428
39 *442:37 *722:16 0.000146091
40 *442:37 *858:10 0.00015829
41 *3217:A *442:14 0.000140912
42 *3221:A *442:14 8.97486e-05
43 *3444:A1 *442:24 0
44 *3448:A0 *442:14 0
45 *3448:A1 *442:14 9.30717e-05
46 *3468:A0 *442:37 0.000113797
47 *3468:A1 *442:37 0.000120036
48 *3539:A *3556:S 0.000207954
49 *3787:D *442:24 0.00053692
50 *3787:D *442:37 0.000104767
51 *3790:D *3566:S 1.50897e-05
52 *3798:D *3556:S 2.62526e-05
53 *3798:D *3566:S 4.66108e-05
54 *3798:D *442:37 0.000332279
55 *4083:A *442:14 0
56 *352:14 *442:14 0.000472687
*RES
1 *3553:X *442:14 31.67 
2 *442:14 *442:24 11.96 
3 *442:24 *3560:S 4.74 
4 *442:24 *442:37 19.955 
5 *442:37 *3556:S 29.065 
6 *442:37 *3566:S 12.8 
7 *442:14 *4082:A 1.6 
*END

*D_NET *443 0.0012586
*CONN
*I *3555:A I *D sky130_fd_sc_hd__buf_1
*I *3554:X O *D sky130_fd_sc_hd__mux2_2
*CAP
1 *3555:A 0.000395664
2 *3554:X 0.000395664
3 *3555:A *3417:A1 5.44851e-05
4 *3555:A *3554:A0 0
5 *3555:A *3784:CLK 8.53011e-05
6 *3555:A *3792:CLK 8.20849e-06
7 *3555:A *585:18 4.87546e-05
8 *3555:A *585:38 0.000147719
9 *3555:A *686:122 0.000122801
10 *3537:A *3555:A 0
11 *3784:D *3555:A 0
*RES
1 *3554:X *3555:A 15.075 
*END

*D_NET *444 0.00111311
*CONN
*I *3557:A I *D sky130_fd_sc_hd__buf_1
*I *3556:X O *D sky130_fd_sc_hd__mux2_2
*CAP
1 *3557:A 0.000396834
2 *3556:X 0.000396834
3 *3556:S *3557:A 0.000269339
4 *3793:D *3557:A 5.01076e-05
*RES
1 *3556:X *3557:A 12.735 
*END

*D_NET *445 0.000887283
*CONN
*I *3559:A I *D sky130_fd_sc_hd__buf_1
*I *3558:X O *D sky130_fd_sc_hd__mux2_2
*CAP
1 *3559:A 0.000338246
2 *3558:X 0.000338246
3 *3559:A *3434:S0 2.53001e-05
4 *3559:A *3558:A1 9.84609e-06
5 *3559:A *3810:CLK 3.52596e-05
6 *3559:A *622:84 2.99518e-06
7 *3559:A *766:14 0
8 *3810:D *3559:A 0.00013739
*RES
1 *3558:X *3559:A 12.045 
*END

*D_NET *446 0.000499678
*CONN
*I *3561:A I *D sky130_fd_sc_hd__buf_1
*I *3560:X O *D sky130_fd_sc_hd__mux2_2
*CAP
1 *3561:A 0.000102289
2 *3560:X 0.000102289
3 *3561:A *3739:S 1.21188e-05
4 *3561:A *620:70 1.79098e-05
5 *3787:D *3561:A 0.000156791
6 *3795:D *3561:A 8.79638e-05
7 *442:37 *3561:A 2.03162e-05
*RES
1 *3560:X *3561:A 10.05 
*END

*D_NET *447 0.000162061
*CONN
*I *3563:A I *D sky130_fd_sc_hd__buf_1
*I *3562:X O *D sky130_fd_sc_hd__mux2_2
*CAP
1 *3563:A 8.10305e-05
2 *3562:X 8.10305e-05
*RES
1 *3562:X *3563:A 4.2725 
*END

*D_NET *448 0.00164757
*CONN
*I *3565:A I *D sky130_fd_sc_hd__buf_1
*I *3564:X O *D sky130_fd_sc_hd__mux2_2
*CAP
1 *3565:A 0.000296402
2 *3564:X 0.000296402
3 *3565:A *3459:S0 8.65961e-05
4 *3565:A *3459:S1 0.000109198
5 *3565:A *3546:A0 0.000165745
6 *3565:A *724:115 9.8816e-05
7 *3565:A *769:8 2.16389e-05
8 *3460:A1 *3565:A 5.83373e-05
9 *3547:A *3565:A 7.76937e-05
10 *3789:D *3565:A 0.000122797
11 *432:30 *3565:A 4.82919e-05
12 *432:34 *3565:A 0.000265651
*RES
1 *3564:X *3565:A 15.465 
*END

*D_NET *449 0.00107917
*CONN
*I *3567:A I *D sky130_fd_sc_hd__buf_1
*I *3566:X O *D sky130_fd_sc_hd__mux2_2
*CAP
1 *3567:A 0.00037096
2 *3566:X 0.00037096
3 *3567:A *3467:A0 6.21365e-05
4 *3567:A *3467:A1 8.15109e-05
5 *3567:A *3790:CLK 4.23878e-05
6 *3567:A *722:76 0.000151215
*RES
1 *3566:X *3567:A 12.4125 
*END

*D_NET *450 0.000570193
*CONN
*I *3569:A I *D sky130_fd_sc_hd__buf_1
*I *3568:X O *D sky130_fd_sc_hd__mux2_2
*CAP
1 *3569:A 0.000127385
2 *3568:X 0.000127385
3 *3569:A *662:34 0.000230139
4 *3551:A *3569:A 8.52845e-05
*RES
1 *3568:X *3569:A 6.44 
*END

*D_NET *451 0.00179221
*CONN
*I *3571:A I *D sky130_fd_sc_hd__buf_2
*I *3570:X O *D sky130_fd_sc_hd__and4b_2
*CAP
1 *3571:A 0.000560933
2 *3570:X 0.000560933
3 *3571:A *3471:A1 4.21973e-05
4 *3571:A *3517:B 1.34361e-05
5 *3571:A *3517:D 0
6 *3571:A *562:204 4.87759e-05
7 *3571:A *570:10 0.0003056
8 *3571:A *687:78 2.75145e-05
9 *3471:A2 *3571:A 4.82863e-05
10 *3473:B1_N *3571:A 0
11 *3511:S *3571:A 0
12 *3517:C *3571:A 0.000139238
13 *26:22 *3571:A 0
14 *202:78 *3571:A 0
15 *352:34 *3571:A 2.20732e-05
16 *352:44 *3571:A 1.7386e-05
17 *422:10 *3571:A 5.83121e-06
*RES
1 *3570:X *3571:A 17.325 
*END

*D_NET *452 0.0252504
*CONN
*I *3578:S I *D sky130_fd_sc_hd__mux2_2
*I *3574:S I *D sky130_fd_sc_hd__mux2_2
*I *3584:S I *D sky130_fd_sc_hd__mux2_2
*I *3576:S I *D sky130_fd_sc_hd__mux2_2
*I *3572:S I *D sky130_fd_sc_hd__mux2_2
*I *3580:S I *D sky130_fd_sc_hd__mux2_2
*I *3586:S I *D sky130_fd_sc_hd__mux2_2
*I *3582:S I *D sky130_fd_sc_hd__mux2_2
*I *3571:X O *D sky130_fd_sc_hd__buf_2
*CAP
1 *3578:S 0
2 *3574:S 0.00101686
3 *3584:S 3.67371e-05
4 *3576:S 0
5 *3572:S 0.000754938
6 *3580:S 0.000980602
7 *3586:S 0
8 *3582:S 0.000259486
9 *3571:X 0.00101446
10 *452:117 0.00207585
11 *452:111 0.00163159
12 *452:75 0.00114359
13 *452:48 0.0019419
14 *452:37 0.00163942
15 *452:27 0.00216892
16 *452:14 0.00176675
17 *3572:S *3435:A2 2.33079e-05
18 *3572:S *3572:A0 2.88357e-05
19 *3572:S *3576:A0 5.34461e-05
20 *3572:S *3577:A 0.000200738
21 *3572:S *3589:A0 4.89395e-05
22 *3572:S *3727:S 0.000133705
23 *3572:S *3808:CLK 0
24 *3572:S *584:12 0.000687938
25 *3572:S *622:43 8.35118e-05
26 *3572:S *622:63 4.66108e-05
27 *3572:S *626:92 8.53011e-05
28 *3572:S *782:10 6.20358e-05
29 *3574:S *3602:A 0.000114518
30 *3574:S *630:10 4.90227e-05
31 *3574:S *722:33 0
32 *3580:S *3474:S0 2.80139e-05
33 *3580:S *3580:A0 6.00329e-05
34 *3580:S *3581:A 4.65865e-05
35 *3580:S *3587:A 0
36 *3580:S *3735:S 0.000308388
37 *3580:S *3741:A0 0.000115464
38 *3580:S *3807:CLK 0.000135045
39 *3580:S *3996:A 0.000254644
40 *3580:S *461:88 0
41 *3580:S *610:23 8.93583e-05
42 *3580:S *618:6 3.75126e-05
43 *3580:S *618:8 0.000165821
44 *3580:S *662:40 0.000115464
45 *3580:S *662:59 0.000297138
46 *3580:S *720:36 7.23533e-05
47 *3582:S *729:80 0.000209134
48 *3584:S *3584:A0 0.000115898
49 *3584:S *3814:CLK 4.71087e-05
50 *452:14 *3737:A1 4.99619e-05
51 *452:14 *662:34 0
52 *452:14 *687:78 0.000282787
53 *452:14 *729:80 0.000243716
54 *452:14 *865:12 0
55 *452:27 *724:115 0.000238764
56 *452:37 *3433:A1 4.10196e-05
57 *452:37 *3586:A0 4.82299e-05
58 *452:37 *3599:A1 2.97004e-06
59 *452:37 *461:143 3.1835e-05
60 *452:37 *586:10 1.4399e-05
61 *452:37 *586:32 7.23833e-05
62 *452:37 *630:16 0
63 *452:37 *686:22 0.00134153
64 *452:37 *779:10 6.77162e-05
65 *452:48 *3586:A0 8.12896e-06
66 *452:48 *3586:A1 4.77757e-05
67 *452:48 *3587:A 1.42449e-05
68 *452:75 *3727:S 3.18965e-05
69 *452:75 *3731:A1 0.000433175
70 *452:75 *3996:A 9.54399e-05
71 *452:75 *461:88 0
72 *452:75 *662:59 0.000161339
73 *452:111 *3578:A1 1.40606e-05
74 *452:111 *777:12 0.000163012
75 *452:117 *3513:A1 0
76 *452:117 *3806:CLK 0
77 *452:117 *3970:A 0.000273555
78 *452:117 *722:33 0
79 *452:117 *754:10 0
80 *3433:A2 *452:37 8.40213e-05
81 *3433:B1_N *452:37 6.24422e-05
82 *3460:A1 *452:14 0
83 *3530:S *452:117 0
84 *3782:D *452:117 0.000319855
85 *3789:D *452:27 0.000182962
86 *3799:D *452:37 0.000226205
87 *3803:D *452:111 5.01003e-05
88 *3806:D *3574:S 7.54589e-05
89 *3806:D *452:117 0.000158578
90 *3807:D *3580:S 0
91 *3808:D *3572:S 7.64046e-05
92 *3814:D *3574:S 6.90757e-05
93 *3877:D *452:14 8.53113e-06
94 *347:12 *3572:S 0
95 *422:39 *452:111 0.00011192
*RES
1 *3571:X *452:14 22.115 
2 *452:14 *3582:S 6.535 
3 *452:14 *452:27 13.795 
4 *452:27 *452:37 26.29 
5 *452:37 *3586:S 1.6 
6 *452:37 *452:48 8.33 
7 *452:48 *3580:S 25.275 
8 *452:48 *452:75 11.285 
9 *452:75 *3572:S 24.305 
10 *452:75 *3576:S 1.6 
11 *452:27 *452:111 14.23 
12 *452:111 *452:117 20.915 
13 *452:117 *3584:S 4.755 
14 *452:117 *3574:S 20.43 
15 *452:111 *3578:S 1.6 
*END

*D_NET *453 0.000442974
*CONN
*I *3573:A I *D sky130_fd_sc_hd__buf_2
*I *3572:X O *D sky130_fd_sc_hd__mux2_2
*CAP
1 *3573:A 0.000163747
2 *3572:X 0.000163747
3 *3573:A *626:92 0.00011548
*RES
1 *3572:X *3573:A 9.6525 
*END

*D_NET *454 0.00110126
*CONN
*I *3575:A I *D sky130_fd_sc_hd__buf_2
*I *3574:X O *D sky130_fd_sc_hd__mux2_2
*CAP
1 *3575:A 0.00055063
2 *3574:X 0.00055063
3 *3575:A *3574:A0 0
*RES
1 *3574:X *3575:A 15.69 
*END

*D_NET *455 0.00136955
*CONN
*I *3577:A I *D sky130_fd_sc_hd__buf_2
*I *3576:X O *D sky130_fd_sc_hd__mux2_2
*CAP
1 *3577:A 0.000335807
2 *3576:X 0.000335807
3 *3572:S *3577:A 0.000200738
4 *347:12 *3577:A 0.000497196
*RES
1 *3576:X *3577:A 15.435 
*END

*D_NET *456 0.000273197
*CONN
*I *3579:A I *D sky130_fd_sc_hd__buf_2
*I *3578:X O *D sky130_fd_sc_hd__mux2_2
*CAP
1 *3579:A 6.77288e-05
2 *3578:X 6.77288e-05
3 *3579:A *3578:A0 5.21533e-05
4 *3579:A *3578:A1 6.44956e-05
5 *3803:D *3579:A 2.10905e-05
*RES
1 *3578:X *3579:A 5.165 
*END

*D_NET *457 0.00029934
*CONN
*I *3581:A I *D sky130_fd_sc_hd__buf_2
*I *3580:X O *D sky130_fd_sc_hd__mux2_2
*CAP
1 *3581:A 6.55472e-05
2 *3580:X 6.55472e-05
3 *3581:A *618:8 0.000121659
4 *3580:S *3581:A 4.65865e-05
*RES
1 *3580:X *3581:A 4.955 
*END

*D_NET *458 0.00218257
*CONN
*I *3583:A I *D sky130_fd_sc_hd__buf_2
*I *3582:X O *D sky130_fd_sc_hd__mux2_2
*CAP
1 *3583:A 0.000299576
2 *3582:X 0.000299576
3 *3583:A *3433:A1 5.7344e-05
4 *3583:A *3476:S0 2.03321e-05
5 *3583:A *3600:A 0.000648848
6 *3583:A *461:53 0.000358944
7 *3583:A *461:143 0.000225394
8 *3583:A *729:86 1.83756e-05
9 *3433:A2 *3583:A 0.000159957
10 *3805:D *3583:A 9.42224e-05
*RES
1 *3582:X *3583:A 18.315 
*END

*D_NET *459 0.000533786
*CONN
*I *3585:A I *D sky130_fd_sc_hd__buf_2
*I *3584:X O *D sky130_fd_sc_hd__mux2_2
*CAP
1 *3585:A 0.000189907
2 *3584:X 0.000189907
3 *3585:A *3814:CLK 3.11716e-05
4 *3556:S *3585:A 0.000122801
*RES
1 *3584:X *3585:A 10.2075 
*END

*D_NET *460 0.000729524
*CONN
*I *3587:A I *D sky130_fd_sc_hd__buf_2
*I *3586:X O *D sky130_fd_sc_hd__mux2_2
*CAP
1 *3587:A 0.000253457
2 *3586:X 0.000253457
3 *3587:A *3474:S0 0
4 *3587:A *461:88 8.42096e-05
5 *3440:A0 *3587:A 7.61604e-05
6 *3580:S *3587:A 0
7 *3815:D *3587:A 4.79946e-05
8 *452:48 *3587:A 1.42449e-05
*RES
1 *3586:X *3587:A 11.76 
*END

*D_NET *461 0.0377807
*CONN
*I *3601:S I *D sky130_fd_sc_hd__mux2_2
*I *3595:S I *D sky130_fd_sc_hd__mux2_2
*I *3599:S I *D sky130_fd_sc_hd__mux2_2
*I *3593:S I *D sky130_fd_sc_hd__mux2_2
*I *3591:S I *D sky130_fd_sc_hd__mux2_2
*I *3589:S I *D sky130_fd_sc_hd__mux2_2
*I *3603:S I *D sky130_fd_sc_hd__mux2_2
*I *3597:S I *D sky130_fd_sc_hd__mux2_2
*I *3588:X O *D sky130_fd_sc_hd__buf_2
*CAP
1 *3601:S 0.000979983
2 *3595:S 0
3 *3599:S 2.08101e-05
4 *3593:S 0
5 *3591:S 0.000750703
6 *3589:S 0.000407776
7 *3603:S 0.000132995
8 *3597:S 0.00107931
9 *3588:X 0.00298954
10 *461:168 0.00195242
11 *461:143 0.00125198
12 *461:98 0.00141835
13 *461:88 0.00176441
14 *461:57 0.00207911
15 *461:53 0.00127452
16 *461:26 0.00464305
17 *3589:S *3416:S0 8.18011e-05
18 *3589:S *3417:A3 0.000250928
19 *3589:S *3589:A1 6.19969e-05
20 *3589:S *3590:A 0
21 *3589:S *584:12 0
22 *3589:S *585:38 0
23 *3589:S *626:55 0.000120655
24 *3589:S *686:122 8.08153e-06
25 *3591:S *3592:A 2.75229e-05
26 *3591:S *3801:CLK 3.83041e-05
27 *3591:S *3968:A 9.28507e-05
28 *3591:S *585:18 0.000389437
29 *3591:S *624:14 4.66108e-05
30 *3591:S *624:21 0.000122331
31 *3591:S *626:55 0.00030949
32 *3597:S *3450:S1 7.46328e-06
33 *3597:S *3453:A1 0.000115762
34 *3597:S *3453:B1 4.82919e-05
35 *3597:S *3562:A0 1.7413e-05
36 *3597:S *3562:A1 0.000246723
37 *3597:S *3597:A1 4.77719e-05
38 *3597:S *674:39 0.000230925
39 *3601:S *3466:S0 0
40 *3601:S *3467:S0 0.000295076
41 *3601:S *3467:S1 0
42 *3601:S *3601:A1 0.000308641
43 *3601:S *4100:A 0
44 *3601:S *688:51 0.000101325
45 *3603:S *3474:S1 0.000126241
46 *3603:S *3791:CLK 4.94457e-05
47 *3603:S *720:81 0.000161221
48 *461:26 *3432:A1 0.00083645
49 *461:26 *3460:S 0.000378625
50 *461:26 *3534:A 3.4323e-05
51 *461:26 *4008:A 0.000181135
52 *461:26 *4052:A 0
53 *461:26 *544:22 0.00160435
54 *461:26 *544:32 0
55 *461:26 *562:37 1.00941e-05
56 *461:26 *681:58 0.000163204
57 *461:26 *683:59 0.00016029
58 *461:26 *727:22 2.50702e-05
59 *461:53 *3433:A1 0.000425829
60 *461:53 *3511:A0 1.26548e-05
61 *461:53 *3754:A1 0
62 *461:53 *3994:A 0.000440278
63 *461:53 *4008:A 6.44876e-05
64 *461:53 *576:12 0.000319167
65 *461:53 *724:73 0
66 *461:57 *3550:A1 0.000140898
67 *461:57 *611:16 0.000310394
68 *461:57 *720:81 5.78185e-05
69 *461:88 *3418:S 3.3625e-05
70 *461:88 *3594:A 0.000119873
71 *461:88 *3996:A 0
72 *461:88 *3997:A 0.000174746
73 *461:88 *4095:A 0
74 *461:88 *622:84 6.81992e-05
75 *461:88 *666:49 7.96722e-05
76 *461:88 *686:33 9.98706e-05
77 *461:88 *686:35 5.04569e-05
78 *461:88 *790:12 0.000235908
79 *461:98 *3418:S 0.000659464
80 *461:98 *3594:A 2.85623e-05
81 *461:98 *585:22 0.000361024
82 *461:98 *688:85 0
83 *461:143 *3433:A1 0.000327698
84 *461:143 *3599:A0 5.02217e-05
85 *461:143 *3599:A1 2.11084e-05
86 *461:168 *3599:A1 1.83756e-05
87 *461:168 *3789:CLK 7.52581e-05
88 *461:168 *666:10 0.000296151
89 *3418:A0 *3589:S 0
90 *3418:A1 *3589:S 0.000202168
91 *3418:A1 *461:98 5.23362e-05
92 *3432:A2 *3597:S 0.00019637
93 *3433:B1_N *3597:S 1.03423e-05
94 *3433:B1_N *461:53 0
95 *3436:A0 *461:88 0.000286022
96 *3440:A0 *461:88 0
97 *3448:A1 *461:26 0.000344575
98 *3449:A *461:26 0.000173966
99 *3453:A2 *3597:S 2.75229e-05
100 *3473:A2 *3601:S 6.5525e-05
101 *3473:B1_N *3601:S 0.000351282
102 *3473:B1_N *461:168 0.00038124
103 *3512:A *461:53 0.000269277
104 *3535:A *461:26 7.01359e-05
105 *3556:S *3601:S 0.000311374
106 *3580:S *461:88 0
107 *3583:A *461:53 0.000358944
108 *3583:A *461:143 0.000225394
109 *3587:A *461:88 8.42096e-05
110 *3789:D *461:168 5.14416e-05
111 *3791:D *3603:S 1.43717e-05
112 *26:20 *3601:S 0
113 *352:14 *461:26 1.56651e-05
114 *352:34 *461:26 8.95033e-05
115 *352:58 *3597:S 0.000102013
116 *413:75 *3601:S 0.00063418
117 *413:75 *461:168 0.000452057
118 *422:39 *461:168 0.000502803
119 *432:20 *461:26 3.30665e-05
120 *432:34 *461:57 0.000526591
121 *452:37 *461:143 3.1835e-05
122 *452:75 *461:88 0
*RES
1 *3588:X *461:26 42.0965 
2 *461:26 *3597:S 22.6 
3 *461:26 *461:53 16.47 
4 *461:53 *461:57 11.765 
5 *461:57 *3603:S 5.515 
6 *461:57 *461:88 22.0081 
7 *461:88 *461:98 13.075 
8 *461:98 *3589:S 15.035 
9 *461:98 *3591:S 16.66 
10 *461:88 *3593:S 1.6 
11 *461:53 *461:143 12.06 
12 *461:143 *3599:S 1.96 
13 *461:143 *461:168 23.96 
14 *461:168 *3595:S 3.6 
15 *461:168 *3601:S 28.53 
*END

*D_NET *462 0.00111083
*CONN
*I *3590:A I *D sky130_fd_sc_hd__buf_1
*I *3589:X O *D sky130_fd_sc_hd__mux2_2
*CAP
1 *3590:A 0.00028985
2 *3589:X 0.00028985
3 *3590:A *3416:S0 0.000102403
4 *3590:A *3572:A0 0.00033182
5 *3590:A *3589:A0 1.34687e-05
6 *3590:A *584:12 0
7 *3589:S *3590:A 0
8 *3808:D *3590:A 8.34348e-05
*RES
1 *3589:X *3590:A 14.13 
*END

*D_NET *463 0.00193953
*CONN
*I *3592:A I *D sky130_fd_sc_hd__buf_1
*I *3591:X O *D sky130_fd_sc_hd__mux2_2
*CAP
1 *3592:A 0.00031228
2 *3591:X 0.00031228
3 *3592:A *3574:A0 0.000227391
4 *3592:A *624:14 0.000490888
5 *3592:A *686:122 7.06865e-05
6 *3592:A *781:8 9.47454e-05
7 *3592:A *789:10 9.5101e-05
8 *3591:S *3592:A 2.75229e-05
9 *3809:D *3592:A 0.000308634
*RES
1 *3591:X *3592:A 16.92 
*END

*D_NET *464 0.00100931
*CONN
*I *3594:A I *D sky130_fd_sc_hd__buf_1
*I *3593:X O *D sky130_fd_sc_hd__mux2_2
*CAP
1 *3594:A 0.000177774
2 *3593:X 0.000177774
3 *3594:A *3418:S 7.84169e-05
4 *3594:A *3434:S0 8.79845e-05
5 *3594:A *3435:A2 0.000276605
6 *3594:A *3436:S 4.36573e-06
7 *3594:A *3997:A 7.9642e-06
8 *3594:A *622:63 3.46092e-05
9 *3594:A *622:84 1.53838e-05
10 *461:88 *3594:A 0.000119873
11 *461:98 *3594:A 2.85623e-05
*RES
1 *3593:X *3594:A 12.12 
*END

*D_NET *465 0.0011051
*CONN
*I *3596:A I *D sky130_fd_sc_hd__buf_1
*I *3595:X O *D sky130_fd_sc_hd__mux2_2
*CAP
1 *3596:A 0.000191057
2 *3595:X 0.000191057
3 *3596:A *3578:A1 4.77807e-05
4 *3811:D *3596:A 0.000326088
5 *26:20 *3596:A 0.000336826
6 *26:22 *3596:A 1.22891e-05
*RES
1 *3595:X *3596:A 13.35 
*END

*D_NET *466 0.00180711
*CONN
*I *3598:A I *D sky130_fd_sc_hd__buf_1
*I *3597:X O *D sky130_fd_sc_hd__mux2_2
*CAP
1 *3598:A 0.000560943
2 *3597:X 0.000560943
3 *3598:A *3450:A0 0
4 *3598:A *3450:S1 0.000455909
5 *3598:A *610:12 8.15598e-05
6 *3481:B1 *3598:A 0.000136884
7 *3812:D *3598:A 1.08758e-05
8 *347:12 *3598:A 0
*RES
1 *3597:X *3598:A 15.66 
*END

*D_NET *467 0.00173029
*CONN
*I *3600:A I *D sky130_fd_sc_hd__buf_1
*I *3599:X O *D sky130_fd_sc_hd__mux2_2
*CAP
1 *3600:A 0.000230807
2 *3599:X 0.000230807
3 *3600:A *3433:A1 4.66826e-05
4 *3433:B1_N *3600:A 2.03321e-05
5 *3583:A *3600:A 0.000648848
6 *3805:D *3600:A 0.000494374
7 *3813:D *3600:A 5.84378e-05
*RES
1 *3599:X *3600:A 15.495 
*END

*D_NET *468 0.000363453
*CONN
*I *3602:A I *D sky130_fd_sc_hd__buf_1
*I *3601:X O *D sky130_fd_sc_hd__mux2_2
*CAP
1 *3602:A 9.8941e-05
2 *3601:X 9.8941e-05
3 *3556:S *3602:A 2.69217e-05
4 *3574:S *3602:A 0.000114518
5 *3814:D *3602:A 2.41307e-05
*RES
1 *3601:X *3602:A 9.285 
*END

*D_NET *469 0.000263297
*CONN
*I *3604:A I *D sky130_fd_sc_hd__buf_1
*I *3603:X O *D sky130_fd_sc_hd__mux2_2
*CAP
1 *3604:A 4.43204e-05
2 *3603:X 4.43204e-05
3 *3604:A *3474:S1 8.8954e-05
4 *3604:A *720:40 8.57024e-05
*RES
1 *3603:X *3604:A 4.61 
*END

*D_NET *470 0.00650795
*CONN
*I *3618:S I *D sky130_fd_sc_hd__mux2_2
*I *4111:A I *D sky130_fd_sc_hd__clkbuf_2
*I *4085:A I *D sky130_fd_sc_hd__clkbuf_2
*I *3605:Y O *D sky130_fd_sc_hd__nor4b_4
*CAP
1 *3618:S 0
2 *4111:A 0.000816039
3 *4085:A 7.12e-05
4 *3605:Y 0.0002687
5 *470:25 0.0010825
6 *470:10 0.000606358
7 *4085:A *3639:A_N 4.66108e-05
8 *4085:A *488:6 4.21973e-05
9 *4111:A *3646:S 0
10 *4111:A *3681:A0 0.000119242
11 *4111:A *3681:S 4.66108e-05
12 *4111:A *3698:A0 0.000310389
13 *4111:A *3698:A1 0.000134306
14 *4111:A *3698:S 8.23457e-05
15 *4111:A *488:65 0
16 *4111:A *516:24 0.000207727
17 *4111:A *562:204 7.40338e-05
18 *4111:A *619:45 0.000161944
19 *4111:A *663:26 0.000304432
20 *4111:A *670:44 0.000215319
21 *4111:A *672:14 0.000476135
22 *470:10 *3639:A_N 0.000187325
23 *470:10 *3639:B_N 8.03494e-05
24 *470:10 *3639:D 1.19928e-05
25 *470:10 *701:20 8.40269e-05
26 *470:25 *562:204 0.00033157
27 *470:25 *672:14 1.87343e-05
28 *470:25 *721:12 0.000281853
29 *470:25 *721:18 0.000205376
30 *3471:A2 *470:25 0.00015829
31 *3639:C *470:10 8.23457e-05
*RES
1 *3605:Y *470:10 5.965 
2 *470:10 *4085:A 2.74 
3 *470:10 *470:25 11.33 
4 *470:25 *4111:A 25.68 
5 *470:25 *3618:S 3.6 
*END

*D_NET *471 0.000772508
*CONN
*I *3607:A I *D sky130_fd_sc_hd__buf_2
*I *3606:X O *D sky130_fd_sc_hd__mux2_2
*CAP
1 *3607:A 0.000179799
2 *3606:X 0.000179799
3 *3607:A *3640:A0 0.000236305
4 *3607:A *3640:S 6.46935e-05
5 *3607:A *3641:A 2.68464e-05
6 *3816:D *3607:A 8.50645e-05
*RES
1 *3606:X *3607:A 7.715 
*END

*D_NET *472 0.00191492
*CONN
*I *3609:A I *D sky130_fd_sc_hd__buf_2
*I *3608:X O *D sky130_fd_sc_hd__mux2_2
*CAP
1 *3609:A 0.000333925
2 *3608:X 0.000333925
3 *3609:A *3430:S1 0.000314438
4 *3609:A *3478:S0 0
5 *3609:A *3640:S 0
6 *3609:A *3642:S 0
7 *3609:A *507:46 0.000754809
8 *3609:A *669:24 3.45588e-05
9 *3609:A *813:10 0.000143266
*RES
1 *3608:X *3609:A 16.77 
*END

*D_NET *473 0.000780952
*CONN
*I *3611:A I *D sky130_fd_sc_hd__buf_2
*I *3610:X O *D sky130_fd_sc_hd__mux2_2
*CAP
1 *3611:A 0.000264432
2 *3610:X 0.000264432
3 *3611:A *3438:S1 0.000185411
4 *3611:A *3644:S 0
5 *3611:A *488:123 4.82919e-05
6 *3611:A *621:37 1.83847e-05
7 *3611:A *621:41 0
8 *3439:A1 *3611:A 0
*RES
1 *3610:X *3611:A 12.345 
*END

*D_NET *474 0.000261401
*CONN
*I *3613:A I *D sky130_fd_sc_hd__buf_2
*I *3612:X O *D sky130_fd_sc_hd__mux2_2
*CAP
1 *3613:A 8.50835e-05
2 *3612:X 8.50835e-05
3 *3613:A *3629:A1 9.12339e-05
*RES
1 *3612:X *3613:A 4.955 
*END

*D_NET *475 0.000931179
*CONN
*I *3615:A I *D sky130_fd_sc_hd__buf_2
*I *3614:X O *D sky130_fd_sc_hd__mux2_2
*CAP
1 *3615:A 0.000334697
2 *3614:X 0.000334697
3 *3615:A *3455:A0 0
4 *3615:A *3455:A3 4.82919e-05
5 *3615:A *3455:S0 0.000111316
6 *3615:A *3631:A0 7.10578e-05
7 *3456:A1 *3615:A 0
8 *3820:D *3615:A 3.112e-05
*RES
1 *3614:X *3615:A 13.155 
*END

*D_NET *476 0.00190785
*CONN
*I *3617:A I *D sky130_fd_sc_hd__buf_2
*I *3616:X O *D sky130_fd_sc_hd__mux2_2
*CAP
1 *3617:A 0.000847589
2 *3616:X 0.000847589
3 *3617:A *3616:A0 0
4 *3617:A *3634:A 2.69153e-05
5 *3617:A *3765:CLK 0.000100466
6 *3617:A *488:88 8.52883e-05
7 *3617:A *516:51 0
8 *3617:A *591:12 0
9 *3617:A *723:38 0
*RES
1 *3616:X *3617:A 20.055 
*END

*D_NET *477 0.000879775
*CONN
*I *3619:A I *D sky130_fd_sc_hd__buf_2
*I *3618:X O *D sky130_fd_sc_hd__mux2_2
*CAP
1 *3619:A 0.000236167
2 *3618:X 0.000236167
3 *3619:A *3470:A1 0.000247495
4 *3619:A *3618:A0 9.71067e-05
5 *3619:A *3980:A 2.01472e-05
6 *3619:A *488:65 3.68614e-05
7 *3619:A *674:8 0
8 *3619:A *746:6 5.83121e-06
9 *3822:D *3619:A 0
*RES
1 *3618:X *3619:A 12.69 
*END

*D_NET *478 0.00122431
*CONN
*I *3621:A I *D sky130_fd_sc_hd__buf_2
*I *3620:X O *D sky130_fd_sc_hd__mux2_2
*CAP
1 *3621:A 0.000497143
2 *3620:X 0.000497143
3 *3621:A *605:22 8.64421e-05
4 *3823:D *3621:A 0.000143583
*RES
1 *3620:X *3621:A 15.21 
*END

*D_NET *479 0.00871509
*CONN
*I *4081:A I *D sky130_fd_sc_hd__clkbuf_2
*I *3629:S I *D sky130_fd_sc_hd__mux2_2
*I *4110:A I *D sky130_fd_sc_hd__clkbuf_2
*I *3622:Y O *D sky130_fd_sc_hd__nor4b_4
*CAP
1 *4081:A 0.000183926
2 *3629:S 0.000243542
3 *4110:A 0.000609249
4 *3622:Y 0.000943253
5 *479:8 0.00161212
6 *3629:S *3629:A1 8.52972e-05
7 *3629:S *632:14 0.000196301
8 *4081:A *3715:S 3.09164e-05
9 *4081:A *525:29 0.000266612
10 *4081:A *663:16 0.000286635
11 *4110:A *3462:S1 0.000151202
12 *4110:A *3646:A0 8.53113e-06
13 *4110:A *3835:CLK 0.00027898
14 *479:8 *3646:A0 7.3664e-05
15 *479:8 *3646:S 0
16 *479:8 *3682:A 0
17 *479:8 *3698:S 1.7635e-05
18 *479:8 *3715:S 0.000981503
19 *479:8 *3763:CLK 0.000179922
20 *479:8 *3851:CLK 0.000218962
21 *479:8 *516:24 0.000239921
22 *479:8 *516:41 0.00022592
23 *479:8 *595:21 0.000136877
24 *479:8 *619:21 0
25 *479:8 *632:14 5.93675e-06
26 *479:8 *672:14 0.0015159
27 *479:8 *721:12 4.94404e-05
28 *479:8 *721:18 0.000140617
29 *3835:D *3629:S 0
30 *3851:D *479:8 4.58262e-06
31 *404:40 *4081:A 2.76356e-05
*RES
1 *3622:Y *479:8 29.3325 
2 *479:8 *4110:A 11.9025 
3 *479:8 *3629:S 8.7075 
4 *3622:Y *4081:A 11.415 
*END

*D_NET *480 0.00123404
*CONN
*I *3624:A I *D sky130_fd_sc_hd__buf_4
*I *3623:X O *D sky130_fd_sc_hd__mux2_2
*CAP
1 *3624:A 0.000445678
2 *3623:X 0.000445678
3 *3624:A *3641:A 7.2883e-05
4 *3624:A *608:10 4.77719e-05
5 *3624:A *608:21 3.11409e-05
6 *3816:D *3624:A 0.000190893
*RES
1 *3623:X *3624:A 15.585 
*END

*D_NET *481 0.00136794
*CONN
*I *3626:A I *D sky130_fd_sc_hd__buf_4
*I *3625:X O *D sky130_fd_sc_hd__mux2_2
*CAP
1 *3626:A 0.000274493
2 *3625:X 0.000274493
3 *3626:A *507:65 0.000121036
4 *3626:A *525:60 0
5 *3626:A *690:14 0.000558061
6 *3825:D *3626:A 0.000139853
*RES
1 *3625:X *3626:A 14.82 
*END

*D_NET *482 0.000681246
*CONN
*I *3628:A I *D sky130_fd_sc_hd__buf_4
*I *3627:X O *D sky130_fd_sc_hd__mux2_2
*CAP
1 *3628:A 0.000234147
2 *3627:X 0.000234147
3 *3628:A *3834:CLK 0.000212952
*RES
1 *3627:X *3628:A 11.295 
*END

*D_NET *483 0.000208818
*CONN
*I *3630:A I *D sky130_fd_sc_hd__buf_4
*I *3629:X O *D sky130_fd_sc_hd__mux2_2
*CAP
1 *3630:A 8.05206e-05
2 *3629:X 8.05206e-05
3 *3630:A *672:24 4.77769e-05
*RES
1 *3629:X *3630:A 4.61 
*END

*D_NET *484 0.000816949
*CONN
*I *3632:A I *D sky130_fd_sc_hd__buf_4
*I *3631:X O *D sky130_fd_sc_hd__mux2_2
*CAP
1 *3632:A 0.000273732
2 *3631:X 0.000273732
3 *3632:A *594:34 4.89295e-05
4 *3632:A *664:48 9.06574e-05
5 *3632:A *725:22 0.000129899
*RES
1 *3631:X *3632:A 11.22 
*END

*D_NET *485 0.000787797
*CONN
*I *3634:A I *D sky130_fd_sc_hd__buf_4
*I *3633:X O *D sky130_fd_sc_hd__mux2_2
*CAP
1 *3634:A 0.000255937
2 *3633:X 0.000255937
3 *3634:A *633:25 0
4 *3634:A *723:38 7.0055e-05
5 *3617:A *3634:A 2.69153e-05
6 *3829:D *3634:A 0.000178952
*RES
1 *3633:X *3634:A 12.345 
*END

*D_NET *486 0.00123296
*CONN
*I *3636:A I *D sky130_fd_sc_hd__buf_4
*I *3635:X O *D sky130_fd_sc_hd__mux2_2
*CAP
1 *3636:A 0.000483786
2 *3635:X 0.000483786
3 *3636:A *3838:CLK 9.13949e-06
4 *3636:A *562:214 7.10632e-05
5 *3636:A *593:16 2.14495e-05
6 *3636:A *593:24 1.52418e-05
7 *3636:A *634:31 0.000148497
8 *3636:A *685:34 0
*RES
1 *3635:X *3636:A 15.3 
*END

*D_NET *487 0.000180321
*CONN
*I *3638:A I *D sky130_fd_sc_hd__buf_4
*I *3637:X O *D sky130_fd_sc_hd__mux2_2
*CAP
1 *3638:A 9.01604e-05
2 *3637:X 9.01604e-05
*RES
1 *3637:X *3638:A 4.61 
*END

*D_NET *488 0.0267058
*CONN
*I *3654:S I *D sky130_fd_sc_hd__mux2_2
*I *3644:S I *D sky130_fd_sc_hd__mux2_2
*I *3650:S I *D sky130_fd_sc_hd__mux2_2
*I *3648:S I *D sky130_fd_sc_hd__mux2_2
*I *3646:S I *D sky130_fd_sc_hd__mux2_2
*I *3640:S I *D sky130_fd_sc_hd__mux2_2
*I *3642:S I *D sky130_fd_sc_hd__mux2_2
*I *3652:S I *D sky130_fd_sc_hd__mux2_2
*I *3639:X O *D sky130_fd_sc_hd__and4bb_2
*CAP
1 *3654:S 0.000548659
2 *3644:S 0.000213939
3 *3650:S 0
4 *3648:S 0.00213794
5 *3646:S 0.000390247
6 *3640:S 0.00203708
7 *3642:S 8.20054e-05
8 *3652:S 0
9 *3639:X 0.000124411
10 *488:123 0.00203108
11 *488:88 0.00152547
12 *488:65 0.0019984
13 *488:27 0.00285446
14 *488:8 0.00099516
15 *488:6 0.00133634
16 *3640:S *3640:A0 3.01833e-05
17 *3640:S *3640:A1 6.97528e-06
18 *3640:S *3643:A 0
19 *3640:S *623:28 2.14129e-05
20 *3640:S *625:35 3.1562e-06
21 *3640:S *669:24 0.000958643
22 *3640:S *690:14 0
23 *3642:S *3478:S0 5.53249e-06
24 *3642:S *623:28 0.000189426
25 *3642:S *813:10 0
26 *3644:S *3438:S1 0
27 *3644:S *3644:A0 6.04287e-05
28 *3644:S *583:18 0.000108716
29 *3644:S *621:22 9.84957e-05
30 *3646:S *3646:A0 0
31 *3646:S *3646:A1 2.75229e-05
32 *3646:S *3647:A 2.75229e-05
33 *3646:S *672:14 0
34 *3646:S *672:24 0.000208484
35 *3646:S *685:79 0.000111096
36 *3648:S *3610:S 0.000387003
37 *3648:S *3614:A1 0.000348699
38 *3648:S *3650:A0 9.03998e-05
39 *3648:S *3651:A 0.000135666
40 *3648:S *516:51 7.58604e-05
41 *3648:S *591:18 0.000115038
42 *3648:S *633:25 0
43 *3648:S *670:68 0.000197429
44 *3648:S *723:38 0.000260577
45 *3648:S *723:47 2.86975e-05
46 *3654:S *3654:A0 4.85381e-05
47 *3654:S *3654:A1 4.76093e-05
48 *3654:S *3696:A1 4.66108e-05
49 *3654:S *3696:S 5.83121e-06
50 *3654:S *3697:A 0.00015738
51 *3654:S *583:12 0.000126407
52 *3654:S *583:18 0.000168259
53 *3654:S *621:16 2.07184e-05
54 *3654:S *621:18 0.000109009
55 *3654:S *621:22 0.000499089
56 *3654:S *838:10 9.14049e-05
57 *488:6 *3639:A_N 8.23457e-05
58 *488:6 *669:14 1.83847e-05
59 *488:8 *3652:A0 0.000160635
60 *488:8 *669:14 0.000235273
61 *488:27 *3486:A0 6.58339e-05
62 *488:27 *3652:A0 3.00483e-05
63 *488:27 *3653:A 1.56428e-05
64 *488:27 *623:28 0.000423631
65 *488:27 *669:14 0.000697256
66 *488:27 *741:6 0.000109939
67 *488:65 *3470:A0 9.37731e-05
68 *488:65 *3470:A1 0.000282385
69 *488:65 *3470:S0 7.05574e-05
70 *488:65 *3470:S1 0
71 *488:65 *3618:A0 9.37731e-05
72 *488:65 *562:204 0.000610209
73 *488:65 *663:26 0.000252466
74 *488:65 *674:8 0
75 *488:65 *685:73 0
76 *488:65 *685:79 0.000174227
77 *488:88 *3669:A 8.88715e-05
78 *488:88 *3699:A 2.75145e-05
79 *488:88 *670:44 0.000267454
80 *488:88 *723:47 0.000133496
81 *488:88 *723:62 3.26526e-05
82 *488:123 *3610:A0 0.000138799
83 *488:123 *3610:A1 2.86265e-06
84 *488:123 *3610:S 0.000425054
85 *488:123 *3627:A1 1.1392e-05
86 *488:123 *3649:A 4.66108e-05
87 *488:123 *621:37 9.74535e-05
88 *3487:A *488:27 4.38278e-05
89 *3607:A *3640:S 6.46935e-05
90 *3609:A *3640:S 0
91 *3609:A *3642:S 0
92 *3611:A *3644:S 0
93 *3611:A *488:123 4.82919e-05
94 *3617:A *488:88 8.52883e-05
95 *3619:A *488:65 3.68614e-05
96 *3760:D *3640:S 4.82319e-06
97 *3761:D *488:27 0.000126471
98 *3821:D *3648:S 0.000133408
99 *3833:D *3640:S 3.09451e-05
100 *3837:D *3648:S 0.000166058
101 *3845:D *488:88 4.99619e-05
102 *3867:D *488:65 9.14714e-05
103 *4085:A *488:6 4.21973e-05
104 *4111:A *3646:S 0
105 *4111:A *488:65 0
106 *479:8 *3646:S 0
*RES
1 *3639:X *488:6 3.775 
2 *488:6 *488:8 5.625 
3 *488:8 *3652:S 1.6 
4 *488:8 *488:27 18.575 
5 *488:27 *3642:S 5.745 
6 *488:27 *3640:S 34.44 
7 *488:6 *488:65 25.145 
8 *488:65 *3646:S 10.815 
9 *488:65 *488:88 14.42 
10 *488:88 *3648:S 24.425 
11 *488:88 *3650:S 1.6 
12 *3648:S *488:123 20.19 
13 *488:123 *3644:S 8.295 
14 *488:123 *3654:S 16.815 
*END

*D_NET *489 0.000440766
*CONN
*I *3641:A I *D sky130_fd_sc_hd__buf_2
*I *3640:X O *D sky130_fd_sc_hd__mux2_2
*CAP
1 *3641:A 0.000103759
2 *3640:X 0.000103759
3 *3607:A *3641:A 2.68464e-05
4 *3624:A *3641:A 7.2883e-05
5 *3816:D *3641:A 4.77719e-05
6 *3832:D *3641:A 8.57469e-05
*RES
1 *3640:X *3641:A 10.05 
*END

*D_NET *490 0.000569959
*CONN
*I *3643:A I *D sky130_fd_sc_hd__buf_2
*I *3642:X O *D sky130_fd_sc_hd__mux2_2
*CAP
1 *3643:A 0.0002357
2 *3642:X 0.0002357
3 *3643:A *3833:CLK 4.91189e-05
4 *3643:A *623:28 0
5 *3643:A *690:14 0
6 *3640:S *3643:A 0
7 *3833:D *3643:A 4.94404e-05
*RES
1 *3642:X *3643:A 11.07 
*END

*D_NET *491 0.000876228
*CONN
*I *3645:A I *D sky130_fd_sc_hd__buf_2
*I *3644:X O *D sky130_fd_sc_hd__mux2_2
*CAP
1 *3645:A 0.000226416
2 *3644:X 0.000226416
3 *3645:A *3627:A0 0.000116165
4 *3645:A *583:18 0
5 *3645:A *664:48 0.00012398
6 *3645:A *806:8 0.00018325
*RES
1 *3644:X *3645:A 11.76 
*END

*D_NET *492 0.000641602
*CONN
*I *3647:A I *D sky130_fd_sc_hd__buf_2
*I *3646:X O *D sky130_fd_sc_hd__mux2_2
*CAP
1 *3647:A 0.000248729
2 *3646:X 0.000248729
3 *3647:A *3827:CLK 0
4 *3647:A *685:79 0.000116621
5 *3646:S *3647:A 2.75229e-05
*RES
1 *3646:X *3647:A 11.43 
*END

*D_NET *493 0.00128415
*CONN
*I *3649:A I *D sky130_fd_sc_hd__buf_2
*I *3648:X O *D sky130_fd_sc_hd__mux2_2
*CAP
1 *3649:A 0.000339944
2 *3648:X 0.000339944
3 *3649:A *3610:S 2.49909e-05
4 *3649:A *3820:CLK 0.000156468
5 *3649:A *594:10 0.000376195
6 *3649:A *664:34 0
7 *3649:A *725:22 0
8 *3649:A *725:35 0
9 *488:123 *3649:A 4.66108e-05
*RES
1 *3648:X *3649:A 14.13 
*END

*D_NET *494 0.000593817
*CONN
*I *3651:A I *D sky130_fd_sc_hd__buf_2
*I *3650:X O *D sky130_fd_sc_hd__mux2_2
*CAP
1 *3651:A 0.000205859
2 *3650:X 0.000205859
3 *3651:A *516:51 4.64326e-05
4 *3651:A *633:25 0
5 *3648:S *3651:A 0.000135666
*RES
1 *3650:X *3651:A 11.085 
*END

*D_NET *495 0.000597782
*CONN
*I *3653:A I *D sky130_fd_sc_hd__buf_2
*I *3652:X O *D sky130_fd_sc_hd__mux2_2
*CAP
1 *3653:A 8.49466e-05
2 *3652:X 8.49466e-05
3 *3653:A *634:31 0.000206123
4 *3464:A1 *3653:A 0.000206123
5 *488:27 *3653:A 1.56428e-05
*RES
1 *3652:X *3653:A 10.05 
*END

*D_NET *496 9.76945e-05
*CONN
*I *3655:A I *D sky130_fd_sc_hd__buf_2
*I *3654:X O *D sky130_fd_sc_hd__mux2_2
*CAP
1 *3655:A 4.88472e-05
2 *3654:X 4.88472e-05
*RES
1 *3654:X *3655:A 3.9275 
*END

*D_NET *497 0.00165055
*CONN
*I *3657:A I *D sky130_fd_sc_hd__clkbuf_1
*I *3656:X O *D sky130_fd_sc_hd__and3b_2
*CAP
1 *3657:A 0.000453571
2 *3656:X 0.000453571
3 *3657:A *3656:C 0
4 *3656:B *3657:A 0.000402389
5 *403:36 *3657:A 0.000341019
*RES
1 *3656:X *3657:A 15.435 
*END

*D_NET *498 0.0100627
*CONN
*I *4080:A I *D sky130_fd_sc_hd__clkbuf_2
*I *3670:S I *D sky130_fd_sc_hd__mux2_2
*I *3660:S I *D sky130_fd_sc_hd__mux2_2
*I *3658:S I *D sky130_fd_sc_hd__mux2_2
*I *3672:S I *D sky130_fd_sc_hd__mux2_2
*I *3657:X O *D sky130_fd_sc_hd__clkbuf_1
*CAP
1 *4080:A 8.99805e-05
2 *3670:S 2.0132e-05
3 *3660:S 1.86374e-05
4 *3658:S 4.65825e-05
5 *3672:S 0.00051759
6 *3657:X 0.000240536
7 *498:38 0.00124297
8 *498:32 0.00190749
9 *498:22 0.00139675
10 *498:16 0.000497081
11 *3658:S *3658:A1 0.000122797
12 *3660:S *507:42 3.5678e-06
13 *3672:S *3672:A0 6.31104e-05
14 *3672:S *525:60 0.000322224
15 *4080:A *3691:B_N 9.1113e-06
16 *4080:A *3846:CLK 8.23457e-05
17 *4080:A *663:16 0.000163774
18 *4080:A *707:74 0.000111137
19 *498:16 *3656:C 8.35068e-05
20 *498:16 *3674:B_N 4.01811e-05
21 *498:16 *3691:A_N 0.000321013
22 *498:16 *3691:D 0.000202318
23 *498:16 *507:30 2.03356e-05
24 *498:16 *516:8 1.08758e-05
25 *498:22 *3983:A 6.14645e-05
26 *498:22 *663:16 0.000175219
27 *498:22 *707:74 0.00017329
28 *498:32 *3661:A 4.89395e-05
29 *498:32 *3670:A0 0.000303296
30 *498:32 *3671:A 4.77807e-05
31 *498:32 *3862:CLK 0.000448381
32 *498:32 *3983:A 4.12775e-05
33 *498:32 *507:42 0.000207121
34 *498:38 *3658:A0 0
35 *498:38 *3658:A1 0.00011099
36 *498:38 *3675:A1 4.21484e-05
37 *498:38 *3709:S 2.06497e-05
38 *498:38 *3712:A 0.000159722
39 *498:38 *507:42 6.81888e-05
40 *498:38 *525:45 0.000149523
41 *498:38 *525:60 6.23541e-06
42 *498:38 *623:62 7.18107e-06
43 *498:38 *623:71 0.000245058
44 *498:38 *625:82 2.49909e-05
45 *3480:A0 *3672:S 0
46 *193:14 *498:16 3.04704e-05
47 *202:54 *498:22 0.000156767
*RES
1 *3657:X *498:16 10.41 
2 *498:16 *498:22 6.32 
3 *498:22 *498:32 19.32 
4 *498:32 *498:38 14.945 
5 *498:38 *3672:S 14.16 
6 *498:38 *3658:S 4.74 
7 *498:32 *3660:S 1.96 
8 *498:22 *3670:S 1.96 
9 *498:16 *4080:A 6.12 
*END

*D_NET *499 0.00122918
*CONN
*I *3659:A I *D sky130_fd_sc_hd__buf_1
*I *3658:X O *D sky130_fd_sc_hd__mux2_2
*CAP
1 *3659:A 0.000421565
2 *3658:X 0.000421565
3 *3659:A *3676:A 5.06989e-05
4 *3659:A *3840:CLK 5.83121e-06
5 *3659:A *3848:CLK 9.10613e-05
6 *3659:A *562:75 0.000111214
7 *3659:A *562:81 2.24336e-05
8 *3840:D *3659:A 1.42598e-05
9 *3848:D *3659:A 9.05535e-05
*RES
1 *3658:X *3659:A 14.97 
*END

*D_NET *500 0.000336476
*CONN
*I *3661:A I *D sky130_fd_sc_hd__buf_1
*I *3660:X O *D sky130_fd_sc_hd__mux2_2
*CAP
1 *3661:A 0.000104951
2 *3660:X 0.000104951
3 *3431:A2 *3661:A 7.76353e-05
4 *498:32 *3661:A 4.89395e-05
*RES
1 *3660:X *3661:A 9.285 
*END

*D_NET *501 0.00162879
*CONN
*I *3663:A I *D sky130_fd_sc_hd__buf_1
*I *3662:X O *D sky130_fd_sc_hd__mux2_2
*CAP
1 *3663:A 0.000506865
2 *3662:X 0.000506865
3 *3663:A *3662:A1 0.000209
4 *3663:A *3714:A 9.50342e-06
5 *3663:A *621:16 0
6 *3663:A *621:18 0
7 *3663:A *684:50 0.00011852
8 *3439:A1 *3663:A 0.000120655
9 *3439:S *3663:A 0.00015738
*RES
1 *3662:X *3663:A 14.4825 
*END

*D_NET *502 0.00129483
*CONN
*I *3665:A I *D sky130_fd_sc_hd__buf_1
*I *3664:X O *D sky130_fd_sc_hd__mux2_2
*CAP
1 *3665:A 0.000364191
2 *3664:X 0.000364191
3 *3665:A *3445:A2 0.000184752
4 *3665:A *3682:A 6.75112e-05
5 *3665:A *3685:S 3.64998e-06
6 *3665:A *3698:A0 3.05295e-05
7 *3665:A *3715:A0 5.01076e-05
8 *3665:A *507:114 0.000124061
9 *3665:A *562:262 0.000105841
10 *3665:A *619:55 0
11 *3843:D *3665:A 0
*RES
1 *3664:X *3665:A 15.405 
*END

*D_NET *503 0.000643462
*CONN
*I *3667:A I *D sky130_fd_sc_hd__buf_1
*I *3666:X O *D sky130_fd_sc_hd__mux2_2
*CAP
1 *3667:A 0.000238528
2 *3666:X 0.000238528
3 *3667:A *3455:S0 7.81876e-05
4 *3667:A *3974:A 0
5 *3667:A *516:51 8.40325e-05
6 *3667:A *590:25 4.18603e-06
*RES
1 *3666:X *3667:A 11.01 
*END

*D_NET *504 0.00124638
*CONN
*I *3669:A I *D sky130_fd_sc_hd__buf_1
*I *3668:X O *D sky130_fd_sc_hd__mux2_2
*CAP
1 *3669:A 0.000284964
2 *3668:X 0.000284964
3 *3669:A *3668:A0 0.000117406
4 *3669:A *3827:CLK 0
5 *3669:A *670:44 0.000159747
6 *3463:A1 *3669:A 0.000310424
7 *488:88 *3669:A 8.88715e-05
*RES
1 *3668:X *3669:A 13.4325 
*END

*D_NET *505 0.000501585
*CONN
*I *3671:A I *D sky130_fd_sc_hd__buf_1
*I *3670:X O *D sky130_fd_sc_hd__mux2_2
*CAP
1 *3671:A 0.000116554
2 *3670:X 0.000116554
3 *3671:A *3983:A 0.000133453
4 *3671:A *507:30 1.56428e-05
5 *3671:A *562:204 7.15997e-05
6 *498:32 *3671:A 4.77807e-05
*RES
1 *3670:X *3671:A 9.735 
*END

*D_NET *506 0.00145798
*CONN
*I *3673:A I *D sky130_fd_sc_hd__buf_1
*I *3672:X O *D sky130_fd_sc_hd__mux2_2
*CAP
1 *3673:A 0.00053795
2 *3672:X 0.00053795
3 *3673:A *3847:CLK 0
4 *3673:A *592:6 8.27188e-05
5 *3673:A *835:10 7.23533e-05
6 *3480:A0 *3673:A 7.23533e-05
7 *3847:D *3673:A 0.000154651
*RES
1 *3672:X *3673:A 14.67 
*END

*D_NET *507 0.0265501
*CONN
*I *3685:S I *D sky130_fd_sc_hd__mux2_2
*I *3681:S I *D sky130_fd_sc_hd__mux2_2
*I *3687:S I *D sky130_fd_sc_hd__mux2_2
*I *3677:S I *D sky130_fd_sc_hd__mux2_2
*I *3675:S I *D sky130_fd_sc_hd__mux2_2
*I *3689:S I *D sky130_fd_sc_hd__mux2_2
*I *3679:S I *D sky130_fd_sc_hd__mux2_2
*I *3683:S I *D sky130_fd_sc_hd__mux2_2
*I *3674:X O *D sky130_fd_sc_hd__and4bb_2
*CAP
1 *3685:S 0.000955477
2 *3681:S 0.000490776
3 *3687:S 0
4 *3677:S 0
5 *3675:S 0.000758036
6 *3689:S 0
7 *3679:S 0.000392117
8 *3683:S 0.000306907
9 *3674:X 0.000203984
10 *507:114 0.00388921
11 *507:65 0.000995754
12 *507:46 0.00139236
13 *507:44 0.00123985
14 *507:42 0.000919573
15 *507:30 0.00176028
16 *507:12 0.00348765
17 *3675:S *3429:A1 8.96091e-05
18 *3675:S *3429:S1 8.47455e-05
19 *3675:S *3675:A1 0.00015701
20 *3675:S *3677:A0 0.000212214
21 *3675:S *3711:A1 0
22 *3675:S *4008:A 0.000526344
23 *3675:S *684:21 0.000443625
24 *3675:S *845:10 4.65607e-05
25 *3679:S *3680:A 1.64067e-05
26 *3679:S *3689:A0 0.000122797
27 *3679:S *719:82 0.000102479
28 *3681:S *3612:S 5.69107e-05
29 *3681:S *3681:A0 1.7635e-05
30 *3681:S *619:55 5.86739e-05
31 *3683:S *3683:A0 0.000137452
32 *3683:S *582:10 0.000104977
33 *3683:S *633:25 0.000114846
34 *3685:S *3698:A0 0.000101764
35 *3685:S *3827:CLK 8.65961e-05
36 *3685:S *516:41 0.000383404
37 *3685:S *598:16 7.66083e-05
38 *3685:S *619:55 0
39 *3685:S *839:8 1.35779e-05
40 *507:12 *544:16 2.18056e-05
41 *507:12 *701:12 6.63219e-06
42 *507:12 *869:31 1.00941e-05
43 *507:12 *869:40 4.55864e-06
44 *507:30 *3470:S0 7.94942e-05
45 *507:30 *3470:S1 1.38283e-05
46 *507:30 *3656:A_N 2.01841e-05
47 *507:30 *3670:A0 0.000112595
48 *507:30 *3687:A1 3.63576e-05
49 *507:30 *3688:A 7.91189e-05
50 *507:30 *3691:A_N 2.49909e-05
51 *507:30 *3691:B_N 3.28644e-05
52 *507:30 *3691:D 2.99981e-06
53 *507:30 *3862:CLK 0.000303292
54 *507:30 *516:8 4.60061e-05
55 *507:30 *544:16 3.21948e-06
56 *507:30 *600:58 4.04823e-05
57 *507:42 *3687:A1 0.000233604
58 *507:42 *3862:CLK 0.000449152
59 *507:42 *623:62 0.000119667
60 *507:42 *623:71 9.12671e-06
61 *507:46 *3430:S1 6.00003e-05
62 *507:46 *3677:A0 9.12494e-06
63 *507:46 *4008:A 0.000308027
64 *507:46 *525:39 0
65 *507:46 *582:10 3.09325e-05
66 *507:46 *633:25 0.000236979
67 *507:65 *3478:S1 0.00013948
68 *507:65 *3623:S 0.000272466
69 *507:65 *3672:A1 0.00015401
70 *507:65 *3689:A0 4.77757e-05
71 *507:65 *665:14 0.000409783
72 *507:114 *516:24 0.00104025
73 *3472:A2 *507:30 4.93662e-06
74 *3486:S *507:46 7.23533e-05
75 *3609:A *507:46 0.000754809
76 *3626:A *507:65 0.000121036
77 *3660:S *507:42 3.5678e-06
78 *3665:A *3685:S 3.64998e-06
79 *3665:A *507:114 0.000124061
80 *3671:A *507:30 1.56428e-05
81 *3817:D *507:46 0.000162318
82 *3846:D *507:30 1.51374e-05
83 *3859:D *3685:S 2.68594e-05
84 *3862:D *507:42 0.00012576
85 *3865:D *3675:S 1.54049e-05
86 *4111:A *3681:S 4.66108e-05
87 *350:57 *3679:S 0.00050339
88 *404:40 *507:46 0.000153794
89 *498:16 *507:30 2.03356e-05
90 *498:32 *507:42 0.000207121
91 *498:38 *507:42 6.81888e-05
*RES
1 *3674:X *507:12 4.6327 
2 *507:12 *507:30 18.1246 
3 *507:30 *507:42 15.105 
4 *507:42 *507:44 2 
5 *507:44 *507:46 14.895 
6 *507:46 *3683:S 10.485 
7 *507:46 *507:65 14.99 
8 *507:65 *3679:S 14.435 
9 *507:65 *3689:S 1.6 
10 *507:44 *3675:S 22.125 
11 *507:42 *3677:S 1.6 
12 *507:30 *3687:S 1.6 
13 *507:12 *507:114 6.11987 
14 *507:114 *3681:S 5.82577 
15 *507:114 *3685:S 18.2525 
*END

*D_NET *508 0.00185974
*CONN
*I *3676:A I *D sky130_fd_sc_hd__buf_1
*I *3675:X O *D sky130_fd_sc_hd__mux2_2
*CAP
1 *3676:A 0.000551507
2 *3675:X 0.000551507
3 *3676:A *3419:A0 6.10324e-05
4 *3676:A *3658:A0 0.000369318
5 *3676:A *3675:A0 2.89072e-05
6 *3676:A *828:10 2.0231e-05
7 *3422:A0 *3676:A 0.000226536
8 *3659:A *3676:A 5.06989e-05
*RES
1 *3675:X *3676:A 17.325 
*END

*D_NET *509 0.00122523
*CONN
*I *3678:A I *D sky130_fd_sc_hd__buf_1
*I *3677:X O *D sky130_fd_sc_hd__mux2_2
*CAP
1 *3678:A 0.00034301
2 *3677:X 0.00034301
3 *3678:A *3711:A1 7.23237e-05
4 *3678:A *3712:A 0
5 *3678:A *4008:A 0
6 *3849:D *3678:A 0.000466889
*RES
1 *3677:X *3678:A 14.7 
*END

*D_NET *510 0.000547178
*CONN
*I *3680:A I *D sky130_fd_sc_hd__buf_1
*I *3679:X O *D sky130_fd_sc_hd__mux2_2
*CAP
1 *3680:A 0.000202886
2 *3679:X 0.000202886
3 *3680:A *3679:A0 5.11067e-05
4 *3680:A *3679:A1 9.83921e-06
5 *3439:S *3680:A 4.12057e-05
6 *3440:A1 *3680:A 0
7 *3679:S *3680:A 1.64067e-05
8 *350:57 *3680:A 2.28474e-05
*RES
1 *3679:X *3680:A 11.085 
*END

*D_NET *511 0.00197679
*CONN
*I *3682:A I *D sky130_fd_sc_hd__buf_1
*I *3681:X O *D sky130_fd_sc_hd__mux2_2
*CAP
1 *3682:A 0.000427592
2 *3681:X 0.000427592
3 *3682:A *3445:A2 0.000326639
4 *3682:A *3698:A0 0.000183731
5 *3682:A *3715:A0 0.000134756
6 *3682:A *3715:A1 6.90254e-05
7 *3682:A *3851:CLK 0.000128757
8 *3682:A *516:41 0
9 *3682:A *663:16 1.64141e-05
10 *3682:A *670:44 0.000121437
11 *3665:A *3682:A 6.75112e-05
12 *3851:D *3682:A 7.33357e-05
13 *479:8 *3682:A 0
*RES
1 *3681:X *3682:A 18.135 
*END

*D_NET *512 0.0016138
*CONN
*I *3684:A I *D sky130_fd_sc_hd__buf_1
*I *3683:X O *D sky130_fd_sc_hd__mux2_2
*CAP
1 *3684:A 0.000265471
2 *3683:X 0.000265471
3 *3684:A *3454:S1 5.53249e-06
4 *3684:A *3455:S0 1.01661e-05
5 *3684:A *3683:A1 0.000353064
6 *3684:A *3717:A1 0.000244089
7 *3684:A *3719:S 0.000112801
8 *3684:A *525:86 0.000212699
9 *3684:A *690:14 1.52862e-05
10 *3684:A *690:16 6.31804e-05
11 *3684:A *725:59 6.6041e-05
*RES
1 *3683:X *3684:A 15.69 
*END

*D_NET *513 0.000221183
*CONN
*I *3686:A I *D sky130_fd_sc_hd__buf_1
*I *3685:X O *D sky130_fd_sc_hd__mux2_2
*CAP
1 *3686:A 6.73706e-05
2 *3685:X 6.73706e-05
3 *3686:A *516:41 8.64421e-05
*RES
1 *3685:X *3686:A 4.61 
*END

*D_NET *514 0.000875841
*CONN
*I *3688:A I *D sky130_fd_sc_hd__buf_1
*I *3687:X O *D sky130_fd_sc_hd__mux2_2
*CAP
1 *3688:A 0.000212071
2 *3687:X 0.000212071
3 *3688:A *3470:S0 0.000109207
4 *3688:A *3854:CLK 4.82919e-05
5 *3688:A *3862:CLK 0.000171714
6 *3688:A *562:204 5.06382e-06
7 *3688:A *600:25 3.83041e-05
8 *507:30 *3688:A 7.91189e-05
*RES
1 *3687:X *3688:A 11.1375 
*END

*D_NET *515 0.00151587
*CONN
*I *3690:A I *D sky130_fd_sc_hd__buf_1
*I *3689:X O *D sky130_fd_sc_hd__mux2_2
*CAP
1 *3690:A 0.00039515
2 *3689:X 0.00039515
3 *3690:A *567:8 0
4 *350:57 *3690:A 0.000725567
*RES
1 *3689:X *3690:A 15.975 
*END

*D_NET *516 0.0295289
*CONN
*I *3704:S I *D sky130_fd_sc_hd__mux2_2
*I *3694:S I *D sky130_fd_sc_hd__mux2_2
*I *3692:S I *D sky130_fd_sc_hd__mux2_2
*I *3702:S I *D sky130_fd_sc_hd__mux2_2
*I *3700:S I *D sky130_fd_sc_hd__mux2_2
*I *3706:S I *D sky130_fd_sc_hd__mux2_2
*I *3696:S I *D sky130_fd_sc_hd__mux2_2
*I *3698:S I *D sky130_fd_sc_hd__mux2_2
*I *3691:X O *D sky130_fd_sc_hd__and4bb_2
*CAP
1 *3704:S 1.79664e-05
2 *3694:S 0
3 *3692:S 0.00131703
4 *3702:S 8.03602e-05
5 *3700:S 0
6 *3706:S 0.000392767
7 *3696:S 0.00019919
8 *3698:S 3.69471e-05
9 *3691:X 3.38622e-05
10 *516:109 0.00259748
11 *516:105 0.00213555
12 *516:57 0.00165036
13 *516:51 0.00196606
14 *516:41 0.00184549
15 *516:24 0.00362791
16 *516:8 0.00360449
17 *3692:S *3419:A0 4.66108e-05
18 *3692:S *3419:A1 0.000187031
19 *3692:S *3419:A3 0.000121339
20 *3692:S *3419:S0 0.000400154
21 *3692:S *3419:S1 2.88357e-05
22 *3692:S *3429:A2 0.000116318
23 *3692:S *3692:A0 0.000105437
24 *3692:S *3709:A1 2.93136e-05
25 *3692:S *562:75 6.12027e-05
26 *3692:S *689:25 9.04065e-05
27 *3692:S *690:14 8.52972e-05
28 *3696:S *3696:A1 1.19928e-05
29 *3698:S *3698:A1 8.40269e-05
30 *3702:S *3719:A0 2.97802e-05
31 *3706:S *3679:A0 0
32 *3706:S *3706:A0 9.12494e-06
33 *3706:S *684:48 0.000365921
34 *3706:S *684:50 9.9535e-05
35 *3706:S *830:10 0
36 *516:8 *3691:D 2.39856e-05
37 *516:24 *3715:S 0.000142647
38 *516:24 *663:16 0.000136627
39 *516:24 *672:14 0.00037896
40 *516:41 *3668:A1 0.000525104
41 *516:41 *3698:A0 0
42 *516:41 *3827:CLK 8.65961e-05
43 *516:41 *598:16 8.65905e-05
44 *516:41 *723:66 8.23457e-05
45 *516:51 *3650:A0 4.43871e-06
46 *516:51 *3666:A0 2.30292e-05
47 *516:51 *3666:A1 0.000602601
48 *516:51 *3666:S 0.000277223
49 *516:51 *3700:A0 3.00381e-05
50 *516:51 *633:25 0
51 *516:57 *3666:A1 4.82919e-05
52 *516:57 *3700:A0 2.75229e-05
53 *516:57 *3701:A 8.64421e-05
54 *516:57 *684:50 5.18691e-05
55 *516:57 *822:10 1.63139e-05
56 *516:57 *830:10 0
57 *516:105 *3469:S0 4.77807e-05
58 *516:105 *3691:B_N 8.9257e-05
59 *516:105 *663:16 0.000132896
60 *516:105 *691:12 7.3151e-05
61 *516:105 *691:16 0.000200981
62 *516:109 *3429:A1 8.23457e-05
63 *516:109 *3429:A2 0.000147877
64 *516:109 *3704:A1 4.77807e-05
65 *516:109 *691:16 0.000344131
66 *516:109 *821:10 1.19928e-05
67 *3439:A1 *516:57 0
68 *3440:A1 *3706:S 0.000105175
69 *3440:A1 *516:57 0
70 *3498:S *3706:S 0.000181006
71 *3617:A *516:51 0
72 *3648:S *516:51 7.58604e-05
73 *3651:A *516:51 4.64326e-05
74 *3654:S *3696:S 5.83121e-06
75 *3667:A *516:51 8.40325e-05
76 *3682:A *516:41 0
77 *3685:S *516:41 0.000383404
78 *3686:A *516:41 8.64421e-05
79 *3841:D *516:109 0.000387103
80 *3842:D *516:57 0.00054482
81 *3846:D *516:105 8.58415e-05
82 *3853:D *3702:S 2.04509e-05
83 *3859:D *516:41 7.56999e-05
84 *3860:D *516:57 1.52418e-05
85 *3864:D *3692:S 0.000309911
86 *3866:D *3696:S 2.75229e-05
87 *4111:A *3698:S 8.23457e-05
88 *4111:A *516:24 0.000207727
89 *202:56 *516:24 1.17614e-05
90 *202:56 *516:105 1.28996e-05
91 *202:65 *516:105 1.21256e-05
92 *479:8 *3698:S 1.7635e-05
93 *479:8 *516:24 0.000239921
94 *479:8 *516:41 0.00022592
95 *498:16 *516:8 1.08758e-05
96 *507:30 *516:8 4.60061e-05
97 *507:114 *516:24 0.00104025
*RES
1 *3691:X *516:8 4.395 
2 *516:8 *516:24 7.57277 
3 *516:24 *3698:S 4.6275 
4 *516:24 *516:41 19.3775 
5 *516:41 *516:51 20.92 
6 *516:51 *516:57 19.565 
7 *516:57 *3696:S 6.465 
8 *516:57 *3706:S 13.65 
9 *516:51 *3700:S 1.6 
10 *516:41 *3702:S 6.98 
11 *516:8 *516:105 13.64 
12 *516:105 *516:109 15.99 
13 *516:109 *3692:S 27.56 
14 *516:109 *3694:S 1.6 
15 *516:105 *3704:S 1.96 
*END

*D_NET *517 0.000101998
*CONN
*I *3693:A I *D sky130_fd_sc_hd__buf_2
*I *3692:X O *D sky130_fd_sc_hd__mux2_2
*CAP
1 *3693:A 5.09988e-05
2 *3692:X 5.09988e-05
*RES
1 *3692:X *3693:A 3.9275 
*END

*D_NET *518 0.000237193
*CONN
*I *3695:A I *D sky130_fd_sc_hd__buf_2
*I *3694:X O *D sky130_fd_sc_hd__mux2_2
*CAP
1 *3695:A 9.3577e-05
2 *3694:X 9.3577e-05
3 *3695:A *3675:A1 0
4 *3695:A *3712:A 0
5 *3695:A *3865:CLK 9.50342e-06
6 *3857:D *3695:A 4.05358e-05
*RES
1 *3694:X *3695:A 8.835 
*END

*D_NET *519 0.000265929
*CONN
*I *3697:A I *D sky130_fd_sc_hd__buf_2
*I *3696:X O *D sky130_fd_sc_hd__mux2_2
*CAP
1 *3697:A 5.42747e-05
2 *3696:X 5.42747e-05
3 *3654:S *3697:A 0.00015738
*RES
1 *3696:X *3697:A 4.6175 
*END

*D_NET *520 0.00026806
*CONN
*I *3699:A I *D sky130_fd_sc_hd__buf_2
*I *3698:X O *D sky130_fd_sc_hd__mux2_2
*CAP
1 *3699:A 4.94997e-05
2 *3698:X 4.94997e-05
3 *3699:A *670:44 0.000141546
4 *488:88 *3699:A 2.75145e-05
*RES
1 *3698:X *3699:A 4.61 
*END

*D_NET *521 0.000221183
*CONN
*I *3701:A I *D sky130_fd_sc_hd__buf_2
*I *3700:X O *D sky130_fd_sc_hd__mux2_2
*CAP
1 *3701:A 6.73706e-05
2 *3700:X 6.73706e-05
3 *516:57 *3701:A 8.64421e-05
*RES
1 *3700:X *3701:A 4.61 
*END

*D_NET *522 0.00048244
*CONN
*I *3703:A I *D sky130_fd_sc_hd__buf_2
*I *3702:X O *D sky130_fd_sc_hd__mux2_2
*CAP
1 *3703:A 0.000212533
2 *3702:X 0.000212533
3 *3703:A *3702:A0 0
4 *3703:A *3720:A 0
5 *3703:A *633:25 0
6 *3703:A *663:43 5.73739e-05
*RES
1 *3702:X *3703:A 10.32 
*END

*D_NET *523 0.000966611
*CONN
*I *3705:A I *D sky130_fd_sc_hd__buf_2
*I *3704:X O *D sky130_fd_sc_hd__mux2_2
*CAP
1 *3705:A 0.000266994
2 *3704:X 0.000266994
3 *3705:A *4052:A 0.000300147
4 *3705:A *599:8 1.23437e-05
5 *3705:A *599:18 7.37982e-05
6 *3862:D *3705:A 4.63352e-05
*RES
1 *3704:X *3705:A 13.68 
*END

*D_NET *524 0.000861974
*CONN
*I *3707:A I *D sky130_fd_sc_hd__buf_2
*I *3706:X O *D sky130_fd_sc_hd__mux2_2
*CAP
1 *3707:A 0.000335017
2 *3706:X 0.000335017
3 *3707:A *3706:A0 0
4 *3707:A *684:31 0
5 *3707:A *684:48 0
6 *3480:A1 *3707:A 0
7 *3498:S *3707:A 0
8 *3863:D *3707:A 0.00019194
*RES
1 *3706:X *3707:A 13.68 
*END

*D_NET *525 0.0218814
*CONN
*I *3721:S I *D sky130_fd_sc_hd__mux2_2
*I *3711:S I *D sky130_fd_sc_hd__mux2_2
*I *3717:S I *D sky130_fd_sc_hd__mux2_2
*I *3719:S I *D sky130_fd_sc_hd__mux2_2
*I *3723:S I *D sky130_fd_sc_hd__mux2_2
*I *3713:S I *D sky130_fd_sc_hd__mux2_2
*I *3709:S I *D sky130_fd_sc_hd__mux2_2
*I *3715:S I *D sky130_fd_sc_hd__mux2_2
*I *3708:Y O *D sky130_fd_sc_hd__nand3b_2
*CAP
1 *3721:S 0.000487495
2 *3711:S 0
3 *3717:S 0
4 *3719:S 0.00092598
5 *3723:S 0.000251537
6 *3713:S 0.000102516
7 *3709:S 0.00060115
8 *3715:S 0.000335804
9 *3708:Y 0.000536071
10 *525:86 0.00108129
11 *525:62 0.000892758
12 *525:60 0.00159014
13 *525:45 0.00191135
14 *525:39 0.00168206
15 *525:29 0.00262526
16 *525:8 0.00174166
17 *3709:S *625:82 0.00045726
18 *3715:S *3715:A0 3.00355e-05
19 *3715:S *3715:A1 1.77665e-05
20 *3715:S *663:16 0.000436118
21 *3715:S *721:12 1.52776e-05
22 *3719:S *3437:S0 5.05437e-05
23 *3719:S *3719:A0 1.9872e-05
24 *3719:S *3719:A1 0.000158536
25 *3719:S *590:6 0.000122337
26 *3719:S *590:25 0.000148977
27 *3719:S *690:14 6.07826e-05
28 *3721:S *3469:A1 7.73406e-05
29 *3721:S *3469:S0 0.000157
30 *3721:S *3704:A0 5.32747e-05
31 *3721:S *3721:A1 0
32 *3721:S *3877:CLK 0
33 *3721:S *4019:A 0.000124895
34 *3721:S *674:8 0
35 *3721:S *685:10 0.000137752
36 *3721:S *685:18 5.51406e-06
37 *3721:S *721:64 0
38 *3721:S *834:10 6.83991e-05
39 *3721:S *842:8 6.05913e-05
40 *525:8 *3238:A3 0.000307604
41 *525:8 *707:41 0.000167697
42 *525:29 *663:16 0.000195431
43 *525:29 *685:18 5.05066e-06
44 *525:29 *721:64 0
45 *525:39 *834:10 0.000271303
46 *525:45 *3711:A1 4.77769e-05
47 *525:45 *623:71 0.000107405
48 *525:60 *3658:A1 3.54721e-05
49 *525:60 *3672:A1 2.75092e-05
50 *525:60 *3689:A0 0
51 *525:60 *690:14 0
52 *525:62 *3977:A 9.47017e-05
53 *525:62 *594:10 4.66108e-05
54 *525:86 *3683:A1 4.12775e-05
55 *525:86 *690:14 0.000104519
56 *3440:A1 *3713:S 8.52972e-05
57 *3622:D_N *3715:S 7.70828e-05
58 *3622:D_N *525:29 0.000173533
59 *3626:A *525:60 0
60 *3672:S *525:60 0.000322224
61 *3684:A *3719:S 0.000112801
62 *3684:A *525:86 0.000212699
63 *3766:D *3715:S 0.000143266
64 *3825:D *525:60 0.000196464
65 *3848:D *3709:S 1.43717e-05
66 *3851:D *3715:S 6.04361e-05
67 *4081:A *3715:S 3.09164e-05
68 *4081:A *525:29 0.000266612
69 *202:104 *525:29 0.000325607
70 *350:30 *525:60 0.000135382
71 *352:44 *3721:S 4.43871e-06
72 *479:8 *3715:S 0.000981503
73 *498:38 *3709:S 2.06497e-05
74 *498:38 *525:45 0.000149523
75 *498:38 *525:60 6.23541e-06
76 *507:46 *525:39 0
77 *516:24 *3715:S 0.000142647
*RES
1 *3708:Y *525:8 10.26 
2 *525:8 *3715:S 16.905 
3 *525:8 *525:29 8.39487 
4 *525:29 *525:39 23.7 
5 *525:39 *525:45 6.09 
6 *525:45 *3709:S 9.31 
7 *525:45 *525:60 21.955 
8 *525:60 *525:62 8.385 
9 *525:62 *3713:S 3.43 
10 *525:62 *3723:S 9.785 
11 *525:60 *525:86 5.885 
12 *525:86 *3719:S 18.54 
13 *525:86 *3717:S 3.6 
14 *525:39 *3711:S 1.6 
15 *525:29 *3721:S 14.28 
*END

*D_NET *526 0.000720774
*CONN
*I *3710:A I *D sky130_fd_sc_hd__buf_1
*I *3709:X O *D sky130_fd_sc_hd__mux2_2
*CAP
1 *3710:A 0.00013802
2 *3709:X 0.00013802
3 *3710:A *3419:A3 4.44403e-05
4 *3710:A *3709:A1 9.91348e-05
5 *3710:A *562:75 0
6 *3710:A *625:65 1.79098e-05
7 *3422:S *3710:A 0.00028325
*RES
1 *3709:X *3710:A 11.07 
*END

*D_NET *527 0.00153677
*CONN
*I *3712:A I *D sky130_fd_sc_hd__buf_1
*I *3711:X O *D sky130_fd_sc_hd__mux2_2
*CAP
1 *3712:A 0.000535695
2 *3711:X 0.000535695
3 *3712:A *3694:A1 0.000241576
4 *3712:A *3746:S 5.53249e-06
5 *3712:A *3865:CLK 0
6 *3712:A *837:12 9.1113e-06
7 *3678:A *3712:A 0
8 *3695:A *3712:A 0
9 *3857:D *3712:A 0
10 *3865:D *3712:A 4.94404e-05
11 *498:38 *3712:A 0.000159722
*RES
1 *3711:X *3712:A 16.185 
*END

*D_NET *528 0.00126595
*CONN
*I *3714:A I *D sky130_fd_sc_hd__buf_1
*I *3713:X O *D sky130_fd_sc_hd__mux2_2
*CAP
1 *3714:A 0.000227538
2 *3713:X 0.000227538
3 *3714:A *3713:A0 0.000271365
4 *3714:A *621:16 5.8687e-05
5 *3714:A *621:96 0.000194157
6 *3714:A *684:48 0.000164185
7 *3714:A *684:50 0.000112971
8 *3663:A *3714:A 9.50342e-06
*RES
1 *3713:X *3714:A 14.31 
*END

*D_NET *529 0.000563619
*CONN
*I *3716:A I *D sky130_fd_sc_hd__buf_1
*I *3715:X O *D sky130_fd_sc_hd__mux2_2
*CAP
1 *3716:A 0.000184812
2 *3715:X 0.000184812
3 *3716:A *685:73 8.35118e-05
4 *3867:D *3716:A 0.000110483
*RES
1 *3715:X *3716:A 6.68 
*END

*D_NET *530 0.000723602
*CONN
*I *3718:A I *D sky130_fd_sc_hd__buf_1
*I *3717:X O *D sky130_fd_sc_hd__mux2_2
*CAP
1 *3718:A 0.000197569
2 *3717:X 0.000197569
3 *3718:A *3437:S0 8.64421e-05
4 *3718:A *594:10 0.000195412
5 *3456:A0 *3718:A 4.66108e-05
*RES
1 *3717:X *3718:A 10.845 
*END

*D_NET *531 0.00110114
*CONN
*I *3720:A I *D sky130_fd_sc_hd__buf_1
*I *3719:X O *D sky130_fd_sc_hd__mux2_2
*CAP
1 *3720:A 0.000340363
2 *3719:X 0.000340363
3 *3720:A *3702:A0 7.90788e-05
4 *3720:A *3719:A1 9.37846e-05
5 *3720:A *562:214 4.8854e-05
6 *3720:A *633:25 0
7 *3720:A *849:10 0.000149839
8 *3703:A *3720:A 0
9 *350:30 *3720:A 4.8854e-05
*RES
1 *3719:X *3720:A 14.475 
*END

*D_NET *532 0.000673474
*CONN
*I *3722:A I *D sky130_fd_sc_hd__buf_1
*I *3721:X O *D sky130_fd_sc_hd__mux2_2
*CAP
1 *3722:A 0.000233672
2 *3721:X 0.000233672
3 *3722:A *4052:A 0.00020613
*RES
1 *3721:X *3722:A 11.43 
*END

*D_NET *533 0.00250192
*CONN
*I *3724:A I *D sky130_fd_sc_hd__buf_1
*I *3723:X O *D sky130_fd_sc_hd__mux2_2
*CAP
1 *3724:A 0.000841277
2 *3723:X 0.000841277
3 *3724:A *3723:A1 0
4 *3724:A *3863:CLK 0.000366021
5 *3724:A *3871:CLK 0.000139469
6 *3724:A *3988:A 0.000116629
7 *3724:A *592:16 1.56428e-05
8 *3724:A *719:75 1.79098e-05
9 *3724:A *851:8 0
10 *3440:A1 *3724:A 0.000104618
11 *3871:D *3724:A 5.9074e-05
*RES
1 *3723:X *3724:A 21.735 
*END

*D_NET *534 0.00150084
*CONN
*I *3726:A I *D sky130_fd_sc_hd__clkbuf_1
*I *3725:X O *D sky130_fd_sc_hd__and3b_2
*CAP
1 *3726:A 0.000508676
2 *3725:X 0.000508676
3 *3726:A *3534:A 2.58308e-05
4 *3726:A *535:8 1.87367e-05
5 *3726:A *535:18 0.000122801
6 *3726:A *562:347 0
7 *3448:A0 *3726:A 0.000316118
8 *3535:A *3726:A 0
*RES
1 *3725:X *3726:A 15.9 
*END

*D_NET *535 0.00997224
*CONN
*I *4079:A I *D sky130_fd_sc_hd__buf_2
*I *3733:S I *D sky130_fd_sc_hd__mux2_2
*I *3739:S I *D sky130_fd_sc_hd__mux2_2
*I *3729:S I *D sky130_fd_sc_hd__mux2_2
*I *3726:X O *D sky130_fd_sc_hd__clkbuf_1
*CAP
1 *4079:A 0
2 *3733:S 0
3 *3739:S 0.000373868
4 *3729:S 0.00112713
5 *3726:X 5.86401e-05
6 *535:26 0.00224678
7 *535:18 0.00113228
8 *535:8 0.000445133
9 *3729:S *3729:A1 3.13354e-05
10 *3729:S *620:70 0.000119873
11 *3729:S *699:52 1.14169e-05
12 *3739:S *3466:S0 0.000354336
13 *3739:S *3468:S 5.05521e-05
14 *3739:S *858:10 0
15 *535:18 *3733:A0 4.77769e-05
16 *535:18 *571:8 0
17 *535:18 *662:12 0.000236689
18 *535:26 *3442:S0 0.000757874
19 *535:26 *3443:A2 3.72081e-05
20 *535:26 *3466:S0 6.01908e-05
21 *535:26 *3733:A0 0.000122808
22 *535:26 *3787:CLK 0.000156106
23 *535:26 *620:42 0.00010505
24 *535:26 *687:78 8.54281e-05
25 *535:26 *791:10 0.000136685
26 *3468:A0 *3739:S 8.65961e-05
27 *3520:S *3729:S 0.00029121
28 *3561:A *3739:S 1.21188e-05
29 *3726:A *535:8 1.87367e-05
30 *3726:A *535:18 0.000122801
31 *3787:D *535:26 0
32 *3795:D *3739:S 6.90254e-05
33 *3795:D *535:26 0.000371059
34 *3811:D *3729:S 8.89101e-06
35 *4084:A *535:26 4.77769e-05
36 *413:54 *535:26 0.000178341
37 *422:10 *535:18 0
38 *422:10 *535:26 1.64067e-05
39 *422:29 *535:26 0.00105212
40 *442:24 *535:26 0
41 *442:37 *3739:S 0
*RES
1 *3726:X *535:8 2.665 
2 *535:8 *535:18 11.53 
3 *535:18 *535:26 26.24 
4 *535:26 *3729:S 17.64 
5 *535:26 *3739:S 11.895 
6 *535:18 *3733:S 1.6 
7 *535:8 *4079:A 1.6 
*END

*D_NET *536 0.000291237
*CONN
*I *3728:A I *D sky130_fd_sc_hd__buf_1
*I *3727:X O *D sky130_fd_sc_hd__mux2_2
*CAP
1 *3728:A 8.31683e-05
2 *3727:X 8.31683e-05
3 *3728:A *626:18 0.0001249
*RES
1 *3727:X *3728:A 4.955 
*END

*D_NET *537 0.00126949
*CONN
*I *3730:A I *D sky130_fd_sc_hd__buf_1
*I *3729:X O *D sky130_fd_sc_hd__mux2_2
*CAP
1 *3730:A 0.000247109
2 *3729:X 0.000247109
3 *3730:A *3428:S 0.000206483
4 *3730:A *630:16 0.000392275
5 *3730:A *681:124 0.000132686
6 *3873:D *3730:A 4.38278e-05
*RES
1 *3729:X *3730:A 13.725 
*END

*D_NET *538 0.000685852
*CONN
*I *3732:A I *D sky130_fd_sc_hd__buf_1
*I *3731:X O *D sky130_fd_sc_hd__mux2_2
*CAP
1 *3732:A 0.000272123
2 *3731:X 0.000272123
3 *3732:A *662:59 0
4 *347:12 *3732:A 0.000141606
*RES
1 *3731:X *3732:A 11.7 
*END

*D_NET *539 0.000645966
*CONN
*I *3734:A I *D sky130_fd_sc_hd__buf_1
*I *3733:X O *D sky130_fd_sc_hd__mux2_2
*CAP
1 *3734:A 0.000247524
2 *3733:X 0.000247524
3 *3734:A *3442:A2 3.12855e-05
4 *3734:A *3751:A 8.33066e-06
5 *3734:A *668:12 2.53645e-05
6 *3875:D *3734:A 3.72081e-05
7 *4084:A *3734:A 4.33601e-05
8 *413:54 *3734:A 5.36975e-06
*RES
1 *3733:X *3734:A 10.6875 
*END

*D_NET *540 0.000864638
*CONN
*I *3736:A I *D sky130_fd_sc_hd__buf_1
*I *3735:X O *D sky130_fd_sc_hd__mux2_2
*CAP
1 *3736:A 0.000245617
2 *3735:X 0.000245617
3 *3736:A *3509:A1 0.000101055
4 *3736:A *3526:S 0.000136826
5 *3736:A *4015:A 0.000135523
*RES
1 *3735:X *3736:A 11.355 
*END

*D_NET *541 0.000494945
*CONN
*I *3738:A I *D sky130_fd_sc_hd__buf_1
*I *3737:X O *D sky130_fd_sc_hd__mux2_2
*CAP
1 *3738:A 0.00012614
2 *3737:X 0.00012614
3 *3738:A *687:78 0.000242664
*RES
1 *3737:X *3738:A 5.99 
*END

*D_NET *542 0.000240603
*CONN
*I *3740:A I *D sky130_fd_sc_hd__buf_1
*I *3739:X O *D sky130_fd_sc_hd__mux2_2
*CAP
1 *3740:A 9.59627e-05
2 *3739:X 9.59627e-05
3 *3740:A *3468:S 4.86773e-05
*RES
1 *3739:X *3740:A 4.955 
*END

*D_NET *543 0.000972675
*CONN
*I *3742:A I *D sky130_fd_sc_hd__buf_1
*I *3741:X O *D sky130_fd_sc_hd__mux2_2
*CAP
1 *3742:A 0.000294772
2 *3741:X 0.000294772
3 *3742:A *3735:S 4.18603e-06
4 *3742:A *662:59 0.000157315
5 *347:12 *3742:A 0.000221631
*RES
1 *3741:X *3742:A 13.725 
*END

*D_NET *544 0.0355275
*CONN
*I *3756:S I *D sky130_fd_sc_hd__mux2_2
*I *3750:S I *D sky130_fd_sc_hd__mux2_2
*I *3754:S I *D sky130_fd_sc_hd__mux2_2
*I *3746:S I *D sky130_fd_sc_hd__mux2_2
*I *3744:S I *D sky130_fd_sc_hd__mux2_2
*I *3748:S I *D sky130_fd_sc_hd__mux2_2
*I *3758:S I *D sky130_fd_sc_hd__mux2_2
*I *3752:S I *D sky130_fd_sc_hd__mux2_2
*I *3743:X O *D sky130_fd_sc_hd__and4bb_2
*CAP
1 *3756:S 0.00148446
2 *3750:S 0.000332147
3 *3754:S 9.65273e-05
4 *3746:S 0.00124456
5 *3744:S 0.000669147
6 *3748:S 4.28072e-05
7 *3758:S 0
8 *3752:S 0
9 *3743:X 0.000718228
10 *544:138 0.00276061
11 *544:78 0.00129054
12 *544:61 0.00154952
13 *544:38 0.00224602
14 *544:32 0.0033381
15 *544:22 0.00201937
16 *544:16 0.00276663
17 *3744:S *3416:A2 0.000187766
18 *3744:S *3501:A0 0.000183745
19 *3744:S *3518:S 0
20 *3744:S *3744:A0 9.23578e-05
21 *3744:S *3744:A1 4.77807e-05
22 *3744:S *3872:CLK 0.000515554
23 *3744:S *628:14 0.000135258
24 *3744:S *628:20 0
25 *3744:S *756:12 4.94326e-05
26 *3746:S *3477:A1 0.000431404
27 *3746:S *3746:A1 5.99393e-05
28 *3746:S *3788:CLK 7.07801e-05
29 *3746:S *3810:CLK 7.04636e-05
30 *3746:S *3865:CLK 7.88223e-05
31 *3746:S *586:10 7.6228e-05
32 *3746:S *779:10 0
33 *3748:S *622:14 1.42674e-05
34 *3748:S *622:23 4.77769e-05
35 *3750:S *3750:A0 0.000122699
36 *3750:S *3750:A1 5.31423e-05
37 *3750:S *571:8 1.7635e-05
38 *3750:S *687:54 0
39 *3754:S *3754:A1 9.03138e-05
40 *3754:S *562:37 4.88478e-05
41 *3754:S *630:16 0
42 *3754:S *681:44 0.000121844
43 *3756:S *3443:S1 1.88656e-05
44 *3756:S *4049:A 0.00232676
45 *544:16 *3552:A_N 4.01548e-05
46 *544:16 *4049:A 0.000191421
47 *544:16 *562:302 3.95472e-05
48 *544:16 *701:10 0
49 *544:16 *703:12 1.05476e-05
50 *544:16 *869:40 5.09887e-05
51 *544:22 *681:44 0.000146973
52 *544:32 *3432:A1 0.000111285
53 *544:32 *4019:A 0.0005721
54 *544:32 *630:16 0
55 *544:32 *681:44 1.79536e-05
56 *544:32 *681:58 0.000150781
57 *544:38 *3526:A0 0.000294421
58 *544:38 *3526:A1 2.60908e-05
59 *544:38 *618:25 3.09233e-05
60 *544:38 *681:58 0.000416778
61 *544:61 *3450:A1 0.000103192
62 *544:61 *3450:S0 0
63 *544:61 *3450:S1 0.000163019
64 *544:61 *3735:A0 0.000115945
65 *544:61 *3758:A0 0.00027486
66 *544:61 *3815:CLK 8.07175e-05
67 *544:61 *4098:A 0
68 *544:61 *618:25 0.00030156
69 *544:61 *720:36 2.19562e-06
70 *544:61 *867:8 4.49328e-05
71 *544:78 *3748:A0 2.49909e-05
72 *544:78 *3758:A0 8.34281e-06
73 *544:78 *3759:A 4.82863e-05
74 *544:78 *3872:CLK 0.00015356
75 *544:78 *4015:A 0.000443321
76 *544:78 *4047:A 8.07863e-05
77 *544:78 *622:14 9.55262e-06
78 *544:78 *628:20 7.18529e-05
79 *544:78 *668:41 0.000141599
80 *544:138 *4049:A 0.000668059
81 *3433:B1_N *3746:S 0
82 *3440:A0 *544:38 0.000202056
83 *3440:A1 *544:38 8.65905e-05
84 *3440:S *544:38 0.000124895
85 *3441:A *544:38 3.26084e-05
86 *3464:A0 *544:32 5.90239e-06
87 *3468:A1 *3756:S 0.000192505
88 *3475:B *544:61 0.000108608
89 *3477:A2 *3746:S 0
90 *3540:S *3746:S 0.000568635
91 *3544:S *3746:S 0.00055087
92 *3545:A *3746:S 0.000308393
93 *3551:A *3746:S 0.000152781
94 *3712:A *3746:S 5.53249e-06
95 *3769:D *3746:S 0.000131525
96 *3788:D *3746:S 0.000113797
97 *3849:D *544:32 4.82919e-05
98 *3872:D *3744:S 0
99 *3879:D *544:61 0.000233789
100 *347:12 *544:38 0
101 *347:12 *544:61 9.57735e-05
102 *413:108 *3744:S 0.000405566
103 *413:108 *544:78 0.000120069
104 *413:112 *544:78 0
105 *432:30 *3750:S 0
106 *432:47 *3746:S 0.000152821
107 *461:26 *544:22 0.00160435
108 *461:26 *544:32 0
109 *507:12 *544:16 2.18056e-05
110 *507:30 *544:16 3.21948e-06
*RES
1 *3743:X *544:16 6.91103 
2 *544:16 *544:22 3.80567 
3 *544:22 *544:32 16.4825 
4 *544:32 *544:38 24.92 
5 *544:38 *3752:S 3.6 
6 *544:38 *544:61 24.725 
7 *544:61 *3758:S 1.6 
8 *544:61 *544:78 18.04 
9 *544:78 *3748:S 2.395 
10 *544:78 *3744:S 22.31 
11 *544:32 *3746:S 37.13 
12 *544:22 *3754:S 5.9025 
13 *544:16 *544:138 2.38387 
14 *544:138 *3750:S 7.60943 
15 *544:138 *3756:S 11.2843 
*END

*D_NET *545 0.000221183
*CONN
*I *3745:A I *D sky130_fd_sc_hd__buf_1
*I *3744:X O *D sky130_fd_sc_hd__mux2_2
*CAP
1 *3745:A 6.73706e-05
2 *3744:X 6.73706e-05
3 *3745:A *628:14 8.64421e-05
*RES
1 *3744:X *3745:A 4.61 
*END

*D_NET *546 0.00268381
*CONN
*I *3747:A I *D sky130_fd_sc_hd__buf_1
*I *3746:X O *D sky130_fd_sc_hd__mux2_2
*CAP
1 *3747:A 0.000561522
2 *3746:X 0.000561522
3 *3747:A *3426:S0 0
4 *3747:A *3503:A0 0.000424356
5 *3747:A *3746:A0 1.7245e-05
6 *3747:A *3746:A1 1.79098e-05
7 *3747:A *3881:CLK 1.79098e-05
8 *3747:A *624:42 3.67496e-05
9 *3747:A *686:10 3.18137e-05
10 *3747:A *749:10 0.000235915
11 *3433:A2 *3747:A 0.000673538
12 *3881:D *3747:A 0.000105328
*RES
1 *3746:X *3747:A 20.55 
*END

*D_NET *547 0.000289541
*CONN
*I *3749:A I *D sky130_fd_sc_hd__buf_1
*I *3748:X O *D sky130_fd_sc_hd__mux2_2
*CAP
1 *3749:A 8.36695e-05
2 *3748:X 8.36695e-05
3 *3749:A *3748:A0 0.000122202
*RES
1 *3748:X *3749:A 4.955 
*END

*D_NET *548 0.00167529
*CONN
*I *3751:A I *D sky130_fd_sc_hd__buf_1
*I *3750:X O *D sky130_fd_sc_hd__mux2_2
*CAP
1 *3751:A 0.000611641
2 *3750:X 0.000611641
3 *3751:A *3442:A2 2.93439e-05
4 *3751:A *3750:A1 7.33923e-05
5 *3751:A *3883:CLK 5.92331e-05
6 *3751:A *620:22 6.96004e-05
7 *3751:A *729:80 8.52972e-05
8 *3473:B1_N *3751:A 5.21235e-05
9 *3734:A *3751:A 8.33066e-06
10 *3883:D *3751:A 7.46875e-05
*RES
1 *3750:X *3751:A 15.6 
*END

*D_NET *549 0.00203925
*CONN
*I *3753:A I *D sky130_fd_sc_hd__buf_1
*I *3752:X O *D sky130_fd_sc_hd__mux2_2
*CAP
1 *3753:A 0.000303703
2 *3752:X 0.000303703
3 *3753:A *3752:A0 0.000116233
4 *3753:A *3856:CLK 0.000184008
5 *3753:A *4011:A 0.000109539
6 *3753:A *4015:A 0.000468933
7 *3425:A *3753:A 0.000204854
8 *3441:A *3753:A 0.000348281
*RES
1 *3752:X *3753:A 16.9425 
*END

*D_NET *550 0.00163379
*CONN
*I *3755:A I *D sky130_fd_sc_hd__buf_1
*I *3754:X O *D sky130_fd_sc_hd__mux2_2
*CAP
1 *3755:A 0.000465269
2 *3754:X 0.000465269
3 *3755:A *3754:A0 0.000158515
4 *3755:A *3781:CLK 0.000157418
5 *3755:A *562:37 1.9872e-05
6 *3755:A *612:51 0.000150863
7 *3755:A *630:16 0
8 *3755:A *724:26 0.000122801
9 *3885:D *3755:A 9.37846e-05
*RES
1 *3754:X *3755:A 16.845 
*END

*D_NET *551 0.000284334
*CONN
*I *3757:A I *D sky130_fd_sc_hd__buf_1
*I *3756:X O *D sky130_fd_sc_hd__mux2_2
*CAP
1 *3757:A 0.000123521
2 *3756:X 0.000123521
3 *3886:D *3757:A 3.72916e-05
*RES
1 *3756:X *3757:A 5.3 
*END

*D_NET *552 0.0014329
*CONN
*I *3759:A I *D sky130_fd_sc_hd__buf_1
*I *3758:X O *D sky130_fd_sc_hd__mux2_2
*CAP
1 *3759:A 0.000225389
2 *3758:X 0.000225389
3 *3759:A *3515:A0 0.000289026
4 *3759:A *3758:A0 1.91597e-05
5 *3759:A *4015:A 0.000398699
6 *3759:A *668:41 4.32182e-05
7 *3759:A *755:10 0.000183731
8 *544:78 *3759:A 4.82863e-05
*RES
1 *3758:X *3759:A 13.725 
*END

*D_NET *553 0.0018149
*CONN
*I *3368:B2 I *D sky130_fd_sc_hd__a32oi_2
*I *3383:A1 I *D sky130_fd_sc_hd__o2111a_2
*I *3889:Q O *D sky130_fd_sc_hd__dfrtp_2
*CAP
1 *3368:B2 0.000132296
2 *3383:A1 6.82115e-05
3 *3889:Q 0.000378653
4 *553:6 0.00057916
5 *553:6 *3380:A_N 2.49909e-05
6 *553:6 *3891:CLK 3.65716e-05
7 *3380:C *3383:A1 0.000235364
8 *3380:C *553:6 5.37119e-05
9 *3383:A2 *3368:B2 5.80021e-05
10 *312:6 *3368:B2 4.89395e-05
11 *312:6 *3383:A1 0.000199002
*RES
1 *3889:Q *553:6 5.845 
2 *553:6 *3383:A1 4.39 
3 *553:6 *3368:B2 7.775 
*END

*D_NET *554 0.000808999
*CONN
*I *3368:A3 I *D sky130_fd_sc_hd__a32oi_2
*I *3380:A_N I *D sky130_fd_sc_hd__nand3b_2
*I *3890:Q O *D sky130_fd_sc_hd__dfrtp_2
*CAP
1 *3368:A3 6.42348e-05
2 *3380:A_N 1.93533e-05
3 *3890:Q 9.10365e-05
4 *554:10 0.000174625
5 *3368:A3 *3890:D 5.09291e-05
6 *3380:A_N *3891:CLK 2.49909e-05
7 *554:10 *3890:D 1.82571e-05
8 *554:10 *3891:CLK 5.18266e-05
9 *3367:A1 *3368:A3 0.000153058
10 *3367:A1 *554:10 0.000135697
11 *553:6 *3380:A_N 2.49909e-05
*RES
1 *3890:Q *554:10 5.685 
2 *554:10 *3380:A_N 4.05 
3 *554:10 *3368:A3 5.49 
*END

*D_NET *555 0.000864693
*CONN
*I *3393:B1_N I *D sky130_fd_sc_hd__a21bo_2
*I *3377:A_N I *D sky130_fd_sc_hd__nand3b_2
*I *3891:Q O *D sky130_fd_sc_hd__dfrtp_2
*CAP
1 *3393:B1_N 1.38148e-05
2 *3377:A_N 0.000160922
3 *3891:Q 7.02922e-05
4 *555:10 0.000245029
5 *3377:B *3377:A_N 9.63179e-05
6 *3393:A1 *3377:A_N 8.65961e-05
7 *3393:A2 *3377:A_N 5.0128e-05
8 *3401:A1 *555:10 0
9 *3401:A2 *555:10 0.000141592
*RES
1 *3891:Q *555:10 7.235 
2 *555:10 *3377:A_N 4.84 
3 *555:10 *3393:B1_N 1.8325 
*END

*D_NET *556 0.000793364
*CONN
*I *3400:A I *D sky130_fd_sc_hd__or3_4
*I *3392:B1 I *D sky130_fd_sc_hd__o21ai_2
*I *3892:Q O *D sky130_fd_sc_hd__dfrtp_2
*CAP
1 *3400:A 0
2 *3392:B1 0.000114712
3 *3892:Q 0.000203438
4 *556:8 0.00031815
5 *556:8 *3892:CLK 8.65961e-05
6 *3392:A1 *3392:B1 2.05056e-05
7 *3400:C *3392:B1 4.99619e-05
*RES
1 *3892:Q *556:8 4.735 
2 *556:8 *3392:B1 3.445 
3 *556:8 *3400:A 1.6 
*END

*D_NET *557 0.00059403
*CONN
*I *3323:B I *D sky130_fd_sc_hd__nand2_2
*I *3894:Q O *D sky130_fd_sc_hd__dfrtp_2
*CAP
1 *3323:B 0.000132964
2 *3894:Q 0.000132964
3 *3308:A2_N *3323:B 0.000133453
4 *3327:B1 *3323:B 4.77807e-05
5 *3327:B2 *3323:B 0.000134875
6 *3328:B1 *3323:B 1.19928e-05
*RES
1 *3894:Q *3323:B 10.08 
*END

*D_NET *558 0.00148199
*CONN
*I *3326:B1 I *D sky130_fd_sc_hd__o22ai_2
*I *3327:A1_N I *D sky130_fd_sc_hd__o2bb2ai_2
*I *3895:Q O *D sky130_fd_sc_hd__dfrtp_2
*CAP
1 *3326:B1 0.00020461
2 *3327:A1_N 8.48135e-05
3 *3895:Q 0.000103935
4 *558:10 0.000393359
5 *3326:B1 *3929:RESET_B 2.23203e-05
6 *3326:B1 *718:91 0.000111173
7 *558:10 *718:81 4.89395e-05
8 *558:10 *718:91 7.58309e-05
9 *3325:B1 *3326:B1 0.000208491
10 *3326:B2 *3326:B1 8.97642e-05
11 *3327:A2_N *3326:B1 0
12 *3327:B2 *3326:B1 0.00012772
13 *3327:B2 *558:10 1.10359e-05
*RES
1 *3895:Q *558:10 5.685 
2 *558:10 *3327:A1_N 4.74 
3 *558:10 *3326:B1 9.825 
*END

*D_NET *559 0.00090374
*CONN
*I *3315:A I *D sky130_fd_sc_hd__nor2_2
*I *3328:A2 I *D sky130_fd_sc_hd__a21oi_2
*I *3896:Q O *D sky130_fd_sc_hd__dfrtp_2
*CAP
1 *3315:A 3.58606e-05
2 *3328:A2 0
3 *3896:Q 0.000386318
4 *559:12 0.000422179
5 *3315:B *3315:A 5.93828e-05
*RES
1 *3896:Q *559:12 10.85 
2 *559:12 *3328:A2 1.6 
3 *559:12 *3315:A 2.41 
*END

*D_NET *560 0.0015617
*CONN
*I *3336:B1 I *D sky130_fd_sc_hd__a31oi_2
*I *3329:A2_N I *D sky130_fd_sc_hd__o2bb2ai_2
*I *3897:Q O *D sky130_fd_sc_hd__dfrtp_2
*CAP
1 *3336:B1 0.000262421
2 *3329:A2_N 0
3 *3897:Q 0.000132204
4 *560:8 0.000394625
5 *3336:B1 *3893:CLK 1.52776e-05
6 *3336:B1 *3900:CLK 5.53249e-06
7 *560:8 *3900:CLK 6.71803e-06
8 *560:8 *596:66 0.000160045
9 *3311:A *3336:B1 1.70935e-05
10 *3329:A1_N *3336:B1 0.000320834
11 *3329:B1 *3336:B1 5.11148e-06
12 *3329:B1 *560:8 4.91189e-05
13 *3338:A *3336:B1 0.000192721
14 *247:14 *560:8 0
*RES
1 *3897:Q *560:8 7.02 
2 *560:8 *3329:A2_N 3.6 
3 *560:8 *3336:B1 10.215 
*END

*D_NET *561 0.00622603
*CONN
*I *3947:A I *D sky130_fd_sc_hd__clkbuf_16
*I *3946:A I *D sky130_fd_sc_hd__clkbuf_16
*I *3949:A I *D sky130_fd_sc_hd__clkbuf_16
*I *3948:A I *D sky130_fd_sc_hd__clkbuf_16
*I *3944:X O *D sky130_fd_sc_hd__clkbuf_16
*CAP
1 *3947:A 6.96177e-05
2 *3946:A 0.000110362
3 *3949:A 2.24066e-05
4 *3948:A 0.000122243
5 *3944:X 0
6 *561:73 9.6656e-05
7 *561:61 0.000144068
8 *561:59 0.000630905
9 *561:48 0.000660584
10 *561:35 0.000486703
11 *561:15 0.000253352
12 *561:13 0.00120443
13 *561:6 0.000609025
14 *561:4 9.04239e-05
15 *3946:A *709:8 4.41506e-05
16 *3947:A *4038:A 4.88429e-05
17 *561:13 *3405:A 0
18 *561:59 *709:38 0.00035163
19 *3234:B *561:59 8.97486e-05
20 *3261:B *561:59 0
21 *3359:C *561:13 1.37188e-05
22 *3364:C1 *561:13 2.50751e-05
23 *3373:C *561:13 7.94942e-05
24 *3374:B *3948:A 2.50318e-07
25 *3374:B *561:15 2.75145e-05
26 *3374:C *3948:A 1.36353e-05
27 *3374:C *561:15 4.7494e-06
28 *3376:A1 *561:13 0.000263729
29 *3376:A2 *3948:A 2.937e-05
30 *3386:A2 *561:13 1.65192e-05
31 *3387:B1 *561:35 0.000118166
32 *3387:B2 *561:35 2.8185e-05
33 *3391:A2 *561:35 5.53249e-06
34 *3407:B1 *561:59 0
35 *176:14 *561:13 0
36 *181:23 *561:13 0.000427231
37 *282:10 *561:13 0.000103417
38 *304:31 *561:13 0
39 *304:44 *561:13 0
40 *304:44 *561:35 0
41 *323:12 *3949:A 3.42935e-05
42 *323:12 *561:35 0
*RES
1 *3944:X *561:4 1.6 
2 *561:4 *561:6 2 
3 *561:6 *561:13 16.895 
4 *561:13 *561:15 1.93125 
5 *561:15 *3948:A 3.59875 
6 *561:13 *561:35 9.53 
7 *561:35 *3949:A 4.11375 
8 *561:4 *561:48 1.14375 
9 *561:48 *561:59 14.7063 
10 *561:59 *561:61 0.495 
11 *561:61 *3946:A 3.04 
12 *561:59 *561:73 0.40125 
13 *561:73 *3947:A 2.78875 
*END

*D_NET *562 0.0351685
*CONN
*I *3954:A I *D sky130_fd_sc_hd__clkbuf_8
*I *3953:A I *D sky130_fd_sc_hd__clkbuf_8
*I *3956:A I *D sky130_fd_sc_hd__clkbuf_8
*I *3955:A I *D sky130_fd_sc_hd__clkbuf_8
*I *3952:A I *D sky130_fd_sc_hd__clkbuf_8
*I *3951:A I *D sky130_fd_sc_hd__clkbuf_8
*I *3964:A I *D sky130_fd_sc_hd__clkbuf_8
*I *3965:A I *D sky130_fd_sc_hd__clkbuf_8
*I *3959:A I *D sky130_fd_sc_hd__clkbuf_8
*I *3958:A I *D sky130_fd_sc_hd__clkbuf_8
*I *3963:A I *D sky130_fd_sc_hd__clkbuf_8
*I *3962:A I *D sky130_fd_sc_hd__clkbuf_8
*I *3961:A I *D sky130_fd_sc_hd__clkbuf_8
*I *3960:A I *D sky130_fd_sc_hd__clkbuf_8
*I *3957:A I *D sky130_fd_sc_hd__clkbuf_8
*I *3950:A I *D sky130_fd_sc_hd__clkbuf_8
*I *3945:X O *D sky130_fd_sc_hd__clkbuf_16
*CAP
1 *3954:A 9.53829e-05
2 *3953:A 3.29173e-05
3 *3956:A 2.96303e-05
4 *3955:A 9.82937e-05
5 *3952:A 1.45943e-05
6 *3951:A 7.12841e-05
7 *3964:A 0
8 *3965:A 0
9 *3959:A 0
10 *3958:A 0
11 *3963:A 0
12 *3962:A 8.47995e-05
13 *3961:A 0
14 *3960:A 0
15 *3957:A 7.95331e-05
16 *3950:A 0
17 *3945:X 0.000149801
18 *562:347 0.00032629
19 *562:329 0.000312058
20 *562:308 0.000209534
21 *562:302 0.00206261
22 *562:289 0.00203336
23 *562:262 0.00112811
24 *562:248 0.00136741
25 *562:229 8.10256e-05
26 *562:224 0.000115374
27 *562:220 0.000136224
28 *562:214 0.000636881
29 *562:204 0.00206607
30 *562:176 0.000250778
31 *562:162 0.00144554
32 *562:137 0.00121271
33 *562:130 0.00010275
34 *562:126 0.000228119
35 *562:117 0.000313089
36 *562:110 0.000168422
37 *562:106 0.000744818
38 *562:81 0.000167457
39 *562:75 0.00117161
40 *562:69 0.00162315
41 *562:62 6.69818e-05
42 *562:60 7.98508e-05
43 *562:56 0.000359902
44 *562:47 0.000347774
45 *562:43 0.000160875
46 *562:37 0.00181347
47 *562:11 0.00300332
48 *562:6 0.000164156
49 *3951:A *568:8 5.39435e-05
50 *3952:A *3445:S0 3.05183e-05
51 *3952:A *3867:CLK 3.05183e-05
52 *3953:A *727:22 2.05747e-05
53 *3954:A *681:44 0.000100276
54 *3956:A *3932:CLK 3.05183e-05
55 *562:37 *3511:A0 3.74939e-05
56 *562:37 *3754:A0 1.7824e-05
57 *562:37 *4052:A 9.47616e-05
58 *562:37 *576:12 0.000186579
59 *562:56 *610:6 0.000240535
60 *562:56 *768:10 1.34503e-05
61 *562:60 *3993:A 2.75229e-05
62 *562:60 *610:6 7.80805e-05
63 *562:62 *3993:A 7.56322e-05
64 *562:62 *610:6 6.89361e-05
65 *562:69 *3993:A 8.91017e-05
66 *562:69 *610:6 4.40711e-05
67 *562:69 *610:12 5.05437e-05
68 *562:75 *3419:A3 0
69 *562:75 *3419:S1 0.000143501
70 *562:75 *3597:A1 0
71 *562:75 *610:45 0
72 *562:106 *3452:A2 0
73 *562:106 *3452:S0 0.000481102
74 *562:106 *3586:A1 0.000200653
75 *562:106 *3597:A1 0
76 *562:126 *578:10 2.56752e-06
77 *562:162 *3426:A1 2.0172e-05
78 *562:162 *3810:CLK 8.41015e-06
79 *562:162 *3813:CLK 5.05066e-06
80 *562:162 *630:16 7.40338e-05
81 *562:162 *749:10 1.79174e-05
82 *562:176 *3426:A1 7.44495e-05
83 *562:176 *3971:A 0.000255775
84 *562:176 *630:16 0.000372196
85 *562:204 *3470:S0 0
86 *562:204 *3635:S 2.382e-05
87 *562:204 *3862:CLK 6.00029e-05
88 *562:204 *3983:A 0.000160263
89 *562:204 *570:10 8.11456e-05
90 *562:214 *3635:A0 8.83862e-05
91 *562:214 *3635:A1 3.33337e-05
92 *562:214 *3635:S 2.86691e-05
93 *562:229 *633:25 7.51327e-05
94 *562:248 *3635:A0 2.55825e-05
95 *562:248 *3635:S 1.64056e-05
96 *562:248 *3980:A 0
97 *562:248 *3981:A 0
98 *562:248 *692:30 0
99 *562:262 *3843:CLK 5.83121e-06
100 *562:262 *3981:A 9.27495e-05
101 *562:262 *568:8 6.88044e-05
102 *562:262 *598:6 3.80606e-05
103 *562:262 *598:14 8.82308e-05
104 *562:262 *663:26 5.28932e-05
105 *562:262 *663:43 0.000168213
106 *562:302 *3552:A_N 1.00941e-05
107 *562:302 *3552:C 0
108 *562:302 *3915:CLK 0.000113932
109 *562:302 *606:14 0
110 *562:302 *683:59 9.10974e-05
111 *562:302 *701:84 0
112 *562:302 *707:91 6.81922e-05
113 *562:308 *885:10 2.69217e-05
114 *562:329 *707:91 4.40907e-05
115 *562:347 *681:44 0.00014987
116 *562:347 *703:107 0
117 *562:347 *707:91 6.44872e-05
118 *3246:A *562:302 7.32392e-05
119 *3246:A *562:308 4.09926e-05
120 *3422:S *562:75 0
121 *3422:S *562:81 0
122 *3440:A0 *562:75 0.000511932
123 *3440:A0 *562:106 0.000839232
124 *3448:A0 *562:347 0
125 *3453:A2 *562:56 0.000112097
126 *3463:A1 *562:248 0.000204804
127 *3463:A1 *562:262 9.16315e-05
128 *3463:S *562:248 7.08331e-05
129 *3464:A0 *562:37 8.64752e-05
130 *3471:A2 *562:204 0.00075747
131 *3481:B1 *562:75 0
132 *3511:S *562:37 0.000149462
133 *3535:A *562:347 0
134 *3540:S *562:162 8.41015e-06
135 *3571:A *562:204 4.87759e-05
136 *3636:A *562:214 7.10632e-05
137 *3659:A *562:75 0.000111214
138 *3659:A *562:81 2.24336e-05
139 *3665:A *562:262 0.000105841
140 *3671:A *562:204 7.15997e-05
141 *3688:A *562:204 5.06382e-06
142 *3692:S *562:75 6.12027e-05
143 *3710:A *562:75 0
144 *3720:A *562:214 4.8854e-05
145 *3726:A *562:347 0
146 *3754:S *562:37 4.88478e-05
147 *3755:A *562:37 1.9872e-05
148 *3796:D *562:43 1.08758e-05
149 *3796:D *562:47 4.47125e-05
150 *3796:D *562:56 0.000114753
151 *3843:D *562:262 9.43303e-05
152 *3869:D *562:214 0.000112118
153 *4111:A *562:204 7.40338e-05
154 *173:29 *562:204 0.00020985
155 *202:78 *562:204 0
156 *350:30 *562:214 0.000214961
157 *350:30 *562:220 3.90721e-05
158 *350:30 *562:224 4.90291e-05
159 *350:30 *562:248 7.96104e-06
160 *350:57 *562:81 0
161 *352:34 *562:302 9.75971e-05
162 *352:34 *562:329 3.11802e-05
163 *352:44 *562:37 0.000308926
164 *432:20 *562:329 1.70935e-05
165 *432:20 *562:347 1.03833e-05
166 *461:26 *562:37 1.00941e-05
167 *470:25 *562:204 0.00033157
168 *488:65 *562:204 0.000610209
169 *544:16 *562:302 3.95472e-05
*RES
1 *3945:X *562:6 2.78125 
2 *562:6 *562:11 1.09875 
3 *562:11 *562:37 31.5025 
4 *562:37 *562:43 1.6725 
5 *562:43 *562:47 2.795 
6 *562:47 *562:56 8.8175 
7 *562:56 *562:60 1.3125 
8 *562:60 *562:62 1.215 
9 *562:62 *562:69 3.41 
10 *562:69 *562:75 17.325 
11 *562:75 *562:81 2.955 
12 *562:81 *3950:A 3.6 
13 *562:75 *3957:A 4.74 
14 *562:69 *562:106 20.675 
15 *562:106 *562:110 1.215 
16 *562:110 *3960:A 1.6 
17 *562:110 *562:117 1.2375 
18 *562:117 *562:126 5.6075 
19 *562:126 *562:130 2 
20 *562:130 *3961:A 1.6 
21 *562:130 *562:137 1.36875 
22 *562:137 *562:162 20.2221 
23 *562:162 *3962:A 4.74 
24 *562:162 *562:176 8.01 
25 *562:176 *3963:A 3.6 
26 *562:60 *3958:A 1.6 
27 *562:43 *3959:A 1.6 
28 *562:11 *562:204 35.14 
29 *562:204 *562:214 10.5975 
30 *562:214 *562:220 1.8525 
31 *562:220 *562:224 2.795 
32 *562:224 *562:229 1.635 
33 *562:229 *3965:A 3.6 
34 *562:220 *3964:A 1.6 
35 *562:204 *562:248 8.48 
36 *562:248 *562:262 23.8725 
37 *562:262 *3951:A 2.9125 
38 *562:248 *3952:A 4.095 
39 *3945:X *562:289 4.395 
40 *562:289 *562:302 11.1629 
41 *562:302 *562:308 4.0025 
42 *562:308 *3955:A 2.9125 
43 *562:302 *3956:A 4.095 
44 *562:289 *562:329 1.38 
45 *562:329 *3953:A 4.11375 
46 *562:329 *562:347 6.785 
47 *562:347 *3954:A 3.49 
*END

*D_NET *563 0.00617639
*CONN
*I *4005:A I *D sky130_fd_sc_hd__clkbuf_4
*I *3909:CLK I *D sky130_fd_sc_hd__dfrtp_2
*I *3904:CLK I *D sky130_fd_sc_hd__dfrtp_2
*I *3912:CLK I *D sky130_fd_sc_hd__dfrtp_2
*I *3907:CLK I *D sky130_fd_sc_hd__dfrtp_2
*I *3935:CLK I *D sky130_fd_sc_hd__dfrtp_2
*I *3908:CLK I *D sky130_fd_sc_hd__dfrtp_2
*I *3934:CLK I *D sky130_fd_sc_hd__dfrtp_2
*I *3946:X O *D sky130_fd_sc_hd__clkbuf_16
*CAP
1 *4005:A 0
2 *3909:CLK 0
3 *3904:CLK 0.000307509
4 *3912:CLK 0.000271973
5 *3907:CLK 0
6 *3935:CLK 0.000669387
7 *3908:CLK 0
8 *3934:CLK 0.000306725
9 *3946:X 4.14432e-05
10 *563:61 0.000687749
11 *563:36 0.000805784
12 *563:30 0.000557538
13 *563:23 0.000177752
14 *563:14 0.000581611
15 *563:10 0.000732884
16 *563:6 0.000147786
17 *3904:CLK *729:54 0.000145288
18 *3912:CLK *3908:D 6.05513e-05
19 *3912:CLK *3908:RESET_B 0.000164709
20 *3912:CLK *3913:D 5.09431e-05
21 *563:6 *875:10 8.23457e-05
22 *563:10 *3909:RESET_B 0
23 *563:10 *894:25 6.80391e-05
24 *563:14 *3406:A 6.13356e-05
25 *563:14 *894:25 3.5981e-05
26 *563:30 *3908:D 6.03928e-05
27 *563:36 *3908:D 0
28 *563:61 *3904:RESET_B 4.41931e-05
29 *563:61 *729:54 2.69217e-05
30 *3231:A2 *3904:CLK 4.77807e-05
31 *180:20 *563:10 3.97719e-05
*RES
1 *3946:X *563:6 2.395 
2 *563:6 *563:10 4.145 
3 *563:10 *563:14 6.185 
4 *563:14 *3934:CLK 6.19 
5 *563:14 *563:23 0.45 
6 *563:23 *3908:CLK 1.6 
7 *563:23 *563:30 2.52 
8 *563:30 *563:36 6.145 
9 *563:36 *3935:CLK 11.365 
10 *563:36 *3907:CLK 1.6 
11 *563:30 *3912:CLK 7.225 
12 *563:10 *563:61 7.985 
13 *563:61 *3904:CLK 11.39 
14 *563:61 *3909:CLK 1.6 
15 *563:6 *4005:A 1.6 
*END

*D_NET *564 0.00665128
*CONN
*I *3943:CLK I *D sky130_fd_sc_hd__dfrtp_2
*I *3910:CLK I *D sky130_fd_sc_hd__dfrtp_2
*I *3938:CLK I *D sky130_fd_sc_hd__dfstp_2
*I *3911:CLK I *D sky130_fd_sc_hd__dfrtp_2
*I *3937:CLK I *D sky130_fd_sc_hd__dfrtp_2
*I *3905:CLK I *D sky130_fd_sc_hd__dfrtp_2
*I *3906:CLK I *D sky130_fd_sc_hd__dfrtp_2
*I *3947:X O *D sky130_fd_sc_hd__clkbuf_16
*CAP
1 *3943:CLK 0.000241921
2 *3910:CLK 2.11983e-05
3 *3938:CLK 2.22896e-05
4 *3911:CLK 0.000482073
5 *3937:CLK 0.000477482
6 *3905:CLK 0.000180156
7 *3906:CLK 0.000279386
8 *3947:X 0
9 *564:71 0.000305255
10 *564:18 0.000529122
11 *564:16 0.000690028
12 *564:10 0.000747168
13 *564:8 0.000202924
14 *564:6 0.000100642
15 *3906:CLK *3917:D 2.75254e-05
16 *3906:CLK *3918:D 0.000170343
17 *3910:CLK *3913:RESET_B 4.82919e-05
18 *3911:CLK *3912:RESET_B 0.000108413
19 *3911:CLK *896:10 6.81992e-05
20 *3938:CLK *3938:D 4.77807e-05
21 *3943:CLK *3943:D 0.00018471
22 *3943:CLK *730:31 4.47504e-06
23 *3943:CLK *898:10 4.70995e-05
24 *564:8 *3938:D 0.000221075
25 *564:10 *3918:D 7.32933e-05
26 *564:10 *3938:D 2.98644e-05
27 *564:10 *730:31 6.78126e-05
28 *564:16 *3918:D 0.000119022
29 *564:16 *3937:RESET_B 1.67513e-05
30 *564:18 *3917:D 0
31 *564:18 *3918:D 4.19797e-05
32 *564:71 *3938:D 6.28498e-05
33 *564:71 *730:31 2.96383e-05
34 *3449:A *3937:CLK 0.000293619
35 *15:30 *3943:CLK 0.000214591
36 *15:30 *564:8 0.000140181
37 *15:30 *564:10 0.000213078
38 *15:30 *564:16 5.45555e-05
39 *15:30 *564:71 8.64855e-05
*RES
1 *3947:X *564:6 3.6 
2 *564:6 *564:8 2.655 
3 *564:8 *564:10 4.185 
4 *564:10 *564:16 3.465 
5 *564:16 *564:18 1.38 
6 *564:18 *3906:CLK 9.45 
7 *564:18 *3905:CLK 6.12 
8 *564:16 *3937:CLK 9.84 
9 *564:10 *3911:CLK 10.95 
10 *564:8 *3938:CLK 4.05 
11 *564:6 *564:71 1.635 
12 *564:71 *3910:CLK 4.05 
13 *564:71 *3943:CLK 9.27 
*END

*D_NET *565 0.0143499
*CONN
*I *3941:CLK I *D sky130_fd_sc_hd__dfrtp_2
*I *4006:A I *D sky130_fd_sc_hd__clkbuf_4
*I *3940:CLK I *D sky130_fd_sc_hd__dfrtp_2
*I *3942:CLK I *D sky130_fd_sc_hd__dfrtp_2
*I *3891:CLK I *D sky130_fd_sc_hd__dfrtp_2
*I *3939:CLK I *D sky130_fd_sc_hd__dfrtp_2
*I *3889:CLK I *D sky130_fd_sc_hd__dfrtp_2
*I *3890:CLK I *D sky130_fd_sc_hd__dfrtp_2
*I *3948:X O *D sky130_fd_sc_hd__clkbuf_16
*CAP
1 *3941:CLK 0.000994037
2 *4006:A 0
3 *3940:CLK 0.000146253
4 *3942:CLK 0.000964988
5 *3891:CLK 0.000545966
6 *3939:CLK 2.08101e-05
7 *3889:CLK 0.000331025
8 *3890:CLK 0
9 *3948:X 0
10 *565:74 0.00115317
11 *565:72 6.91585e-05
12 *565:70 0.00109491
13 *565:26 0.000751268
14 *565:18 0.00063395
15 *565:10 0.00104662
16 *565:4 0.000381407
17 *3889:CLK *3889:D 2.01644e-05
18 *3889:CLK *713:98 0
19 *3891:CLK *3890:D 9.47911e-05
20 *3940:CLK *4023:A 1.79174e-05
21 *3940:CLK *688:14 3.21772e-05
22 *3940:CLK *732:27 0.000418265
23 *3941:CLK *3228:C 0.000344376
24 *3941:CLK *3229:B 0.000121039
25 *3941:CLK *683:30 1.54665e-05
26 *3941:CLK *687:24 2.89299e-05
27 *3941:CLK *698:6 3.41115e-05
28 *3941:CLK *699:34 1.33205e-05
29 *3941:CLK *715:12 0.000228871
30 *3941:CLK *726:12 4.05127e-05
31 *3941:CLK *729:20 3.06569e-06
32 *3942:CLK *3942:D 6.5172e-05
33 *3942:CLK *642:24 0.000414855
34 *3942:CLK *729:6 4.9253e-06
35 *3942:CLK *729:20 0
36 *3942:CLK *873:8 6.64979e-05
37 *565:10 *687:12 0
38 *565:18 *3362:B 6.12863e-05
39 *565:26 *3362:B 3.24154e-05
40 *565:26 *3939:RESET_B 5.00608e-05
41 *565:26 *3940:RESET_B 0
42 *565:26 *713:98 0
43 *565:26 *713:100 0
44 *565:70 *688:14 0.00025982
45 *565:72 *688:14 8.33575e-05
46 *565:74 *688:14 9.24881e-05
47 *3362:A *3891:CLK 5.82123e-05
48 *3362:A *565:10 0.000162486
49 *3366:B1 *565:10 6.1357e-05
50 *3366:B2 *565:10 4.66108e-05
51 *3367:A1 *3891:CLK 7.75894e-05
52 *3367:A2 *3891:CLK 0.000139843
53 *3369:A1 *3942:CLK 1.28879e-05
54 *3369:A2 *3942:CLK 9.54469e-05
55 *3369:C1 *3942:CLK 6.47357e-05
56 *3369:D1 *3942:CLK 0
57 *3372:A1 *3942:CLK 0.000208353
58 *3372:A1 *565:74 3.18465e-05
59 *3378:A2 *565:18 4.66108e-05
60 *3380:A_N *3891:CLK 2.49909e-05
61 *3380:C *3891:CLK 0.000455122
62 *3381:B *3891:CLK 4.35931e-05
63 *3383:A2 *3891:CLK 0.000310512
64 *3383:D1 *3891:CLK 5.06989e-05
65 *3401:A2 *3891:CLK 8.51879e-05
66 *169:35 *3942:CLK 0.00010004
67 *169:48 *3942:CLK 3.05238e-05
68 *175:22 *3942:CLK 0
69 *178:6 *3941:CLK 0.000192502
70 *280:10 *3942:CLK 0.000156911
71 *280:10 *565:70 0.000268151
72 *280:10 *565:72 9.24825e-05
73 *280:10 *565:74 0.000158845
74 *284:10 *565:10 2.92496e-05
75 *284:21 *565:10 0.000152127
76 *284:34 *565:10 4.54719e-05
77 *284:43 *565:10 0.000152814
78 *297:12 *3891:CLK 5.38986e-06
79 *297:12 *565:10 0.000183063
80 *297:12 *565:18 1.88904e-05
81 *312:6 *3891:CLK 2.14725e-05
82 *553:6 *3891:CLK 3.65716e-05
83 *554:10 *3891:CLK 5.18266e-05
*RES
1 *3948:X *565:4 1.6 
2 *565:4 *565:10 9.8375 
3 *565:10 *565:18 5.2025 
4 *565:18 *565:26 7.88 
5 *565:26 *3890:CLK 3.6 
6 *565:26 *3889:CLK 8.79 
7 *565:18 *3939:CLK 1.96 
8 *565:10 *3891:CLK 16.7475 
9 *565:4 *565:70 5.165 
10 *565:70 *565:72 1.125 
11 *565:72 *565:74 1.89 
12 *565:74 *3942:CLK 24.39 
13 *565:74 *3940:CLK 7.5 
14 *565:72 *4006:A 3.6 
15 *565:70 *3941:CLK 20.815 
*END

*D_NET *566 0.0102521
*CONN
*I *3888:CLK I *D sky130_fd_sc_hd__dfstp_2
*I *3903:CLK I *D sky130_fd_sc_hd__dfrtp_2
*I *3901:CLK I *D sky130_fd_sc_hd__dfrtp_2
*I *3892:CLK I *D sky130_fd_sc_hd__dfrtp_2
*I *4007:A I *D sky130_fd_sc_hd__clkbuf_4
*I *3913:CLK I *D sky130_fd_sc_hd__dfrtp_2
*I *3936:CLK I *D sky130_fd_sc_hd__dfrtp_2
*I *3949:X O *D sky130_fd_sc_hd__clkbuf_16
*CAP
1 *3888:CLK 0.000142674
2 *3903:CLK 4.34562e-05
3 *3901:CLK 9.85151e-05
4 *3892:CLK 0.000485583
5 *4007:A 0
6 *3913:CLK 0
7 *3936:CLK 0.000576281
8 *3949:X 0.00152732
9 *566:74 0.000321132
10 *566:61 0.000448326
11 *566:48 0.000934294
12 *566:39 0.000257748
13 *566:10 0.00207976
14 *3888:CLK *3891:RESET_B 3.33763e-05
15 *3901:CLK *3901:D 1.0263e-05
16 *3903:CLK *3903:D 8.7443e-05
17 *3903:CLK *4042:A 2.99214e-05
18 *3936:CLK *3913:D 0.000431258
19 *3936:CLK *3936:D 0.000122817
20 *3936:CLK *709:12 0.00017853
21 *3936:CLK *709:38 0.000195238
22 *566:10 *709:38 0.000687931
23 *566:10 *709:58 0
24 *566:61 *3903:RESET_B 3.05295e-05
25 *566:74 *3903:RESET_B 0.000226719
26 *3349:A *566:10 6.77291e-05
27 *3355:C *566:10 0.000139352
28 *3355:D *566:10 5.38465e-05
29 *3387:A2_N *566:39 9.71067e-05
30 *3387:A2_N *566:48 3.09164e-05
31 *3391:A1 *566:10 1.31168e-05
32 *3391:A2 *566:10 3.78625e-05
33 *3394:A *566:61 0
34 *3401:A3 *566:61 0
35 *3401:C1 *566:48 4.18603e-06
36 *3401:C1 *566:61 7.24866e-05
37 *3409:B1 *3936:CLK 2.4997e-05
38 *3888:D *3888:CLK 7.09016e-05
39 *3888:D *566:61 0
40 *3888:D *566:74 0.000112836
41 *181:23 *566:10 0
42 *304:22 *566:10 7.15381e-05
43 *318:8 *566:10 1.4399e-05
44 *319:34 *566:48 0
45 *320:29 *566:39 9.71067e-05
46 *320:29 *566:48 0.000219699
47 *323:12 *566:10 8.8266e-05
48 *556:8 *3892:CLK 8.65961e-05
*RES
1 *3949:X *566:10 28.65 
2 *566:10 *3936:CLK 14.175 
3 *566:10 *3913:CLK 3.6 
4 *3949:X *566:39 4.725 
5 *566:39 *4007:A 3.6 
6 *566:39 *566:48 4.695 
7 *566:48 *3892:CLK 10.95 
8 *566:48 *566:61 6.185 
9 *566:61 *3901:CLK 3.085 
10 *566:61 *566:74 5.54 
11 *566:74 *3903:CLK 4.755 
12 *566:74 *3888:CLK 6.285 
*END

*D_NET *567 0.00233819
*CONN
*I *3966:A I *D sky130_fd_sc_hd__clkbuf_16
*I *3977:A I *D sky130_fd_sc_hd__clkbuf_16
*I *3950:X O *D sky130_fd_sc_hd__clkbuf_8
*CAP
1 *3966:A 0
2 *3977:A 0.000182668
3 *3950:X 0.00066818
4 *567:8 0.000850849
5 *567:8 *3689:A0 0.000151346
6 *567:8 *835:10 0.000289699
7 *3480:A0 *567:8 0.000100749
8 *3690:A *567:8 0
9 *525:62 *3977:A 9.47017e-05
*RES
1 *3950:X *567:8 15.69 
2 *567:8 *3977:A 6.72 
3 *567:8 *3966:A 3.6 
*END

*D_NET *568 0.00325402
*CONN
*I *3979:A I *D sky130_fd_sc_hd__clkbuf_16
*I *3978:A I *D sky130_fd_sc_hd__clkbuf_16
*I *3951:X O *D sky130_fd_sc_hd__clkbuf_8
*CAP
1 *3979:A 0.000462595
2 *3978:A 0.000196837
3 *3951:X 0.000299053
4 *568:8 0.000958485
5 *3978:A *632:25 0.000294905
6 *3979:A *4000:A 1.06688e-05
7 *3979:A *905:8 2.31329e-05
8 *3254:A *3979:A 4.82863e-05
9 *3322:A2 *3979:A 0
10 *3326:A1 *3979:A 0.000183738
11 *3447:A1 *3978:A 0.000653571
12 *3951:A *568:8 5.39435e-05
13 *562:262 *568:8 6.88044e-05
*RES
1 *3951:X *568:8 6.205 
2 *568:8 *3978:A 13.1 
3 *568:8 *3979:A 12.785 
*END

*D_NET *569 0.00190146
*CONN
*I *3980:A I *D sky130_fd_sc_hd__clkbuf_16
*I *3981:A I *D sky130_fd_sc_hd__clkbuf_16
*I *3952:X O *D sky130_fd_sc_hd__clkbuf_8
*CAP
1 *3980:A 0.000426358
2 *3981:A 0.000156097
3 *3952:X 0
4 *569:6 0.000582455
5 *3980:A *674:8 8.97609e-05
6 *3980:A *685:73 0.000155696
7 *3981:A *663:26 0.000162311
8 *3981:A *685:73 4.61595e-05
9 *3981:A *685:79 0.000169727
10 *3463:A1 *3981:A 0
11 *3619:A *3980:A 2.01472e-05
12 *562:248 *3980:A 0
13 *562:248 *3981:A 0
14 *562:262 *3981:A 9.27495e-05
*RES
1 *3952:X *569:6 3.6 
2 *569:6 *3981:A 7.74 
3 *569:6 *3980:A 11.61 
*END

*D_NET *570 0.00380273
*CONN
*I *3982:A I *D sky130_fd_sc_hd__clkbuf_16
*I *3983:A I *D sky130_fd_sc_hd__clkbuf_16
*I *3953:X O *D sky130_fd_sc_hd__clkbuf_8
*CAP
1 *3982:A 0.000154679
2 *3983:A 0.000311741
3 *3953:X 0.000292033
4 *570:10 0.000758453
5 *3982:A *3470:S0 4.66108e-05
6 *3983:A *3470:S0 0.000549563
7 *3983:A *3670:A0 0.000158564
8 *3983:A *3670:A1 4.71087e-05
9 *3983:A *3862:CLK 4.77769e-05
10 *570:10 *3470:S0 2.07184e-05
11 *570:10 *727:22 0.000237243
12 *570:10 *727:28 0.000347944
13 *3472:A2 *570:10 4.70912e-05
14 *3571:A *570:10 0.0003056
15 *3671:A *3983:A 0.000133453
16 *26:22 *570:10 0
17 *498:22 *3983:A 6.14645e-05
18 *498:32 *3983:A 4.12775e-05
19 *562:204 *3983:A 0.000160263
20 *562:204 *570:10 8.11456e-05
*RES
1 *3953:X *570:10 12 
2 *570:10 *3983:A 13.29 
3 *570:10 *3982:A 5.775 
*END

*D_NET *571 0.00293025
*CONN
*I *3985:A I *D sky130_fd_sc_hd__clkbuf_16
*I *3984:A I *D sky130_fd_sc_hd__clkbuf_16
*I *3954:X O *D sky130_fd_sc_hd__clkbuf_8
*CAP
1 *3985:A 0.000323689
2 *3984:A 5.94891e-05
3 *3954:X 0.000648827
4 *571:8 0.001032
5 *3985:A *4003:A 0
6 *3985:A *602:21 0
7 *571:8 *3442:A1 0
8 *571:8 *3517:A_N 0
9 *571:8 *687:54 0
10 *3444:A0 *571:8 0
11 *3444:A1 *3984:A 0.000160314
12 *3444:A1 *3985:A 0.000573353
13 *3444:A1 *571:8 3.09233e-05
14 *3448:A0 *3985:A 0
15 *3448:A0 *571:8 0
16 *3750:S *571:8 1.7635e-05
17 *4083:A *3985:A 0
18 *442:14 *3985:A 8.40213e-05
19 *535:18 *571:8 0
*RES
1 *3954:X *571:8 13.14 
2 *571:8 *3984:A 5.085 
3 *571:8 *3985:A 11.13 
*END

*D_NET *572 0.00297479
*CONN
*I *3987:A I *D sky130_fd_sc_hd__clkbuf_16
*I *3986:A I *D sky130_fd_sc_hd__clkbuf_16
*I *3955:X O *D sky130_fd_sc_hd__clkbuf_8
*CAP
1 *3987:A 0.000206178
2 *3986:A 0.000125464
3 *3955:X 0.000251264
4 *572:10 0.000582907
5 *3986:A *3241:A1 4.8854e-05
6 *3987:A *3243:B 4.21579e-05
7 *3987:A *637:12 0.00075928
8 *3987:A *912:8 4.99619e-05
9 *572:10 *3243:C 3.03465e-05
10 *572:10 *4031:A 0.000124777
11 *572:10 *702:33 4.86642e-05
12 *3241:A2 *3986:A 4.41886e-05
13 *3243:D *3987:A 4.77719e-05
14 *3244:A3 *3987:A 0.000157378
15 *3412:B *3986:A 0.000266218
16 *3412:B *572:10 0.000101388
17 *183:38 *3986:A 1.42229e-05
18 *188:33 *572:10 1.59467e-05
19 *202:8 *3987:A 5.78185e-05
*RES
1 *3955:X *572:10 8.07 
2 *572:10 *3986:A 7.05 
3 *572:10 *3987:A 10.605 
*END

*D_NET *573 0.00304798
*CONN
*I *3990:A I *D sky130_fd_sc_hd__clkbuf_16
*I *3989:A I *D sky130_fd_sc_hd__clkbuf_16
*I *3956:X O *D sky130_fd_sc_hd__clkbuf_8
*CAP
1 *3990:A 0.000637585
2 *3989:A 0
3 *3956:X 0.000574028
4 *573:14 0.00121161
5 *573:14 *3268:A1 0
6 *573:14 *3932:CLK 0.000122801
7 *573:14 *3932:D 0
8 *3246:A *573:14 0.000206123
9 *3268:B1_N *3990:A 0.000187766
10 *3588:A *3990:A 9.9535e-05
11 *188:43 *3990:A 8.53113e-06
*RES
1 *3956:X *573:14 15.17 
2 *573:14 *3989:A 1.6 
3 *573:14 *3990:A 16.25 
*END

*D_NET *574 0.00198765
*CONN
*I *3991:A I *D sky130_fd_sc_hd__clkbuf_16
*I *3988:A I *D sky130_fd_sc_hd__clkbuf_16
*I *3957:X O *D sky130_fd_sc_hd__clkbuf_8
*CAP
1 *3991:A 0.000114721
2 *3988:A 0.000302941
3 *3957:X 9.90449e-05
4 *574:8 0.000516707
5 *3988:A *592:14 0
6 *3988:A *851:8 3.89528e-05
7 *3991:A *625:65 0.000119873
8 *3422:A1 *574:8 2.11084e-05
9 *3422:S *3988:A 0.000207802
10 *3422:S *3991:A 0.000159667
11 *3440:A1 *3988:A 0
12 *3481:B1 *3988:A 0.000206327
13 *3481:B1 *3991:A 8.38761e-05
14 *3724:A *3988:A 0.000116629
15 *3855:D *3988:A 0
16 *350:57 *3988:A 0
*RES
1 *3957:X *574:8 5.085 
2 *574:8 *3988:A 11.355 
3 *574:8 *3991:A 6.63 
*END

*D_NET *575 0.00299947
*CONN
*I *3993:A I *D sky130_fd_sc_hd__clkbuf_16
*I *3992:A I *D sky130_fd_sc_hd__clkbuf_16
*I *3958:X O *D sky130_fd_sc_hd__clkbuf_8
*CAP
1 *3993:A 0.000294374
2 *3992:A 0.000978932
3 *3958:X 2.08101e-05
4 *575:6 0.00129412
5 *3992:A *3450:S0 1.59221e-05
6 *3992:A *3450:S1 2.49909e-05
7 *3992:A *610:12 5.63574e-05
8 *3993:A *610:12 2.10134e-05
9 *3451:B *3992:A 1.45231e-05
10 *3481:A2 *3992:A 3.71991e-05
11 *3481:B1 *3992:A 2.49909e-05
12 *3481:B2 *3992:A 2.39856e-05
13 *562:60 *3993:A 2.75229e-05
14 *562:62 *3993:A 7.56322e-05
15 *562:69 *3993:A 8.91017e-05
*RES
1 *3958:X *575:6 1.96 
2 *575:6 *3992:A 12.415 
3 *575:6 *3993:A 5.515 
*END

*D_NET *576 0.00362909
*CONN
*I *3994:A I *D sky130_fd_sc_hd__clkbuf_16
*I *3995:A I *D sky130_fd_sc_hd__clkbuf_16
*I *3959:X O *D sky130_fd_sc_hd__clkbuf_8
*CAP
1 *3994:A 0.000277139
2 *3995:A 6.22124e-05
3 *3959:X 0.000342942
4 *576:12 0.000682293
5 *3994:A *3433:A1 0.000427496
6 *3994:A *3458:A3 7.30127e-05
7 *3994:A *3528:A0 8.54612e-05
8 *3994:A *3599:A0 0.000169549
9 *3994:A *724:49 0.000135154
10 *3995:A *3458:A2 8.65905e-05
11 *576:12 *3458:A3 1.82476e-05
12 *576:12 *3511:A0 0.000273008
13 *3512:A *576:12 4.99619e-05
14 *461:53 *3994:A 0.000440278
15 *461:53 *576:12 0.000319167
16 *562:37 *576:12 0.000186579
*RES
1 *3959:X *576:12 11.88 
2 *576:12 *3995:A 4.74 
3 *576:12 *3994:A 14.16 
*END

*D_NET *577 0.00275612
*CONN
*I *3997:A I *D sky130_fd_sc_hd__clkbuf_16
*I *3996:A I *D sky130_fd_sc_hd__clkbuf_16
*I *3960:X O *D sky130_fd_sc_hd__clkbuf_8
*CAP
1 *3997:A 0.00032803
2 *3996:A 0.000382805
3 *3960:X 0
4 *577:4 0.000710836
5 *3997:A *3434:S0 2.16549e-05
6 *3997:A *3434:S1 0.000148867
7 *3997:A *3436:S 7.45532e-05
8 *3997:A *790:12 5.61476e-05
9 *3436:A1 *3997:A 0.000118081
10 *3440:A0 *3997:A 0.000382357
11 *3580:S *3996:A 0.000254644
12 *3594:A *3997:A 7.9642e-06
13 *452:75 *3996:A 9.54399e-05
14 *461:88 *3996:A 0
15 *461:88 *3997:A 0.000174746
*RES
1 *3960:X *577:4 1.6 
2 *577:4 *3996:A 12.395 
3 *577:4 *3997:A 15.89 
*END

*D_NET *578 0.00298606
*CONN
*I *3968:A I *D sky130_fd_sc_hd__clkbuf_16
*I *3967:A I *D sky130_fd_sc_hd__clkbuf_16
*I *3961:X O *D sky130_fd_sc_hd__clkbuf_8
*CAP
1 *3968:A 0.000346231
2 *3967:A 6.05542e-05
3 *3961:X 0.000561763
4 *578:10 0.000968547
5 *3968:A *585:22 0
6 *578:10 *3540:A1 0.00043732
7 *578:10 *3558:A1 0.000218868
8 *578:10 *585:22 0
9 *578:10 *622:84 2.33933e-05
10 *578:10 *766:14 0.000151165
11 *3591:S *3968:A 9.28507e-05
12 *413:91 *3967:A 0.000122797
13 *562:126 *578:10 2.56752e-06
*RES
1 *3961:X *578:10 14.97 
2 *578:10 *3967:A 4.74 
3 *578:10 *3968:A 9.27 
*END

*D_NET *579 0.00227738
*CONN
*I *3970:A I *D sky130_fd_sc_hd__clkbuf_16
*I *3969:A I *D sky130_fd_sc_hd__clkbuf_16
*I *3962:X O *D sky130_fd_sc_hd__clkbuf_8
*CAP
1 *3970:A 0.000630001
2 *3969:A 0.000271891
3 *3962:X 3.34843e-05
4 *579:6 0.000935376
5 *3970:A *3806:CLK 0
6 *3970:A *587:42 0
7 *3970:A *754:10 5.30673e-05
8 *3873:D *3970:A 8.00061e-05
9 *452:117 *3970:A 0.000273555
*RES
1 *3962:X *579:6 2.05 
2 *579:6 *3969:A 10.04 
3 *579:6 *3970:A 16.865 
*END

*D_NET *580 0.00348708
*CONN
*I *3972:A I *D sky130_fd_sc_hd__clkbuf_16
*I *3971:A I *D sky130_fd_sc_hd__clkbuf_16
*I *3963:X O *D sky130_fd_sc_hd__clkbuf_8
*CAP
1 *3972:A 0.000264471
2 *3971:A 0.000198839
3 *3963:X 6.21504e-05
4 *580:8 0.000525461
5 *3971:A *3426:A1 0.000110676
6 *3971:A *3426:S0 7.26668e-05
7 *3971:A *3729:A1 4.77807e-05
8 *3971:A *630:16 0
9 *3971:A *686:10 1.44983e-05
10 *3971:A *688:85 0.000229897
11 *3971:A *699:52 4.66108e-05
12 *3972:A *3426:S0 0.000120875
13 *3972:A *3427:A0 3.26889e-05
14 *3972:A *3538:A0 0.000403708
15 *3972:A *4026:A 0.000156887
16 *3972:A *688:85 0.000172838
17 *580:8 *4026:A 1.91597e-05
18 *3433:A2 *580:8 0.000192125
19 *3539:A *3972:A 0.000332114
20 *413:85 *580:8 0.00022786
21 *562:176 *3971:A 0.000255775
*RES
1 *3963:X *580:8 5.775 
2 *580:8 *3971:A 10.02 
3 *580:8 *3972:A 12.735 
*END

*D_NET *581 0.00406046
*CONN
*I *3973:A I *D sky130_fd_sc_hd__clkbuf_16
*I *3974:A I *D sky130_fd_sc_hd__clkbuf_16
*I *3964:X O *D sky130_fd_sc_hd__clkbuf_8
*CAP
1 *3973:A 0
2 *3974:A 0.000805884
3 *3964:X 0.000463776
4 *581:10 0.00126966
5 *3974:A *3455:S0 0
6 *3974:A *590:25 0
7 *3456:A0 *3974:A 0.000257005
8 *3456:A0 *581:10 0.000146621
9 *3456:A1 *3974:A 0.000695008
10 *3456:A1 *581:10 0.000113857
11 *3667:A *3974:A 0
12 *350:30 *581:10 0.000308645
*RES
1 *3964:X *581:10 12.18 
2 *581:10 *3974:A 18.615 
3 *581:10 *3973:A 3.6 
*END

*D_NET *582 0.00311964
*CONN
*I *3976:A I *D sky130_fd_sc_hd__clkbuf_16
*I *3975:A I *D sky130_fd_sc_hd__clkbuf_16
*I *3965:X O *D sky130_fd_sc_hd__clkbuf_8
*CAP
1 *3976:A 0.000412395
2 *3975:A 0.000155616
3 *3965:X 0.000298758
4 *582:10 0.000866768
5 *3976:A *3430:A0 1.74867e-05
6 *3976:A *3430:A1 4.66108e-05
7 *3976:A *633:25 0.000118527
8 *3976:A *797:10 9.54399e-05
9 *582:10 *3430:A2 0.000273695
10 *582:10 *3430:S1 0.000335851
11 *582:10 *3625:A0 0.000114492
12 *3431:A2 *3976:A 1.7386e-05
13 *3487:A *3976:A 0
14 *3683:S *582:10 0.000104977
15 *3817:D *3975:A 8.77684e-05
16 *3817:D *3976:A 0.00014294
17 *507:46 *582:10 3.09325e-05
*RES
1 *3965:X *582:10 13.865 
2 *582:10 *3975:A 3.775 
3 *582:10 *3976:A 12.365 
*END

*D_NET *583 0.00793508
*CONN
*I *3866:CLK I *D sky130_fd_sc_hd__dfxtp_2
*I *3831:CLK I *D sky130_fd_sc_hd__dfxtp_2
*I *3842:CLK I *D sky130_fd_sc_hd__dfxtp_2
*I *3826:CLK I *D sky130_fd_sc_hd__dfxtp_2
*I *3818:CLK I *D sky130_fd_sc_hd__dfxtp_2
*I *3966:X O *D sky130_fd_sc_hd__clkbuf_16
*CAP
1 *3866:CLK 0
2 *3831:CLK 0.000735289
3 *3842:CLK 0.000299388
4 *3826:CLK 0.000449609
5 *3818:CLK 0.000269521
6 *3966:X 0.000508446
7 *583:51 0.000735289
8 *583:18 0.00118134
9 *583:12 0.00112224
10 *583:10 0.000869089
11 *3818:CLK *3644:A0 9.12494e-06
12 *3826:CLK *664:48 0.000247989
13 *583:10 *4011:A 0
14 *583:12 *3437:A2 0.000203002
15 *583:12 *4011:A 0
16 *583:12 *838:10 0.000139245
17 *583:18 *3627:A0 0
18 *583:18 *3644:A0 0.000112589
19 *3498:S *583:10 0.000419428
20 *3644:S *583:18 0.000108716
21 *3645:A *583:18 0
22 *3654:S *583:12 0.000126407
23 *3654:S *583:18 0.000168259
24 *3826:D *3826:CLK 1.43717e-05
25 *3831:D *3831:CLK 1.43717e-05
26 *3842:D *3842:CLK 0.000160635
27 *3858:D *583:12 0
28 *3866:D *583:12 4.0732e-05
*RES
1 *3966:X *583:10 12.21 
2 *583:10 *583:12 8.265 
3 *583:12 *583:18 8.82 
4 *583:18 *3818:CLK 7.575 
5 *583:18 *3826:CLK 11.655 
6 *583:12 *3842:CLK 8.19 
7 *583:10 *583:51 2 
8 *583:51 *3831:CLK 12.175 
9 *583:51 *3866:CLK 1.6 
*END

*D_NET *584 0.0049222
*CONN
*I *3808:CLK I *D sky130_fd_sc_hd__dfxtp_2
*I *3800:CLK I *D sky130_fd_sc_hd__dfxtp_2
*I *3880:CLK I *D sky130_fd_sc_hd__dfxtp_2
*I *3768:CLK I *D sky130_fd_sc_hd__dfxtp_2
*I *3776:CLK I *D sky130_fd_sc_hd__dfxtp_2
*I *3967:X O *D sky130_fd_sc_hd__clkbuf_16
*CAP
1 *3808:CLK 0.000112041
2 *3800:CLK 0
3 *3880:CLK 0.000203217
4 *3768:CLK 0.000348009
5 *3776:CLK 3.37585e-05
6 *3967:X 0.000337656
7 *584:25 0.000551225
8 *584:16 0.000558441
9 *584:14 0.000618724
10 *584:12 0.000543739
11 *3808:CLK *626:77 0
12 *584:12 *3416:S0 0
13 *584:12 *3416:S1 0.000131782
14 *584:12 *3727:S 0.000175848
15 *584:14 *3416:S1 0.000128914
16 *584:16 *3416:S1 0.000177144
17 *584:16 *756:12 4.80285e-05
18 *3418:A0 *584:12 6.28687e-05
19 *3572:S *3808:CLK 0
20 *3572:S *584:12 0.000687938
21 *3589:S *584:12 0
22 *3590:A *584:12 0
23 *3768:D *3768:CLK 3.51254e-06
24 *3776:D *3768:CLK 5.05228e-05
25 *3776:D *584:16 1.43717e-05
26 *3800:D *3808:CLK 5.72091e-05
27 *3800:D *584:14 1.43717e-05
28 *3808:D *584:12 6.28765e-05
29 *4057:A *3880:CLK 0
*RES
1 *3967:X *584:12 15.785 
2 *584:12 *584:14 2.175 
3 *584:14 *584:16 8.73 
4 *584:16 *3776:CLK 2.05 
5 *584:16 *584:25 2 
6 *584:25 *3768:CLK 8.775 
7 *584:25 *3880:CLK 6.54 
8 *584:14 *3800:CLK 1.6 
9 *584:12 *3808:CLK 7.745 
*END

*D_NET *585 0.00478629
*CONN
*I *3801:CLK I *D sky130_fd_sc_hd__dfxtp_2
*I *3792:CLK I *D sky130_fd_sc_hd__dfxtp_2
*I *3784:CLK I *D sky130_fd_sc_hd__dfxtp_2
*I *3794:CLK I *D sky130_fd_sc_hd__dfxtp_2
*I *3802:CLK I *D sky130_fd_sc_hd__dfxtp_2
*I *3968:X O *D sky130_fd_sc_hd__clkbuf_16
*CAP
1 *3801:CLK 9.85541e-05
2 *3792:CLK 8.89765e-05
3 *3784:CLK 3.66102e-05
4 *3794:CLK 0.00011112
5 *3802:CLK 8.68483e-05
6 *3968:X 0
7 *585:38 0.000276343
8 *585:22 0.000511704
9 *585:18 0.00100144
10 *585:4 0.000635503
11 *3792:CLK *3417:A3 2.49972e-05
12 *3792:CLK *3589:A1 2.41307e-05
13 *3794:CLK *688:85 4.77757e-05
14 *3801:CLK *3554:S 0.000139245
15 *585:18 *626:55 0.000141661
16 *585:18 *686:122 8.92442e-05
17 *585:38 *3417:A3 7.26077e-05
18 *585:38 *686:122 0.000160651
19 *3418:A1 *585:22 4.50017e-05
20 *3418:A1 *585:38 2.13396e-05
21 *3555:A *3784:CLK 8.53011e-05
22 *3555:A *3792:CLK 8.20849e-06
23 *3555:A *585:18 4.87546e-05
24 *3555:A *585:38 0.000147719
25 *3589:S *585:38 0
26 *3591:S *3801:CLK 3.83041e-05
27 *3591:S *585:18 0.000389437
28 *3792:D *3792:CLK 9.37846e-05
29 *3968:A *585:22 0
30 *461:98 *585:22 0.000361024
31 *578:10 *585:22 0
*RES
1 *3968:X *585:4 1.6 
2 *585:4 *585:18 13.995 
3 *585:18 *585:22 9.5 
4 *585:22 *3802:CLK 2.74 
5 *585:22 *3794:CLK 3.43 
6 *585:18 *585:38 4.695 
7 *585:38 *3784:CLK 4.395 
8 *585:38 *3792:CLK 5.745 
9 *585:4 *3801:CLK 7.685 
*END

*D_NET *586 0.0055262
*CONN
*I *3803:CLK I *D sky130_fd_sc_hd__dfxtp_2
*I *3797:CLK I *D sky130_fd_sc_hd__dfxtp_2
*I *3789:CLK I *D sky130_fd_sc_hd__dfxtp_2
*I *3810:CLK I *D sky130_fd_sc_hd__dfxtp_2
*I *3769:CLK I *D sky130_fd_sc_hd__dfxtp_2
*I *3969:X O *D sky130_fd_sc_hd__clkbuf_16
*CAP
1 *3803:CLK 0.000439127
2 *3797:CLK 0
3 *3789:CLK 0.000114708
4 *3810:CLK 0.000429552
5 *3769:CLK 0
6 *3969:X 0
7 *586:47 0.000475644
8 *586:32 0.000323671
9 *586:10 0.00120924
10 *586:4 0.000952137
11 *3789:CLK *630:16 0.000214054
12 *3803:CLK *777:12 3.72916e-05
13 *3810:CLK *3558:A0 4.89395e-05
14 *3810:CLK *3558:A1 0.000274019
15 *3810:CLK *3558:S 4.77769e-05
16 *3810:CLK *3746:A1 1.08758e-05
17 *586:10 *666:49 0
18 *586:47 *630:16 6.01789e-05
19 *3559:A *3810:CLK 3.52596e-05
20 *3746:S *3810:CLK 7.04636e-05
21 *3746:S *586:10 7.6228e-05
22 *3769:D *3810:CLK 0.000112589
23 *3797:D *3789:CLK 0.000229904
24 *3797:D *3803:CLK 7.71334e-05
25 *3797:D *586:47 0.000116952
26 *452:37 *586:10 1.4399e-05
27 *452:37 *586:32 7.23833e-05
28 *461:168 *3789:CLK 7.52581e-05
29 *562:162 *3810:CLK 8.41015e-06
*RES
1 *3969:X *586:4 1.6 
2 *586:4 *586:10 10.985 
3 *586:10 *3769:CLK 3.6 
4 *586:10 *3810:CLK 12.15 
5 *586:4 *586:32 4.175 
6 *586:32 *3789:CLK 7.395 
7 *586:32 *586:47 3.38 
8 *586:47 *3797:CLK 1.6 
9 *586:47 *3803:CLK 8.65 
*END

*D_NET *587 0.00473158
*CONN
*I *3873:CLK I *D sky130_fd_sc_hd__dfxtp_2
*I *3806:CLK I *D sky130_fd_sc_hd__dfxtp_2
*I *3774:CLK I *D sky130_fd_sc_hd__dfxtp_2
*I *3811:CLK I *D sky130_fd_sc_hd__dfxtp_2
*I *3795:CLK I *D sky130_fd_sc_hd__dfxtp_2
*I *3970:X O *D sky130_fd_sc_hd__clkbuf_16
*CAP
1 *3873:CLK 0
2 *3806:CLK 0.000375478
3 *3774:CLK 7.39996e-05
4 *3811:CLK 0
5 *3795:CLK 0.000345552
6 *3970:X 0.00040496
7 *587:42 0.000778918
8 *587:36 0.000456865
9 *587:12 0.000471113
10 *587:10 0.000657946
11 *3795:CLK *3443:A2 0.000147688
12 *3795:CLK *3578:A0 0.000237212
13 *587:36 *699:52 0.000172001
14 *587:42 *3428:S 0
15 *587:42 *699:52 0.000150073
16 *3428:A1 *3806:CLK 0
17 *3530:S *587:10 0
18 *3530:S *587:12 0
19 *3774:D *3806:CLK 9.54469e-05
20 *3782:D *3806:CLK 0
21 *3806:D *3806:CLK 0
22 *3811:D *3795:CLK 0.000179421
23 *3811:D *587:12 5.31158e-06
24 *3873:D *3774:CLK 1.87038e-05
25 *3873:D *587:42 0.000160889
26 *3970:A *3806:CLK 0
27 *3970:A *587:42 0
28 *26:20 *587:10 0
29 *26:20 *587:12 0
30 *452:117 *3806:CLK 0
*RES
1 *3970:X *587:10 8.445 
2 *587:10 *587:12 1.89 
3 *587:12 *3795:CLK 11.1 
4 *587:12 *3811:CLK 3.6 
5 *587:10 *587:36 4.865 
6 *587:36 *587:42 8.3 
7 *587:42 *3774:CLK 4.845 
8 *587:42 *3806:CLK 9.57 
9 *587:36 *3873:CLK 1.6 
*END

*D_NET *588 0.00455411
*CONN
*I *3793:CLK I *D sky130_fd_sc_hd__dfxtp_2
*I *3777:CLK I *D sky130_fd_sc_hd__dfxtp_2
*I *3881:CLK I *D sky130_fd_sc_hd__dfxtp_2
*I *3813:CLK I *D sky130_fd_sc_hd__dfxtp_2
*I *3786:CLK I *D sky130_fd_sc_hd__dfxtp_2
*I *3971:X O *D sky130_fd_sc_hd__clkbuf_16
*CAP
1 *3793:CLK 0.000351527
2 *3777:CLK 9.92556e-05
3 *3881:CLK 1.53993e-05
4 *3813:CLK 0.000441355
5 *3786:CLK 0.000162967
6 *3971:X 0.000227196
7 *588:42 0.000575477
8 *588:22 0.000588435
9 *588:20 0.000320603
10 *3777:CLK *688:85 8.67385e-05
11 *3793:CLK *3427:S1 0
12 *3793:CLK *3591:A1 0.000229203
13 *3793:CLK *4026:A 9.19758e-05
14 *3793:CLK *624:14 0.000206817
15 *3793:CLK *624:42 0
16 *3793:CLK *624:48 5.92191e-05
17 *3793:CLK *686:122 4.28483e-05
18 *3813:CLK *3476:S0 0
19 *3813:CLK *3746:A1 4.28112e-06
20 *3813:CLK *4095:A 0.000140905
21 *3881:CLK *3746:A0 2.69153e-05
22 *588:20 *3729:A1 4.71087e-05
23 *588:22 *3746:A1 0.000104813
24 *588:22 *624:50 2.45547e-05
25 *588:42 *4026:A 6.65482e-05
26 *588:42 *624:48 0.000122752
27 *588:42 *624:50 4.4022e-05
28 *588:42 *699:52 1.64056e-05
29 *3433:B1_N *3813:CLK 7.6664e-05
30 *3504:A *3793:CLK 3.77199e-05
31 *3520:S *588:22 3.62299e-05
32 *3520:S *588:42 5.01076e-05
33 *3521:A *3786:CLK 0.000122817
34 *3540:S *3813:CLK 0
35 *3747:A *3881:CLK 1.79098e-05
36 *3777:D *3777:CLK 0.00011029
37 *562:162 *3813:CLK 5.05066e-06
*RES
1 *3971:X *3786:CLK 6.065 
2 *3971:X *588:20 4.395 
3 *588:20 *588:22 2.91 
4 *588:22 *3813:CLK 11.61 
5 *588:22 *3881:CLK 4.05 
6 *588:20 *588:42 3.675 
7 *588:42 *3777:CLK 5.775 
8 *588:42 *3793:CLK 12.315 
*END

*D_NET *589 0.00262519
*CONN
*I *3814:CLK I *D sky130_fd_sc_hd__dfxtp_2
*I *3809:CLK I *D sky130_fd_sc_hd__dfxtp_2
*I *3785:CLK I *D sky130_fd_sc_hd__dfxtp_2
*I *3782:CLK I *D sky130_fd_sc_hd__dfxtp_2
*I *3999:A I *D sky130_fd_sc_hd__clkbuf_4
*I *3972:X O *D sky130_fd_sc_hd__clkbuf_16
*CAP
1 *3814:CLK 0.000167796
2 *3809:CLK 0
3 *3785:CLK 0.000130173
4 *3782:CLK 0.000117393
5 *3999:A 3.08385e-05
6 *3972:X 0
7 *589:36 0.000532569
8 *589:32 0.000674402
9 *589:10 0.000301412
10 *589:6 0.000257391
11 *3814:CLK *3584:A0 1.41095e-05
12 *3814:CLK *3584:A1 6.81239e-05
13 *589:10 *630:16 0
14 *589:32 *630:16 0
15 *589:36 *624:8 0.000252701
16 *3584:S *3814:CLK 4.71087e-05
17 *3585:A *3814:CLK 3.11716e-05
18 *3806:D *589:10 0
19 *3806:D *589:32 0
*RES
1 *3972:X *589:6 3.6 
2 *589:6 *589:10 4.4 
3 *589:10 *3999:A 2.05 
4 *589:10 *3782:CLK 3.445 
5 *589:6 *589:32 3.6575 
6 *589:32 *589:36 7.1925 
7 *589:36 *3785:CLK 7.49 
8 *589:36 *3809:CLK 1.6 
9 *589:32 *3814:CLK 4.9975 
*END

*D_NET *590 0.00383394
*CONN
*I *3860:CLK I *D sky130_fd_sc_hd__dfxtp_2
*I *3868:CLK I *D sky130_fd_sc_hd__dfxtp_2
*I *3850:CLK I *D sky130_fd_sc_hd__dfxtp_2
*I *3844:CLK I *D sky130_fd_sc_hd__dfxtp_2
*I *3852:CLK I *D sky130_fd_sc_hd__dfxtp_2
*I *3973:X O *D sky130_fd_sc_hd__clkbuf_16
*CAP
1 *3860:CLK 2.09808e-05
2 *3868:CLK 0
3 *3850:CLK 0.000112855
4 *3844:CLK 0
5 *3852:CLK 4.43795e-05
6 *3973:X 0.000180614
7 *590:42 0.00026796
8 *590:34 0.000654846
9 *590:25 0.000841122
10 *590:6 0.000587354
11 *3852:CLK *690:14 0.000111293
12 *590:6 *3437:S0 3.7445e-05
13 *590:25 *3455:S0 0
14 *590:25 *690:16 0
15 *590:34 *3662:S 0.00024883
16 *590:42 *3437:A0 5.72004e-05
17 *590:42 *3662:S 3.55395e-05
18 *590:42 *822:10 4.18603e-06
19 *3456:A0 *590:25 0.000119048
20 *3667:A *590:25 4.18603e-06
21 *3719:S *590:6 0.000122337
22 *3719:S *590:25 0.000148977
23 *3844:D *590:34 5.78206e-05
24 *3852:D *3852:CLK 9.05592e-05
25 *3852:D *590:25 7.20311e-05
26 *3860:D *590:34 1.43717e-05
27 *3974:A *590:25 0
*RES
1 *3973:X *590:6 3.775 
2 *590:6 *3852:CLK 6.98 
3 *590:6 *590:25 10.18 
4 *590:25 *3844:CLK 1.6 
5 *590:25 *590:34 8.055 
6 *590:34 *590:42 6.775 
7 *590:42 *3850:CLK 3.085 
8 *590:42 *3868:CLK 1.6 
9 *590:34 *3860:CLK 1.96 
*END

*D_NET *591 0.0053008
*CONN
*I *3765:CLK I *D sky130_fd_sc_hd__dfxtp_2
*I *3821:CLK I *D sky130_fd_sc_hd__dfxtp_2
*I *3837:CLK I *D sky130_fd_sc_hd__dfxtp_2
*I *3861:CLK I *D sky130_fd_sc_hd__dfxtp_2
*I *3829:CLK I *D sky130_fd_sc_hd__dfxtp_2
*I *3974:X O *D sky130_fd_sc_hd__clkbuf_16
*CAP
1 *3765:CLK 0.000219512
2 *3821:CLK 0
3 *3837:CLK 0
4 *3861:CLK 0.000699946
5 *3829:CLK 0.000378673
6 *3974:X 0.000125096
7 *591:20 0.00107862
8 *591:18 0.00016712
9 *591:14 0.000215611
10 *591:12 0.000393099
11 *3765:CLK *3462:A2 0.00016909
12 *3765:CLK *3633:A0 7.27587e-05
13 *3765:CLK *809:6 3.64998e-06
14 *3829:CLK *3614:A0 0
15 *3829:CLK *633:25 0
16 *3829:CLK *800:8 0
17 *3861:CLK *3454:A0 0.000111096
18 *3861:CLK *3454:A1 0.000202554
19 *3861:CLK *3666:A0 6.55406e-05
20 *3861:CLK *3666:S 7.21296e-06
21 *3861:CLK *633:25 0
22 *591:12 *3462:A1 2.62458e-05
23 *591:12 *3462:A3 6.34306e-05
24 *591:12 *3616:A0 2.04583e-05
25 *591:12 *670:68 4.82299e-05
26 *591:14 *3462:A3 4.86533e-05
27 *591:14 *670:68 7.85295e-05
28 *591:18 *670:68 0.000279747
29 *3456:A1 *3861:CLK 0
30 *3617:A *3765:CLK 0.000100466
31 *3617:A *591:12 0
32 *3648:S *591:18 0.000115038
33 *3821:D *591:14 9.93391e-05
34 *3821:D *591:18 0.000346707
35 *3837:D *591:18 0.000164382
*RES
1 *3974:X *591:12 8.375 
2 *591:12 *591:14 1.83 
3 *591:14 *591:18 6.33 
4 *591:18 *591:20 2 
5 *591:20 *3829:CLK 9.27 
6 *591:20 *3861:CLK 16.83 
7 *591:18 *3837:CLK 1.6 
8 *591:14 *3821:CLK 1.6 
9 *591:12 *3765:CLK 10.34 
*END

*D_NET *592 0.00501399
*CONN
*I *3833:CLK I *D sky130_fd_sc_hd__dfxtp_2
*I *3847:CLK I *D sky130_fd_sc_hd__dfxtp_2
*I *3855:CLK I *D sky130_fd_sc_hd__dfxtp_2
*I *3863:CLK I *D sky130_fd_sc_hd__dfxtp_2
*I *3871:CLK I *D sky130_fd_sc_hd__dfxtp_2
*I *3975:X O *D sky130_fd_sc_hd__clkbuf_16
*CAP
1 *3833:CLK 0.000336684
2 *3847:CLK 1.85694e-05
3 *3855:CLK 0
4 *3863:CLK 0.000449141
5 *3871:CLK 0.0001384
6 *3975:X 0.000747591
7 *592:16 0.000788857
8 *592:14 0.000327126
9 *592:6 0.000555287
10 *3833:CLK *3623:S 0.000296775
11 *3833:CLK *3625:A1 0
12 *3833:CLK *623:28 0
13 *3863:CLK *3478:A2 3.00381e-05
14 *3863:CLK *3706:A0 8.88799e-05
15 *592:14 *851:8 5.39718e-05
16 *3440:A1 *3863:CLK 0.000206157
17 *3643:A *3833:CLK 4.91189e-05
18 *3673:A *3847:CLK 0
19 *3673:A *592:6 8.27188e-05
20 *3724:A *3863:CLK 0.000366021
21 *3724:A *3871:CLK 0.000139469
22 *3724:A *592:16 1.56428e-05
23 *3847:D *3847:CLK 9.53428e-06
24 *3847:D *592:6 9.22731e-05
25 *3847:D *592:14 5.30673e-05
26 *3855:D *592:14 2.97004e-06
27 *3863:D *3863:CLK 5.20335e-05
28 *3871:D *3871:CLK 0.000113663
29 *3988:A *592:14 0
30 *350:57 *592:14 0
*RES
1 *3975:X *592:6 7.57 
2 *592:6 *592:14 6.43 
3 *592:14 *592:16 2.865 
4 *592:16 *3871:CLK 4.81 
5 *592:16 *3863:CLK 15.41 
6 *592:14 *3855:CLK 1.6 
7 *592:6 *3847:CLK 1.96 
8 *3975:X *3833:CLK 12.795 
*END

*D_NET *593 0.00457526
*CONN
*I *3761:CLK I *D sky130_fd_sc_hd__dfxtp_2
*I *3838:CLK I *D sky130_fd_sc_hd__dfxtp_2
*I *3830:CLK I *D sky130_fd_sc_hd__dfxtp_2
*I *3817:CLK I *D sky130_fd_sc_hd__dfxtp_2
*I *3825:CLK I *D sky130_fd_sc_hd__dfxtp_2
*I *3976:X O *D sky130_fd_sc_hd__clkbuf_16
*CAP
1 *3761:CLK 5.61636e-05
2 *3838:CLK 1.65892e-05
3 *3830:CLK 0
4 *3817:CLK 3.57103e-05
5 *3825:CLK 0.000334534
6 *3976:X 4.44259e-05
7 *593:30 0.00132236
8 *593:24 0.00119118
9 *593:16 0.000434174
10 *593:8 0.000279113
11 *3817:CLK *3478:S0 0.00011852
12 *3817:CLK *3625:A1 6.55328e-05
13 *3825:CLK *3478:S0 3.46328e-05
14 *593:24 *634:31 0
15 *593:30 *3478:S0 3.81908e-06
16 *593:30 *805:8 4.11678e-06
17 *3487:A *593:24 0
18 *3636:A *3838:CLK 9.13949e-06
19 *3636:A *593:16 2.14495e-05
20 *3636:A *593:24 1.52418e-05
21 *3761:D *593:24 4.77757e-05
22 *3825:D *3825:CLK 4.72329e-05
23 *3830:D *593:24 0.000162325
24 *3838:D *3761:CLK 0.00011852
25 *3838:D *593:16 0.000212698
*RES
1 *3976:X *593:8 4.05 
2 *593:8 *593:16 5.645 
3 *593:16 *593:24 7.885 
4 *593:24 *593:30 10.485 
5 *593:30 *3825:CLK 5.77 
6 *593:30 *3817:CLK 6.98 
7 *593:24 *3830:CLK 1.6 
8 *593:16 *3838:CLK 1.96 
9 *593:8 *3761:CLK 4.98 
*END

*D_NET *594 0.00579559
*CONN
*I *3764:CLK I *D sky130_fd_sc_hd__dfxtp_2
*I *3828:CLK I *D sky130_fd_sc_hd__dfxtp_2
*I *3762:CLK I *D sky130_fd_sc_hd__dfxtp_2
*I *3836:CLK I *D sky130_fd_sc_hd__dfxtp_2
*I *3820:CLK I *D sky130_fd_sc_hd__dfxtp_2
*I *3977:X O *D sky130_fd_sc_hd__clkbuf_16
*CAP
1 *3764:CLK 0.000187469
2 *3828:CLK 0.000285285
3 *3762:CLK 8.85451e-05
4 *3836:CLK 0
5 *3820:CLK 9.16503e-05
6 *3977:X 0.000952997
7 *594:34 0.000485233
8 *594:25 0.000285469
9 *594:23 0.000361535
10 *594:10 0.00104465
11 *3764:CLK *816:10 2.01737e-05
12 *3820:CLK *664:34 0.000122817
13 *3820:CLK *808:12 7.28465e-06
14 *594:10 *3438:S0 1.00941e-05
15 *594:10 *725:39 0
16 *594:10 *725:59 0.000123025
17 *594:10 *808:12 3.23388e-05
18 *3457:B1 *594:10 0
19 *3632:A *594:34 4.89295e-05
20 *3649:A *3820:CLK 0.000156468
21 *3649:A *594:10 0.000376195
22 *3718:A *594:10 0.000195412
23 *3764:D *3764:CLK 8.53011e-05
24 *3820:D *3820:CLK 7.10734e-05
25 *3820:D *594:10 7.41023e-05
26 *3828:D *3762:CLK 4.8962e-05
27 *3828:D *3828:CLK 5.48619e-05
28 *3836:D *3764:CLK 3.57349e-05
29 *3836:D *3820:CLK 9.23578e-05
30 *3836:D *594:25 0.000237227
31 *350:30 *594:10 0.000173792
32 *525:62 *594:10 4.66108e-05
*RES
1 *3977:X *594:10 22.26 
2 *594:10 *3820:CLK 6.63 
3 *594:10 *594:23 2 
4 *594:23 *594:25 3.21 
5 *594:25 *3836:CLK 1.6 
6 *594:25 *594:34 1.845 
7 *594:34 *3762:CLK 3.085 
8 *594:34 *3828:CLK 10.025 
9 *594:23 *3764:CLK 4.81 
*END

*D_NET *595 0.00366223
*CONN
*I *3894:CLK I *D sky130_fd_sc_hd__dfrtp_2
*I *3895:CLK I *D sky130_fd_sc_hd__dfrtp_2
*I *3763:CLK I *D sky130_fd_sc_hd__dfxtp_2
*I *3819:CLK I *D sky130_fd_sc_hd__dfxtp_2
*I *3835:CLK I *D sky130_fd_sc_hd__dfxtp_2
*I *3978:X O *D sky130_fd_sc_hd__clkbuf_16
*CAP
1 *3894:CLK 0.000102762
2 *3895:CLK 0.000224526
3 *3763:CLK 0.000153119
4 *3819:CLK 0
5 *3835:CLK 0.000192881
6 *3978:X 0.000438643
7 *595:48 0.00063466
8 *595:21 0.000195796
9 *595:6 0.000366829
10 *3763:CLK *3490:A0 0.000138808
11 *3763:CLK *619:21 0
12 *3763:CLK *632:14 9.50342e-06
13 *3835:CLK *3462:S1 1.14192e-05
14 *3835:CLK *3646:A0 0.000122325
15 *595:6 *3446:A3 1.1392e-05
16 *595:6 *3646:A0 0.000118081
17 *595:21 *632:14 0.000136877
18 *3447:A1 *3895:CLK 6.12027e-05
19 *3491:A *3763:CLK 0.000102834
20 *3835:D *3835:CLK 4.47884e-05
21 *4110:A *3835:CLK 0.00027898
22 *479:8 *3763:CLK 0.000179922
23 *479:8 *595:21 0.000136877
*RES
1 *3978:X *595:6 3.775 
2 *595:6 *3835:CLK 6.31 
3 *595:6 *595:21 3.635 
4 *595:21 *3819:CLK 3.6 
5 *595:21 *3763:CLK 7.92 
6 *3978:X *595:48 5.86 
7 *595:48 *3895:CLK 9.53 
8 *595:48 *3894:CLK 3.085 
*END

*D_NET *596 0.00773295
*CONN
*I *3898:CLK I *D sky130_fd_sc_hd__dfrtp_2
*I *3893:CLK I *D sky130_fd_sc_hd__dfrtp_2
*I *3900:CLK I *D sky130_fd_sc_hd__dfrtp_2
*I *3897:CLK I *D sky130_fd_sc_hd__dfrtp_2
*I *3896:CLK I *D sky130_fd_sc_hd__dfrtp_2
*I *4000:A I *D sky130_fd_sc_hd__clkbuf_4
*I *3979:X O *D sky130_fd_sc_hd__clkbuf_16
*CAP
1 *3898:CLK 0
2 *3893:CLK 0.000200027
3 *3900:CLK 3.75607e-05
4 *3897:CLK 0
5 *3896:CLK 0.000103692
6 *4000:A 0.00052342
7 *3979:X 0.00129897
8 *596:66 0.000408739
9 *596:62 0.000603165
10 *596:55 0.000667674
11 *596:42 0.0011149
12 *596:42 *3282:B1 0.000197826
13 *596:42 *3307:A3 2.4401e-05
14 *596:42 *3307:C1 8.7152e-06
15 *596:62 *3897:D 7.11301e-05
16 *596:62 *3897:RESET_B 8.73376e-05
17 *3254:A *4000:A 1.83756e-05
18 *3282:A2 *596:42 6.7444e-05
19 *3298:B2 *596:42 0.000229904
20 *3307:A1 *596:42 4.18203e-05
21 *3307:A2 *596:42 4.60061e-05
22 *3307:B1 *4000:A 0.00014237
23 *3309:A2 *596:42 4.49328e-05
24 *3309:B1 *3896:CLK 8.63037e-05
25 *3309:B1 *596:42 9.4057e-05
26 *3312:B *596:42 1.07797e-05
27 *3313:A2 *596:42 0.000187759
28 *3326:A1 *4000:A 7.89689e-05
29 *3336:B1 *3893:CLK 1.52776e-05
30 *3336:B1 *3900:CLK 5.53249e-06
31 *3338:A *3893:CLK 0.000321529
32 *3338:A *3900:CLK 5.83121e-06
33 *3979:A *4000:A 1.06688e-05
34 *195:10 *4000:A 0.000141599
35 *205:40 *596:42 8.05768e-05
36 *205:55 *596:42 0
37 *213:50 *596:42 0.000204183
38 *214:26 *596:42 9.45342e-05
39 *214:37 *596:42 9.38103e-05
40 *215:8 *596:42 0.000196364
41 *219:10 *596:42 0
42 *560:8 *3900:CLK 6.71803e-06
43 *560:8 *596:66 0.000160045
*RES
1 *3979:X *4000:A 14.46 
2 *3979:X *596:42 23.8843 
3 *596:42 *3896:CLK 5.745 
4 *596:42 *596:55 5.555 
5 *596:55 *3897:CLK 1.6 
6 *596:55 *596:62 7.35 
7 *596:62 *596:66 5.8025 
8 *596:66 *3900:CLK 4.2825 
9 *596:66 *3893:CLK 8.3625 
10 *596:62 *3898:CLK 1.6 
*END

*D_NET *597 0.00514034
*CONN
*I *3822:CLK I *D sky130_fd_sc_hd__dfxtp_2
*I *3869:CLK I *D sky130_fd_sc_hd__dfxtp_2
*I *3867:CLK I *D sky130_fd_sc_hd__dfxtp_2
*I *3853:CLK I *D sky130_fd_sc_hd__dfxtp_2
*I *3845:CLK I *D sky130_fd_sc_hd__dfxtp_2
*I *3980:X O *D sky130_fd_sc_hd__clkbuf_16
*CAP
1 *3822:CLK 0.000333385
2 *3869:CLK 0.000132726
3 *3867:CLK 0.000492864
4 *3853:CLK 0
5 *3845:CLK 5.96835e-05
6 *3980:X 0
7 *597:18 0.000394141
8 *597:12 0.000929112
9 *597:8 0.000345271
10 *597:6 0.000444139
11 *3822:CLK *3470:A2 8.16598e-05
12 *3822:CLK *692:30 0.0002003
13 *3845:CLK *3719:A0 0.000141599
14 *3867:CLK *3445:S0 0.000138801
15 *3867:CLK *3445:S1 2.7919e-05
16 *3867:CLK *833:8 6.0147e-06
17 *597:8 *692:30 0.000160574
18 *597:12 *3461:A0 7.03276e-05
19 *597:12 *634:31 0.000188365
20 *597:12 *692:30 9.55518e-05
21 *597:12 *692:32 3.43917e-05
22 *597:18 *833:8 2.31329e-05
23 *3464:A1 *3822:CLK 0.000197472
24 *3464:A1 *597:8 0.000293816
25 *3464:A1 *597:12 5.20193e-05
26 *3853:D *3845:CLK 0.000189426
27 *3853:D *597:18 7.71334e-05
28 *3952:A *3867:CLK 3.05183e-05
*RES
1 *3980:X *597:6 3.6 
2 *597:6 *597:8 3.675 
3 *597:8 *597:12 5.675 
4 *597:12 *597:18 4.965 
5 *597:18 *3845:CLK 7.745 
6 *597:18 *3853:CLK 1.6 
7 *597:12 *3867:CLK 7.84 
8 *597:8 *3869:CLK 5.43 
9 *597:6 *3822:CLK 10.245 
*END

*D_NET *598 0.00396033
*CONN
*I *3843:CLK I *D sky130_fd_sc_hd__dfxtp_2
*I *3851:CLK I *D sky130_fd_sc_hd__dfxtp_2
*I *3859:CLK I *D sky130_fd_sc_hd__dfxtp_2
*I *4001:A I *D sky130_fd_sc_hd__clkbuf_4
*I *3827:CLK I *D sky130_fd_sc_hd__dfxtp_2
*I *3981:X O *D sky130_fd_sc_hd__clkbuf_16
*CAP
1 *3843:CLK 3.18987e-05
2 *3851:CLK 0.000150703
3 *3859:CLK 0
4 *4001:A 0
5 *3827:CLK 0.000652674
6 *3981:X 0.000118454
7 *598:16 0.000664222
8 *598:14 0.000463813
9 *598:6 0.000689523
10 *3827:CLK *685:79 0
11 *3851:CLK *3715:A1 3.72007e-05
12 *598:14 *3668:A1 2.67022e-05
13 *598:14 *663:26 0.000234685
14 *598:14 *685:79 5.65627e-05
15 *3463:A1 *3827:CLK 0
16 *3647:A *3827:CLK 0
17 *3669:A *3827:CLK 0
18 *3682:A *3851:CLK 0.000128757
19 *3685:S *3827:CLK 8.65961e-05
20 *3685:S *598:16 7.66083e-05
21 *3851:D *3851:CLK 9.12494e-06
22 *3859:D *3827:CLK 0
23 *3859:D *598:14 8.53113e-06
24 *479:8 *3851:CLK 0.000218962
25 *516:41 *3827:CLK 8.65961e-05
26 *516:41 *598:16 8.65905e-05
27 *562:262 *3843:CLK 5.83121e-06
28 *562:262 *598:6 3.80606e-05
29 *562:262 *598:14 8.82308e-05
*RES
1 *3981:X *598:6 2.74 
2 *598:6 *598:14 10.315 
3 *598:14 *598:16 0.795 
4 *598:16 *3827:CLK 16.7 
5 *598:16 *4001:A 1.6 
6 *598:14 *3859:CLK 1.6 
7 *598:6 *3851:CLK 10.295 
8 *3981:X *3843:CLK 3.65 
*END

*D_NET *599 0.00432574
*CONN
*I *3877:CLK I *D sky130_fd_sc_hd__dfxtp_2
*I *3841:CLK I *D sky130_fd_sc_hd__dfxtp_2
*I *3870:CLK I *D sky130_fd_sc_hd__dfxtp_2
*I *3849:CLK I *D sky130_fd_sc_hd__dfxtp_2
*I *3857:CLK I *D sky130_fd_sc_hd__dfxtp_2
*I *3982:X O *D sky130_fd_sc_hd__clkbuf_16
*CAP
1 *3877:CLK 0.000421606
2 *3841:CLK 0
3 *3870:CLK 2.09808e-05
4 *3849:CLK 0
5 *3857:CLK 2.60662e-05
6 *3982:X 0.00053214
7 *599:22 0.000579771
8 *599:18 0.000972464
9 *599:8 0.000508312
10 *3877:CLK *3460:S 0.000295666
11 *3877:CLK *3472:A1 0
12 *3877:CLK *3721:A0 9.54399e-05
13 *3877:CLK *3721:A1 7.23602e-05
14 *3877:CLK *4052:A 0
15 *3877:CLK *681:44 0.000150397
16 *599:22 *829:8 0.000301503
17 *3460:A1 *3877:CLK 0
18 *3464:A1 *3877:CLK 0.000122033
19 *3705:A *599:8 1.23437e-05
20 *3705:A *599:18 7.37982e-05
21 *3721:S *3877:CLK 0
22 *3849:D *599:22 1.43717e-05
23 *3870:D *599:18 0.000126484
24 *352:44 *3877:CLK 0
*RES
1 *3982:X *599:8 5.49 
2 *599:8 *599:18 8.345 
3 *599:18 *599:22 8.4 
4 *599:22 *3857:CLK 2.05 
5 *599:22 *3849:CLK 1.6 
6 *599:18 *3870:CLK 1.96 
7 *599:8 *3841:CLK 3.6 
8 *3982:X *3877:CLK 15.84 
*END

*D_NET *600 0.0100835
*CONN
*I *3915:CLK I *D sky130_fd_sc_hd__dfrtp_2
*I *3846:CLK I *D sky130_fd_sc_hd__dfxtp_2
*I *4002:A I *D sky130_fd_sc_hd__clkbuf_4
*I *3862:CLK I *D sky130_fd_sc_hd__dfxtp_2
*I *3854:CLK I *D sky130_fd_sc_hd__dfxtp_2
*I *3766:CLK I *D sky130_fd_sc_hd__dfxtp_2
*I *3983:X O *D sky130_fd_sc_hd__clkbuf_16
*CAP
1 *3915:CLK 0.00070984
2 *3846:CLK 6.08881e-05
3 *4002:A 0
4 *3862:CLK 0.000380352
5 *3854:CLK 0.000100585
6 *3766:CLK 0.000244818
7 *3983:X 0.000238773
8 *600:58 0.000897842
9 *600:25 0.000729564
10 *600:23 0.000370598
11 *600:10 0.000435694
12 *600:8 0.000434792
13 *3766:CLK *3622:C 0.00022448
14 *3766:CLK *3656:A_N 3.85797e-05
15 *3766:CLK *663:16 9.68709e-05
16 *3766:CLK *707:35 0.000155928
17 *3766:CLK *707:41 0.00013521
18 *3766:CLK *707:74 0.000276064
19 *3846:CLK *663:16 1.91597e-05
20 *3862:CLK *3470:S0 1.0397e-05
21 *3862:CLK *3670:A0 0.000135402
22 *3915:CLK *3534:B 6.21825e-05
23 *3915:CLK *3552:A_N 0
24 *3915:CLK *4030:A 0.000305651
25 *3915:CLK *700:6 3.83194e-05
26 *3915:CLK *700:10 0.000174375
27 *3915:CLK *707:74 0.000329688
28 *3915:CLK *707:91 5.02905e-05
29 *600:10 *3656:A_N 7.492e-05
30 *600:10 *707:74 0.000191689
31 *600:58 *3656:A_N 6.47032e-05
32 *600:58 *707:74 0.000269387
33 *600:58 *869:40 0
34 *3688:A *3854:CLK 4.82919e-05
35 *3688:A *3862:CLK 0.000171714
36 *3688:A *600:25 3.83041e-05
37 *3854:D *3854:CLK 0.000169665
38 *3862:D *3862:CLK 0.000126467
39 *3983:A *3862:CLK 4.77769e-05
40 *4080:A *3846:CLK 8.23457e-05
41 *202:54 *600:8 0.000343171
42 *352:34 *3915:CLK 0.000158175
43 *404:8 *3766:CLK 4.76659e-05
44 *404:14 *3766:CLK 0.000177649
45 *498:32 *3862:CLK 0.000448381
46 *507:30 *3862:CLK 0.000303292
47 *507:30 *600:58 4.04823e-05
48 *507:42 *3862:CLK 0.000449152
49 *562:204 *3862:CLK 6.00029e-05
50 *562:302 *3915:CLK 0.000113932
*RES
1 *3983:X *600:8 6.81 
2 *600:8 *600:10 2.4 
3 *600:10 *3766:CLK 12.12 
4 *600:10 *600:23 3.485 
5 *600:23 *600:25 3.21 
6 *600:25 *3854:CLK 3.79 
7 *600:25 *3862:CLK 18.245 
8 *600:23 *4002:A 1.6 
9 *600:8 *600:58 3.42 
10 *600:58 *3846:CLK 4.74 
11 *600:58 *3915:CLK 18.495 
*END

*D_NET *601 0.00553101
*CONN
*I *3883:CLK I *D sky130_fd_sc_hd__dfxtp_2
*I *3875:CLK I *D sky130_fd_sc_hd__dfxtp_2
*I *3787:CLK I *D sky130_fd_sc_hd__dfxtp_2
*I *3779:CLK I *D sky130_fd_sc_hd__dfxtp_2
*I *3771:CLK I *D sky130_fd_sc_hd__dfxtp_2
*I *3984:X O *D sky130_fd_sc_hd__clkbuf_16
*CAP
1 *3883:CLK 0.000279596
2 *3875:CLK 0.0002351
3 *3787:CLK 0.000189225
4 *3779:CLK 0.000154268
5 *3771:CLK 0.000448957
6 *3984:X 5.95609e-05
7 *601:52 0.000541637
8 *601:23 0.000402982
9 *601:8 0.000541066
10 *3771:CLK *751:10 8.23457e-05
11 *3779:CLK *3459:S0 0.000131107
12 *3787:CLK *3442:S0 7.5416e-05
13 *3787:CLK *620:33 0.000218324
14 *3787:CLK *620:42 0.000143266
15 *3875:CLK *3442:A3 0.000223825
16 *3875:CLK *620:22 2.92496e-05
17 *3875:CLK *687:54 6.81399e-06
18 *3875:CLK *687:78 0.000109463
19 *3883:CLK *620:22 4.66108e-05
20 *601:8 *3442:S0 0.000118513
21 *601:8 *620:33 0.000116151
22 *601:23 *3442:S0 0.000226555
23 *601:23 *620:33 0.000218024
24 *601:52 *3442:A3 9.54469e-05
25 *601:52 *620:22 8.5242e-05
26 *3751:A *3883:CLK 5.92331e-05
27 *3771:D *3771:CLK 4.32434e-05
28 *3779:D *3779:CLK 0.00011029
29 *3883:D *3883:CLK 1.43717e-05
30 *422:10 *3875:CLK 0.000173792
31 *422:29 *3875:CLK 0.000195233
32 *535:26 *3787:CLK 0.000156106
*RES
1 *3984:X *601:8 4.98 
2 *601:8 *3771:CLK 8.93625 
3 *601:8 *601:23 2.655 
4 *601:23 *3779:CLK 6.81 
5 *601:23 *3787:CLK 8.925 
6 *3984:X *601:52 4.725 
7 *601:52 *3875:CLK 10.08 
8 *601:52 *3883:CLK 7.515 
*END

*D_NET *602 0.00709254
*CONN
*I *3790:CLK I *D sky130_fd_sc_hd__dfxtp_2
*I *3798:CLK I *D sky130_fd_sc_hd__dfxtp_2
*I *3886:CLK I *D sky130_fd_sc_hd__dfxtp_2
*I *3878:CLK I *D sky130_fd_sc_hd__dfxtp_2
*I *4003:A I *D sky130_fd_sc_hd__clkbuf_4
*I *3985:X O *D sky130_fd_sc_hd__clkbuf_16
*CAP
1 *3790:CLK 0.000167765
2 *3798:CLK 2.04437e-05
3 *3886:CLK 0.000123168
4 *3878:CLK 3.47284e-05
5 *4003:A 0.000124097
6 *3985:X 0.000167278
7 *602:49 0.000657417
8 *602:32 0.000755271
9 *602:21 0.000757857
10 *602:8 0.000851609
11 *3790:CLK *3467:S1 0
12 *3798:CLK *667:31 3.00381e-05
13 *3878:CLK *3473:A1 8.6076e-05
14 *3886:CLK *688:31 7.22225e-05
15 *4003:A *667:12 9.30717e-05
16 *4003:A *687:54 9.2541e-05
17 *4003:A *697:46 6.4413e-05
18 *602:21 *3443:S1 0
19 *602:21 *667:12 0.000576883
20 *602:21 *667:27 0.000592568
21 *602:21 *767:12 0.000266666
22 *602:32 *3443:S1 0
23 *602:32 *667:27 0.000342254
24 *602:49 *3548:S 2.42236e-05
25 *602:49 *4049:A 0
26 *602:49 *635:10 0
27 *602:49 *667:27 0.000337524
28 *602:49 *667:31 0.000314083
29 *3444:A1 *602:21 0
30 *3543:A *602:21 0
31 *3567:A *3790:CLK 4.23878e-05
32 *3790:D *3790:CLK 3.75882e-06
33 *3798:D *602:49 1.43717e-05
34 *3878:D *602:32 0
35 *3886:D *3886:CLK 1.43717e-05
36 *3985:A *4003:A 0
37 *3985:A *602:21 0
38 *442:14 *4003:A 0
39 *442:14 *602:8 0.000134018
40 *442:37 *3790:CLK 0.000331428
*RES
1 *3985:X *602:8 5.775 
2 *602:8 *4003:A 6.72 
3 *602:8 *602:21 14.895 
4 *602:21 *3878:CLK 4.395 
5 *602:21 *602:32 3.93 
6 *602:32 *3886:CLK 5.79 
7 *602:32 *602:49 11.72 
8 *602:49 *3798:CLK 2.05 
9 *602:49 *3790:CLK 9.785 
*END

*D_NET *603 0.0103751
*CONN
*I *3925:CLK I *D sky130_fd_sc_hd__dfrtp_2
*I *3920:CLK I *D sky130_fd_sc_hd__dfrtp_2
*I *3930:CLK I *D sky130_fd_sc_hd__dfrtp_2
*I *3929:CLK I *D sky130_fd_sc_hd__dfrtp_2
*I *3931:CLK I *D sky130_fd_sc_hd__dfrtp_2
*I *3986:X O *D sky130_fd_sc_hd__clkbuf_16
*CAP
1 *3925:CLK 0.00107039
2 *3920:CLK 0.000553108
3 *3930:CLK 0.000112681
4 *3929:CLK 0.0010547
5 *3931:CLK 0.000295239
6 *3986:X 0.00111005
7 *603:23 0.00116738
8 *603:10 0.000418932
9 *603:8 0.000716454
10 *3920:CLK *3920:D 1.26262e-05
11 *3920:CLK *3920:RESET_B 0.000119251
12 *3920:CLK *637:12 0.000183394
13 *3920:CLK *708:39 6.52906e-05
14 *3920:CLK *714:52 1.52776e-05
15 *3920:CLK *884:14 0
16 *3925:CLK *3241:A1 0.000527186
17 *3925:CLK *3241:B1 6.27529e-05
18 *3929:CLK *3238:B1 2.05583e-05
19 *3929:CLK *3262:B1 0.000197836
20 *3929:CLK *3319:B1 0
21 *3929:CLK *3930:D 2.65814e-06
22 *3929:CLK *3930:RESET_B 2.20732e-05
23 *3929:CLK *868:8 0.000320834
24 *3929:CLK *868:17 0.000106655
25 *3930:CLK *3930:D 5.11861e-05
26 *3931:CLK *3930:D 4.49498e-05
27 *3931:CLK *714:34 0.000371568
28 *603:8 *643:16 5.0751e-05
29 *603:10 *3930:D 4.06899e-05
30 *603:10 *708:39 1.73506e-05
31 *603:10 *714:52 4.92014e-05
32 *3236:A *3920:CLK 0
33 *3236:A *603:8 5.05437e-05
34 *3242:A1 *3925:CLK 1.48096e-05
35 *3263:A1 *3929:CLK 0.000158297
36 *3263:B1 *3929:CLK 8.97642e-05
37 *3266:B *3925:CLK 0
38 *3330:B *3925:CLK 0.000289712
39 *3412:B *3925:CLK 0.000102049
40 *3413:A *3931:CLK 0.000236922
41 *184:18 *3929:CLK 7.23602e-05
42 *185:31 *3929:CLK 3.1562e-06
43 *185:31 *3931:CLK 0.000116853
44 *185:31 *603:10 0.000113044
45 *202:54 *3925:CLK 0
46 *218:39 *3929:CLK 0.000190968
47 *226:12 *3929:CLK 0.000155608
*RES
1 *3986:X *603:8 4.74 
2 *603:8 *603:10 2.91 
3 *603:10 *3931:CLK 10.95 
4 *603:10 *603:23 2 
5 *603:23 *3929:CLK 22.97 
6 *603:23 *3930:CLK 3.46 
7 *603:8 *3920:CLK 13.755 
8 *3986:X *3925:CLK 22.11 
*END

*D_NET *604 0.00477294
*CONN
*I *3917:CLK I *D sky130_fd_sc_hd__dfrtp_2
*I *3922:CLK I *D sky130_fd_sc_hd__dfrtp_2
*I *3923:CLK I *D sky130_fd_sc_hd__dfrtp_2
*I *3928:CLK I *D sky130_fd_sc_hd__dfrtp_2
*I *3918:CLK I *D sky130_fd_sc_hd__dfrtp_2
*I *3987:X O *D sky130_fd_sc_hd__clkbuf_16
*CAP
1 *3917:CLK 0.000103242
2 *3922:CLK 0.000121758
3 *3923:CLK 0.000275088
4 *3928:CLK 2.08101e-05
5 *3918:CLK 9.85857e-05
6 *3987:X 0
7 *604:36 0.000720908
8 *604:25 0.000593998
9 *604:8 0.000455629
10 *604:6 0.000211159
11 *3917:CLK *3905:D 1.56428e-05
12 *3917:CLK *3918:D 0.000133535
13 *3917:CLK *3925:RESET_B 8.23457e-05
14 *3917:CLK *716:58 4.77807e-05
15 *3917:CLK *886:10 6.74458e-05
16 *3918:CLK *3918:D 0.000123862
17 *3918:CLK *887:10 0.000118527
18 *3922:CLK *3922:RESET_B 0
19 *3922:CLK *4113:A 6.74079e-05
20 *3923:CLK *3922:RESET_B 0
21 *3923:CLK *3923:D 7.33465e-05
22 *3923:CLK *4045:A 0.000187759
23 *604:8 *3918:D 0.000452923
24 *604:8 *886:10 0.000121152
25 *604:8 *886:16 4.03082e-05
26 *604:8 *887:10 0.000175887
27 *604:25 *3928:D 3.99879e-05
28 *604:25 *3928:RESET_B 4.84624e-05
29 *604:25 *4093:A 4.00168e-06
30 *604:36 *3928:D 7.62868e-05
31 *604:36 *4093:A 0.000189769
32 *3414:D *3918:CLK 5.64836e-05
33 *3415:A *604:36 4.8854e-05
34 *4065:A *3922:CLK 0
35 *4065:A *3923:CLK 0
*RES
1 *3987:X *604:6 3.6 
2 *604:6 *604:8 5.205 
3 *604:8 *3918:CLK 6.12 
4 *604:8 *604:25 5.225 
5 *604:25 *3928:CLK 1.96 
6 *604:25 *604:36 7.625 
7 *604:36 *3923:CLK 9.315 
8 *604:36 *3922:CLK 6 
9 *604:6 *3917:CLK 6.375 
*END

*D_NET *605 0.00646404
*CONN
*I *3823:CLK I *D sky130_fd_sc_hd__dfxtp_2
*I *3767:CLK I *D sky130_fd_sc_hd__dfxtp_2
*I *3839:CLK I *D sky130_fd_sc_hd__dfxtp_2
*I *3858:CLK I *D sky130_fd_sc_hd__dfxtp_2
*I *3834:CLK I *D sky130_fd_sc_hd__dfxtp_2
*I *3988:X O *D sky130_fd_sc_hd__clkbuf_16
*CAP
1 *3823:CLK 0.000341658
2 *3767:CLK 0
3 *3839:CLK 0
4 *3858:CLK 9.91348e-05
5 *3834:CLK 0.000530043
6 *3988:X 0.000274814
7 *605:28 0.00107765
8 *605:22 0.00112616
9 *605:14 0.000927918
10 *605:6 0.000866697
11 *3834:CLK *3637:S 0
12 *3834:CLK *664:48 0
13 *605:6 *3479:A1 0.000272978
14 *605:6 *3620:A0 4.82919e-05
15 *605:6 *4047:A 4.99619e-05
16 *605:6 *719:6 2.68526e-05
17 *605:6 *719:10 1.91597e-05
18 *605:14 *3620:A0 1.05476e-05
19 *3621:A *605:22 8.64421e-05
20 *3628:A *3834:CLK 0.000212952
21 *3767:D *605:14 0.00012901
22 *3823:D *3823:CLK 7.53557e-05
23 *3823:D *605:22 1.27575e-05
24 *3826:D *3834:CLK 9.12494e-06
25 *3831:D *605:22 0.000113763
26 *3839:D *605:22 9.50342e-06
27 *3839:D *605:28 0.000143266
*RES
1 *3988:X *605:6 6.88 
2 *605:6 *605:14 8.32 
3 *605:14 *605:22 13.985 
4 *605:22 *605:28 9.395 
5 *605:28 *3834:CLK 14.915 
6 *605:28 *3858:CLK 3.085 
7 *605:22 *3839:CLK 3.6 
8 *605:14 *3767:CLK 1.6 
9 *605:6 *3823:CLK 6.475 
*END

*D_NET *606 0.00340315
*CONN
*I *3927:CLK I *D sky130_fd_sc_hd__dfrtp_2
*I *3914:CLK I *D sky130_fd_sc_hd__dfrtp_2
*I *3924:CLK I *D sky130_fd_sc_hd__dfrtp_2
*I *3932:CLK I *D sky130_fd_sc_hd__dfrtp_2
*I *3919:CLK I *D sky130_fd_sc_hd__dfrtp_2
*I *3989:X O *D sky130_fd_sc_hd__clkbuf_16
*CAP
1 *3927:CLK 0.000178301
2 *3914:CLK 2.56379e-05
3 *3924:CLK 0
4 *3932:CLK 0.000376021
5 *3919:CLK 0.000368447
6 *3989:X 8.25271e-05
7 *606:39 0.000345596
8 *606:14 0.000891875
9 *606:10 0.000270024
10 *606:8 0.000346801
11 *3914:CLK *3927:RESET_B 1.83756e-05
12 *3919:CLK *3919:D 7.35813e-05
13 *3927:CLK *3927:RESET_B 0.000180216
14 *3932:CLK *3932:D 5.83121e-06
15 *606:8 *3920:D 8.65961e-05
16 *606:10 *3914:RESET_B 0
17 *606:10 *3920:D 0
18 *606:10 *3924:D 0
19 *606:10 *714:77 0
20 *606:14 *3924:D 0
21 *606:39 *3914:RESET_B 0
22 *3246:A *606:10 0
23 *3956:A *3932:CLK 3.05183e-05
24 *562:302 *606:14 0
25 *573:14 *3932:CLK 0.000122801
*RES
1 *3989:X *606:8 5.085 
2 *606:8 *606:10 1.89 
3 *606:10 *606:14 3.89 
4 *606:14 *3919:CLK 7.225 
5 *606:14 *3932:CLK 7.57 
6 *606:10 *3924:CLK 3.6 
7 *606:8 *606:39 4.4 
8 *606:39 *3914:CLK 2.05 
9 *606:39 *3927:CLK 5.5 
*END

*D_NET *607 0.00416657
*CONN
*I *4004:A I *D sky130_fd_sc_hd__clkbuf_4
*I *3916:CLK I *D sky130_fd_sc_hd__dfrtp_2
*I *3933:CLK I *D sky130_fd_sc_hd__dfrtp_2
*I *3926:CLK I *D sky130_fd_sc_hd__dfrtp_2
*I *3921:CLK I *D sky130_fd_sc_hd__dfrtp_2
*I *3990:X O *D sky130_fd_sc_hd__clkbuf_16
*CAP
1 *4004:A 0
2 *3916:CLK 0
3 *3933:CLK 0.000210939
4 *3926:CLK 2.57944e-05
5 *3921:CLK 0.000733852
6 *3990:X 0.000473195
7 *607:22 0.000915132
8 *607:18 0.000538158
9 *607:10 0.000644929
10 *3921:CLK *3921:RESET_B 7.69078e-05
11 *3921:CLK *3926:D 0
12 *3921:CLK *886:10 0.000138179
13 *3926:CLK *3926:RESET_B 1.79174e-05
14 *3933:CLK *909:6 5.30673e-05
15 *607:10 *3916:D 0.000141592
16 *607:18 *3916:D 0.000148615
17 *607:22 *3916:D 0
18 *3248:A *3933:CLK 4.82863e-05
19 *3330:B *3921:CLK 0
20 *3330:B *607:22 0
21 *191:10 *607:18 0
*RES
1 *3990:X *607:10 9.48 
2 *607:10 *607:18 5.135 
3 *607:18 *607:22 4.145 
4 *607:22 *3921:CLK 12.855 
5 *607:22 *3926:CLK 4.05 
6 *607:18 *3933:CLK 5.17 
7 *607:18 *3916:CLK 1.6 
8 *607:10 *4004:A 3.6 
*END

*D_NET *608 0.00330159
*CONN
*I *3864:CLK I *D sky130_fd_sc_hd__dfxtp_2
*I *3760:CLK I *D sky130_fd_sc_hd__dfxtp_2
*I *3832:CLK I *D sky130_fd_sc_hd__dfxtp_2
*I *3824:CLK I *D sky130_fd_sc_hd__dfxtp_2
*I *3816:CLK I *D sky130_fd_sc_hd__dfxtp_2
*I *3991:X O *D sky130_fd_sc_hd__clkbuf_16
*CAP
1 *3864:CLK 0.000221312
2 *3760:CLK 0.000127031
3 *3832:CLK 8.4812e-05
4 *3824:CLK 0.00018798
5 *3816:CLK 0
6 *3991:X 0.000221312
7 *608:21 0.000414868
8 *608:10 0.000582297
9 *608:4 0.000567251
10 *3760:CLK *3420:S0 8.5069e-05
11 *3760:CLK *3479:S0 9.16237e-05
12 *3760:CLK *4015:A 5.11712e-05
13 *3864:CLK *3692:A1 4.53873e-05
14 *608:10 *796:10 0.000121659
15 *3485:A *3864:CLK 0.000114649
16 *3624:A *608:10 4.77719e-05
17 *3624:A *608:21 3.11409e-05
18 *3760:D *3760:CLK 6.23119e-05
19 *3816:D *608:10 1.43717e-05
20 *3824:D *3824:CLK 0.000118724
21 *3832:D *3824:CLK 2.39947e-05
22 *3832:D *3832:CLK 8.68523e-05
*RES
1 *3991:X *608:4 1.6 
2 *608:4 *608:10 6.78 
3 *608:10 *3816:CLK 1.6 
4 *608:10 *608:21 4.19 
5 *608:21 *3824:CLK 7.095 
6 *608:21 *3832:CLK 5.49 
7 *608:4 *3760:CLK 9.275 
8 *3991:X *3864:CLK 10.41 
*END

*D_NET *609 0.00581584
*CONN
*I *3884:CLK I *D sky130_fd_sc_hd__dfxtp_2
*I *3780:CLK I *D sky130_fd_sc_hd__dfxtp_2
*I *3856:CLK I *D sky130_fd_sc_hd__dfxtp_2
*I *3876:CLK I *D sky130_fd_sc_hd__dfxtp_2
*I *3772:CLK I *D sky130_fd_sc_hd__dfxtp_2
*I *3992:X O *D sky130_fd_sc_hd__clkbuf_16
*CAP
1 *3884:CLK 0
2 *3780:CLK 0.000226174
3 *3856:CLK 0.000594446
4 *3876:CLK 0
5 *3772:CLK 0
6 *3992:X 0.000563535
7 *609:60 0.00065076
8 *609:25 0.00110709
9 *609:12 0.000651592
10 *3780:CLK *4108:A 0.000166346
11 *3856:CLK *3420:S0 8.1526e-05
12 *3856:CLK *3450:A2 0.000152884
13 *3856:CLK *3450:S0 9.78798e-05
14 *3856:CLK *3526:A1 0
15 *3856:CLK *4011:A 0.000100382
16 *3856:CLK *4015:A 0
17 *3856:CLK *4098:A 0.000236706
18 *3856:CLK *684:27 0
19 *609:12 *4107:A 0.000137578
20 *609:12 *4108:A 1.73877e-05
21 *609:25 *3450:A2 8.42359e-05
22 *609:25 *3509:A0 1.7386e-05
23 rd_data[5] *3780:CLK 3.64998e-06
24 *3441:A *3856:CLK 0
25 *3485:A *3856:CLK 8.51879e-05
26 *3510:A *609:60 0
27 *3527:A *3780:CLK 0
28 *3527:A *609:25 8.35106e-05
29 *3753:A *3856:CLK 0.000184008
30 *3772:D *609:25 0.000163979
31 *3780:D *3780:CLK 0.000141599
32 *3780:D *609:12 9.71067e-05
33 *3876:D *3856:CLK 2.55502e-05
34 *3876:D *609:25 9.52367e-05
35 *3884:D *609:60 5.01066e-05
*RES
1 *3992:X *609:12 8.375 
2 *609:12 *3772:CLK 1.6 
3 *609:12 *609:25 8.865 
4 *609:25 *3876:CLK 1.6 
5 *609:25 *3856:CLK 18.935 
6 *3992:X *609:60 11.24 
7 *609:60 *3780:CLK 10.01 
8 *609:60 *3884:CLK 1.6 
*END

*D_NET *610 0.00635829
*CONN
*I *3840:CLK I *D sky130_fd_sc_hd__dfxtp_2
*I *3848:CLK I *D sky130_fd_sc_hd__dfxtp_2
*I *3807:CLK I *D sky130_fd_sc_hd__dfxtp_2
*I *3804:CLK I *D sky130_fd_sc_hd__dfxtp_2
*I *3812:CLK I *D sky130_fd_sc_hd__dfxtp_2
*I *3993:X O *D sky130_fd_sc_hd__clkbuf_16
*CAP
1 *3840:CLK 2.12881e-05
2 *3848:CLK 0.0002118
3 *3807:CLK 0.000167417
4 *3804:CLK 0
5 *3812:CLK 2.12116e-05
6 *3993:X 0.000387111
7 *610:45 0.000991601
8 *610:23 0.000318435
9 *610:12 0.000471127
10 *610:6 0.00144452
11 *3807:CLK *3475:A 2.42236e-05
12 *3807:CLK *662:34 1.83847e-05
13 *3848:CLK *625:82 4.04729e-05
14 *610:6 *768:10 8.40269e-05
15 *610:12 *3475:A 1.79098e-05
16 *610:12 *4101:A 4.82863e-05
17 *610:23 *3450:A0 0
18 *610:45 *3419:S1 0.000141633
19 *3440:A0 *3807:CLK 0
20 *3451:B *610:12 8.40213e-05
21 *3481:A1 *3807:CLK 0.00013664
22 *3481:A1 *610:12 0.000136877
23 *3481:A1 *610:23 0.000369162
24 *3481:A2 *610:12 3.61897e-05
25 *3481:B1 *610:12 5.16348e-05
26 *3481:B2 *610:12 7.58604e-05
27 *3580:S *3807:CLK 0.000135045
28 *3580:S *610:23 8.93583e-05
29 *3598:A *610:12 8.15598e-05
30 *3659:A *3840:CLK 5.83121e-06
31 *3659:A *3848:CLK 9.10613e-05
32 *3812:D *3812:CLK 4.82863e-05
33 *3840:D *3840:CLK 4.77769e-05
34 *3992:A *610:12 5.63574e-05
35 *3993:A *610:12 2.10134e-05
36 *562:56 *610:6 0.000240535
37 *562:60 *610:6 7.80805e-05
38 *562:62 *610:6 6.89361e-05
39 *562:69 *610:6 4.40711e-05
40 *562:69 *610:12 5.05437e-05
41 *562:75 *610:45 0
*RES
1 *3993:X *610:6 8.605 
2 *610:6 *610:12 8.645 
3 *610:12 *3812:CLK 4.05 
4 *610:12 *610:23 4.44 
5 *610:23 *3804:CLK 3.6 
6 *610:23 *3807:CLK 7.98 
7 *610:6 *610:45 13.835 
8 *610:45 *3848:CLK 6.99 
9 *610:45 *3840:CLK 4.05 
*END

*D_NET *611 0.00503321
*CONN
*I *3805:CLK I *D sky130_fd_sc_hd__dfxtp_2
*I *3796:CLK I *D sky130_fd_sc_hd__dfxtp_2
*I *3788:CLK I *D sky130_fd_sc_hd__dfxtp_2
*I *3799:CLK I *D sky130_fd_sc_hd__dfxtp_2
*I *3791:CLK I *D sky130_fd_sc_hd__dfxtp_2
*I *3994:X O *D sky130_fd_sc_hd__clkbuf_16
*CAP
1 *3805:CLK 2.63234e-05
2 *3796:CLK 0
3 *3788:CLK 0.000251697
4 *3799:CLK 0.000118657
5 *3791:CLK 7.59427e-05
6 *3994:X 0.000547305
7 *611:49 0.0005502
8 *611:47 0.000382795
9 *611:16 0.000683935
10 *3788:CLK *612:20 0.00015639
11 *3788:CLK *768:10 2.65692e-05
12 *3791:CLK *3474:S1 2.68526e-05
13 *3791:CLK *686:35 0
14 *3799:CLK *686:22 7.54996e-05
15 *3799:CLK *686:33 0
16 *3805:CLK *662:34 7.35813e-05
17 *3805:CLK *666:16 7.35813e-05
18 *611:16 *3476:A1 6.71882e-05
19 *611:16 *3476:A3 8.48898e-05
20 *611:16 *3568:A0 5.02217e-05
21 *611:16 *666:49 9.5433e-05
22 *611:16 *686:33 6.94159e-05
23 *611:47 *3550:A1 8.53113e-06
24 *611:47 *4095:A 3.71338e-05
25 *3433:B1_N *3788:CLK 0
26 *3433:B1_N *611:49 0
27 *3544:S *611:47 4.98438e-05
28 *3544:S *611:49 0.000180348
29 *3545:A *3788:CLK 0.000201319
30 *3545:A *611:49 0.000192107
31 *3603:S *3791:CLK 4.94457e-05
32 *3746:S *3788:CLK 7.07801e-05
33 *3773:D *3788:CLK 0
34 *3788:D *3788:CLK 7.56999e-05
35 *3791:D *3791:CLK 0
36 *3799:D *3791:CLK 0.000116151
37 *3799:D *3799:CLK 0.000304979
38 *461:57 *611:16 0.000310394
*RES
1 *3994:X *611:16 15.145 
2 *611:16 *3791:CLK 5.43 
3 *611:16 *3799:CLK 7.05 
4 *3994:X *611:47 4.98 
5 *611:47 *611:49 6.225 
6 *611:49 *3788:CLK 9.375 
7 *611:49 *3796:CLK 3.6 
8 *611:47 *3805:CLK 4.74 
*END

*D_NET *612 0.00597778
*CONN
*I *3781:CLK I *D sky130_fd_sc_hd__dfxtp_2
*I *3885:CLK I *D sky130_fd_sc_hd__dfxtp_2
*I *3998:A I *D sky130_fd_sc_hd__clkbuf_4
*I *3773:CLK I *D sky130_fd_sc_hd__dfxtp_2
*I *3865:CLK I *D sky130_fd_sc_hd__dfxtp_2
*I *3995:X O *D sky130_fd_sc_hd__clkbuf_16
*CAP
1 *3781:CLK 0.00010158
2 *3885:CLK 2.65198e-05
3 *3998:A 2.08101e-05
4 *3773:CLK 0.000185518
5 *3865:CLK 0.000355787
6 *3995:X 3.67119e-05
7 *612:51 0.000253427
8 *612:20 0.00117132
9 *612:16 0.00110646
10 *612:6 0.000617668
11 *3773:CLK *3477:A1 0.000139589
12 *3781:CLK *724:32 4.77719e-05
13 *3865:CLK *3477:A1 0.000405104
14 *3885:CLK *668:12 1.74519e-05
15 *612:16 *3458:A2 0.000451957
16 *612:16 *3458:A3 7.06865e-05
17 *612:16 *3511:A0 7.23602e-05
18 *612:20 *768:10 5.37878e-05
19 *612:51 *3458:A2 1.42807e-05
20 *612:51 *630:16 0
21 *3453:A2 *3865:CLK 0
22 *3695:A *3865:CLK 9.50342e-06
23 *3712:A *3865:CLK 0
24 *3746:S *3865:CLK 7.88223e-05
25 *3755:A *3781:CLK 0.000157418
26 *3755:A *612:51 0.000150863
27 *3788:CLK *612:20 0.00015639
28 *3796:D *3773:CLK 7.49328e-05
29 *3796:D *3865:CLK 0.00016506
30 *3865:D *3865:CLK 3.59997e-05
*RES
1 *3995:X *612:6 2.05 
2 *612:6 *612:16 10.255 
3 *612:16 *612:20 9.005 
4 *612:20 *3865:CLK 12.375 
5 *612:20 *3773:CLK 7.065 
6 *612:16 *3998:A 1.96 
7 *612:6 *612:51 4.91 
8 *612:51 *3885:CLK 4.05 
9 *612:51 *3781:CLK 5.94 
*END

*D_NET *613 0.00365718
*CONN
*I *3815:CLK I *D sky130_fd_sc_hd__dfxtp_2
*I *3879:CLK I *D sky130_fd_sc_hd__dfxtp_2
*I *3887:CLK I *D sky130_fd_sc_hd__dfxtp_2
*I *3775:CLK I *D sky130_fd_sc_hd__dfxtp_2
*I *3783:CLK I *D sky130_fd_sc_hd__dfxtp_2
*I *3996:X O *D sky130_fd_sc_hd__clkbuf_16
*CAP
1 *3815:CLK 0.000301691
2 *3879:CLK 0
3 *3887:CLK 0.000160169
4 *3775:CLK 0
5 *3783:CLK 0.000103115
6 *3996:X 0.000450641
7 *613:18 0.000439346
8 *613:12 0.000767546
9 *613:10 0.000420095
10 *3783:CLK *4095:A 4.18147e-05
11 *3783:CLK *4104:A 6.55328e-05
12 *3815:CLK *3474:S0 3.64998e-06
13 *3815:CLK *720:36 0.000188925
14 *3887:CLK *4098:A 1.9872e-05
15 *613:10 *3450:S0 6.2951e-05
16 *613:10 *3758:A0 5.92191e-05
17 *613:10 *4015:A 0
18 *613:10 *867:8 0.000112799
19 *613:12 *755:10 6.58423e-05
20 *3509:S *3887:CLK 0.000186787
21 *3516:A *3783:CLK 0
22 *3516:A *3887:CLK 0
23 *3775:D *613:18 0.000126467
24 *544:61 *3815:CLK 8.07175e-05
*RES
1 *3996:X *613:10 9.275 
2 *613:10 *613:12 3.9 
3 *613:12 *613:18 5.4 
4 *613:18 *3783:CLK 7.745 
5 *613:18 *3775:CLK 1.6 
6 *613:12 *3887:CLK 8.645 
7 *613:10 *3879:CLK 1.6 
8 *3996:X *3815:CLK 8.84 
*END

*D_NET *614 0.00472003
*CONN
*I *3770:CLK I *D sky130_fd_sc_hd__dfxtp_2
*I *3874:CLK I *D sky130_fd_sc_hd__dfxtp_2
*I *3882:CLK I *D sky130_fd_sc_hd__dfxtp_2
*I *3872:CLK I *D sky130_fd_sc_hd__dfxtp_2
*I *3778:CLK I *D sky130_fd_sc_hd__dfxtp_2
*I *3997:X O *D sky130_fd_sc_hd__clkbuf_16
*CAP
1 *3770:CLK 0.000206712
2 *3874:CLK 0
3 *3882:CLK 0.000279198
4 *3872:CLK 0.000299514
5 *3778:CLK 0.000478389
6 *3997:X 0.000270558
7 *614:52 0.000357783
8 *614:37 0.000600834
9 *614:6 0.000877896
10 *3778:CLK *3434:A3 3.61751e-05
11 *3872:CLK *628:20 0
12 *3882:CLK *4011:A 0.000114655
13 *3882:CLK *4015:A 0
14 *614:6 *3434:A3 3.92228e-05
15 *614:37 *3434:S1 9.34083e-06
16 *3506:A *3770:CLK 4.77807e-05
17 *3744:S *3872:CLK 0.000515554
18 *3770:D *3770:CLK 4.22944e-05
19 *3778:D *3778:CLK 1.43717e-05
20 *3874:D *3882:CLK 0.000145465
21 *3874:D *614:52 1.43717e-05
22 *3882:D *3882:CLK 8.26527e-05
23 *3882:D *614:37 5.60529e-05
24 *347:12 *3882:CLK 0
25 *413:108 *3872:CLK 7.76471e-05
26 *544:78 *3872:CLK 0.00015356
*RES
1 *3997:X *614:6 3.085 
2 *614:6 *3778:CLK 8.275 
3 *614:6 *3872:CLK 13.355 
4 *3997:X *614:37 6.285 
5 *614:37 *3882:CLK 9.315 
6 *614:37 *614:52 4.19 
7 *614:52 *3874:CLK 1.6 
8 *614:52 *3770:CLK 4.825 
*END

*D_NET *615 0.000240498
*CONN
*I *3898:D I *D sky130_fd_sc_hd__dfrtp_2
*I *3899:HI O *D sky130_fd_sc_hd__conb_1
*CAP
1 *3898:D 9.63584e-05
2 *3899:HI 9.63584e-05
3 *3898:D *3897:RESET_B 4.77807e-05
*RES
1 *3899:HI *3898:D 8.775 
*END

*D_NET *616 0.000418277
*CONN
*I *3889:D I *D sky130_fd_sc_hd__dfrtp_2
*I *4055:X O *D sky130_fd_sc_hd__clkdlybuf4s25_1
*CAP
1 *3889:D 0.000199056
2 *4055:X 0.000199056
3 *3889:CLK *3889:D 2.01644e-05
*RES
1 *4055:X *3889:D 9.975 
*END

*D_NET *617 0.00186309
*CONN
*I *3903:RESET_B I *D sky130_fd_sc_hd__dfrtp_2
*I *3901:RESET_B I *D sky130_fd_sc_hd__dfrtp_2
*I *4056:X O *D sky130_fd_sc_hd__clkdlybuf4s25_1
*CAP
1 *3903:RESET_B 0.000260865
2 *3901:RESET_B 0.00067926
3 *4056:X 0.000418395
4 *3901:RESET_B *3903:D 0.000107386
5 *3901:RESET_B *713:12 0
6 *3903:RESET_B *3901:D 6.22023e-05
7 *3903:RESET_B *4042:A 5.07601e-05
8 aempty *3901:RESET_B 9.58678e-06
9 *3888:D *3901:RESET_B 0
10 *3888:D *3903:RESET_B 1.73877e-05
11 *566:61 *3903:RESET_B 3.05295e-05
12 *566:74 *3903:RESET_B 0.000226719
*RES
1 *4056:X *3901:RESET_B 12.6725 
2 *3901:RESET_B *3903:RESET_B 9.64 
*END

*D_NET *618 0.0106068
*CONN
*I *3544:A1 I *D sky130_fd_sc_hd__mux2_2
*I *3580:A1 I *D sky130_fd_sc_hd__mux2_2
*I *3735:A1 I *D sky130_fd_sc_hd__mux2_2
*I *3562:A1 I *D sky130_fd_sc_hd__mux2_2
*I *3597:A0 I *D sky130_fd_sc_hd__mux2_2
*I *3752:A1 I *D sky130_fd_sc_hd__mux2_2
*I *3526:A0 I *D sky130_fd_sc_hd__mux2_2
*I *3509:A1 I *D sky130_fd_sc_hd__mux2_2
*I *4008:X O *D sky130_fd_sc_hd__clkdlybuf4s25_1
*CAP
1 *3544:A1 0.000377358
2 *3580:A1 0
3 *3735:A1 0
4 *3562:A1 0.000134904
5 *3597:A0 0
6 *3752:A1 0
7 *3526:A0 0.000348567
8 *3509:A1 0.000272457
9 *4008:X 0
10 *618:47 0.000946285
11 *618:38 0.00081138
12 *618:25 0.000524957
13 *618:12 0.000510901
14 *618:8 0.000311085
15 *618:6 0.000319404
16 *618:4 0.000447731
17 *3509:A1 *668:20 0.000237054
18 *3526:A0 *3450:A3 7.23602e-05
19 *3526:A0 *3526:A1 0.00039023
20 *3526:A0 *3526:S 8.49205e-05
21 *3544:A1 *3453:B1 2.88689e-05
22 *3544:A1 *3477:A1 8.84295e-05
23 *3544:A1 *3544:A0 2.86767e-05
24 *3544:A1 *4008:A 6.31732e-05
25 *3544:A1 *668:20 0.000121019
26 *3544:A1 *686:35 9.03138e-05
27 *3562:A1 *3450:S1 0.000223104
28 *3562:A1 *3597:A1 2.20014e-05
29 *618:6 *3580:A0 2.58336e-05
30 *618:6 *4008:A 0.000157983
31 *618:6 *668:20 0.000384782
32 *618:8 *3735:S 0.000271121
33 *618:8 *668:20 0.000965569
34 *618:12 *668:20 3.93531e-05
35 *618:25 *3450:A3 0.000249161
36 *618:25 *3450:S1 0.000164679
37 *618:25 *4098:A 0.000132177
38 *618:47 *3450:A1 6.27438e-05
39 *618:47 *3450:S1 0.000264172
40 *618:47 *3451:A 2.75229e-05
41 *3465:A *3544:A1 1.01639e-05
42 *3481:A2 *3544:A1 4.77757e-05
43 *3544:S *3544:A1 4.89395e-05
44 *3580:S *618:6 3.75126e-05
45 *3580:S *618:8 0.000165821
46 *3581:A *618:8 0.000121659
47 *3597:S *3562:A1 0.000246723
48 *3736:A *3509:A1 0.000101055
49 *544:38 *3526:A0 0.000294421
50 *544:38 *618:25 3.09233e-05
51 *544:61 *618:25 0.00030156
*RES
1 *4008:X *618:4 1.6 
2 *618:4 *618:6 3.555 
3 *618:6 *618:8 9.075 
4 *618:8 *618:12 1.155 
5 *618:12 *3509:A1 7.24 
6 *618:12 *618:25 8.99 
7 *618:25 *3526:A0 11.955 
8 *618:25 *618:38 2 
9 *618:38 *3752:A1 1.6 
10 *618:38 *618:47 10.125 
11 *618:47 *3597:A0 1.6 
12 *618:47 *3562:A1 5.875 
13 *618:8 *3735:A1 1.6 
14 *618:6 *3580:A1 1.6 
15 *618:4 *3544:A1 11.765 
*END

*D_NET *619 0.00992032
*CONN
*I *3612:A1 I *D sky130_fd_sc_hd__mux2_2
*I *3629:A1 I *D sky130_fd_sc_hd__mux2_2
*I *3681:A1 I *D sky130_fd_sc_hd__mux2_2
*I *3664:A1 I *D sky130_fd_sc_hd__mux2_2
*I *3715:A0 I *D sky130_fd_sc_hd__mux2_2
*I *3698:A1 I *D sky130_fd_sc_hd__mux2_2
*I *3490:A1 I *D sky130_fd_sc_hd__mux2_2
*I *3646:A1 I *D sky130_fd_sc_hd__mux2_2
*I *4009:X O *D sky130_fd_sc_hd__clkdlybuf4s25_1
*CAP
1 *3612:A1 0
2 *3629:A1 0.000450423
3 *3681:A1 0
4 *3664:A1 0
5 *3715:A0 0.000459126
6 *3698:A1 0.000215326
7 *3490:A1 0.000197892
8 *3646:A1 0.000254733
9 *4009:X 0.00020435
10 *619:94 0.000724154
11 *619:55 0.00110503
12 *619:45 0.000849008
13 *619:34 0.000478119
14 *619:21 0.00041129
15 *619:10 0.000578501
16 *619:6 0.00064814
17 *3490:A1 *3490:A0 0.000201503
18 *3490:A1 *672:14 5.83121e-06
19 *3646:A1 *632:14 7.28112e-05
20 *3715:A0 *3664:S 0.00027287
21 *3715:A0 *3715:A1 1.49286e-05
22 *3715:A0 *663:16 9.12857e-06
23 *619:6 *632:14 0.000158536
24 *619:6 *632:23 0.000263805
25 *619:10 *632:14 0.000309017
26 *619:21 *3446:A0 0
27 *619:55 *3664:S 3.6355e-05
28 *619:55 *3681:A0 0.000288165
29 *619:55 *3698:A0 0
30 *619:55 *831:10 6.01184e-05
31 *619:94 *3446:A0 0.000355453
32 *619:94 *3612:A0 3.87166e-05
33 *3491:A *619:21 6.02273e-05
34 *3613:A *3629:A1 9.12339e-05
35 *3629:S *3629:A1 8.52972e-05
36 *3646:S *3646:A1 2.75229e-05
37 *3665:A *3715:A0 5.01076e-05
38 *3665:A *619:55 0
39 *3681:S *619:55 5.86739e-05
40 *3682:A *3715:A0 0.000134756
41 *3685:S *619:55 0
42 *3698:S *3698:A1 8.40269e-05
43 *3715:S *3715:A0 3.00355e-05
44 *3763:CLK *619:21 0
45 *3763:D *619:21 0.000138196
46 *3763:D *619:94 0
47 *3819:D *3629:A1 4.77807e-05
48 *3819:D *3646:A1 1.43717e-05
49 *3819:D *619:21 1.52184e-05
50 *3843:D *619:55 9.47776e-05
51 *3851:D *3715:A0 2.85128e-05
52 *4111:A *3698:A1 0.000134306
53 *4111:A *619:45 0.000161944
54 *479:8 *619:21 0
*RES
1 *4009:X *619:6 5.5 
2 *619:6 *619:10 3.225 
3 *619:10 *3646:A1 4.465 
4 *619:10 *619:21 5.42 
5 *619:21 *3490:A1 6.12 
6 *619:21 *619:34 2.87 
7 *619:34 *3698:A1 4.465 
8 *619:34 *619:45 2.88 
9 *619:45 *619:55 15.97 
10 *619:55 *3715:A0 13.355 
11 *619:55 *3664:A1 1.6 
12 *619:45 *3681:A1 1.6 
13 *619:6 *619:94 9.655 
14 *619:94 *3629:A1 7.69 
15 *619:94 *3612:A1 1.6 
*END

*D_NET *620 0.00978148
*CONN
*I *3733:A1 I *D sky130_fd_sc_hd__mux2_2
*I *3750:A1 I *D sky130_fd_sc_hd__mux2_2
*I *3560:A1 I *D sky130_fd_sc_hd__mux2_2
*I *3542:A1 I *D sky130_fd_sc_hd__mux2_2
*I *3578:A1 I *D sky130_fd_sc_hd__mux2_2
*I *3595:A0 I *D sky130_fd_sc_hd__mux2_2
*I *3524:A0 I *D sky130_fd_sc_hd__mux2_2
*I *3507:A1 I *D sky130_fd_sc_hd__mux2_2
*I *4010:X O *D sky130_fd_sc_hd__clkdlybuf4s25_1
*CAP
1 *3733:A1 0
2 *3750:A1 0.000160653
3 *3560:A1 0
4 *3542:A1 0.000225559
5 *3578:A1 0.000594718
6 *3595:A0 2.0132e-05
7 *3524:A0 0
8 *3507:A1 6.44844e-05
9 *4010:X 0.000132518
10 *620:70 0.000510874
11 *620:46 0.000740941
12 *620:42 0.000596739
13 *620:33 0.00042321
14 *620:22 0.000617779
15 *620:12 0.000609836
16 *620:6 0.000266284
17 *3507:A1 *3507:A0 1.47256e-05
18 *3542:A1 *3443:A0 0.00031039
19 *3542:A1 *3443:S0 0.000415735
20 *3542:A1 *3443:S1 0.000208414
21 *3542:A1 *3560:A0 0.000182427
22 *3542:A1 *775:10 9.12494e-06
23 *3578:A1 *3578:A0 3.46092e-05
24 *3750:A1 *3750:A0 0.000223484
25 *3750:A1 *863:8 4.77719e-05
26 *620:6 *3733:A0 0.000116991
27 *620:12 *3442:A1 0.000114221
28 *620:12 *687:54 0.00012712
29 *620:12 *687:78 4.93336e-05
30 *620:33 *3442:A2 7.30547e-05
31 *620:33 *3442:S0 2.05661e-05
32 *620:33 *751:10 0.000134245
33 *620:42 *3443:A2 6.90254e-05
34 *620:42 *3466:S0 2.98587e-05
35 *620:42 *791:10 1.28996e-05
36 *620:46 *3595:A1 4.38372e-05
37 *620:70 *3466:S0 0.000179579
38 *3507:S *3507:A1 4.66108e-05
39 *3507:S *620:22 1.08758e-05
40 *3560:S *620:70 8.41307e-05
41 *3561:A *620:70 1.79098e-05
42 *3579:A *3578:A1 6.44956e-05
43 *3596:A *3578:A1 4.77807e-05
44 *3729:S *620:70 0.000119873
45 *3750:S *3750:A1 5.31423e-05
46 *3751:A *3750:A1 7.33923e-05
47 *3751:A *620:22 6.96004e-05
48 *3787:CLK *620:33 0.000218324
49 *3787:CLK *620:42 0.000143266
50 *3803:D *3578:A1 7.5687e-06
51 *3875:CLK *620:22 2.92496e-05
52 *3883:CLK *620:22 4.66108e-05
53 *413:54 *620:22 3.57349e-05
54 *413:54 *620:33 2.92496e-05
55 *413:75 *620:33 0.00023102
56 *413:75 *620:42 0.000293692
57 *413:75 *620:70 9.73562e-05
58 *422:29 *620:22 0.000116158
59 *442:24 *3542:A1 1.10951e-05
60 *442:37 *3542:A1 1.46781e-05
61 *452:111 *3578:A1 1.40606e-05
62 *535:26 *620:42 0.00010505
63 *601:8 *620:33 0.000116151
64 *601:23 *620:33 0.000218024
65 *601:52 *620:22 8.5242e-05
*RES
1 *4010:X *620:6 3.43 
2 *620:6 *620:12 7.675 
3 *620:12 *620:22 9.04 
4 *620:22 *3507:A1 2.395 
5 *620:22 *620:33 9.245 
6 *620:33 *3524:A0 3.6 
7 *620:33 *620:42 6.225 
8 *620:42 *620:46 3.83 
9 *620:46 *3595:A0 1.96 
10 *620:46 *3578:A1 9.055 
11 *620:42 *620:70 7.7 
12 *620:70 *3542:A1 13.205 
13 *620:70 *3560:A1 1.6 
14 *620:12 *3750:A1 5.515 
15 *620:6 *3733:A1 1.6 
*END

*D_NET *621 0.0102791
*CONN
*I *3713:A0 I *D sky130_fd_sc_hd__mux2_2
*I *3679:A1 I *D sky130_fd_sc_hd__mux2_2
*I *3696:A1 I *D sky130_fd_sc_hd__mux2_2
*I *3662:A1 I *D sky130_fd_sc_hd__mux2_2
*I *3610:A1 I *D sky130_fd_sc_hd__mux2_2
*I *3644:A1 I *D sky130_fd_sc_hd__mux2_2
*I *3488:A1 I *D sky130_fd_sc_hd__mux2_2
*I *3627:A1 I *D sky130_fd_sc_hd__mux2_2
*I *4011:X O *D sky130_fd_sc_hd__clkdlybuf4s25_1
*CAP
1 *3713:A0 0.00027886
2 *3679:A1 0.00057136
3 *3696:A1 6.88584e-05
4 *3662:A1 0.00047054
5 *3610:A1 6.30115e-05
6 *3644:A1 0.000225318
7 *3488:A1 0.000418309
8 *3627:A1 0.000443344
9 *4011:X 4.65509e-05
10 *621:96 0.000937133
11 *621:41 0.000868399
12 *621:37 0.000494156
13 *621:22 0.000922416
14 *621:18 0.000803537
15 *621:16 0.000225146
16 *621:10 0.000229452
17 *3488:A1 *3488:A0 0
18 *3610:A1 *3610:A0 2.11084e-05
19 *3627:A1 *3627:A0 9.49119e-05
20 *3644:A1 *664:48 0.00015832
21 *3644:A1 *742:8 8.52972e-05
22 *3679:A1 *3679:A0 0.000306859
23 *3713:A0 *684:48 1.64056e-05
24 *621:10 *3437:A2 1.1392e-05
25 *621:16 *3437:A2 2.33136e-05
26 *621:16 *838:10 2.60986e-05
27 *621:18 *684:50 0
28 *621:22 *3438:S1 0
29 *621:22 *684:50 0
30 *621:37 *3610:S 4.00541e-06
31 *621:41 *3438:S0 2.02052e-05
32 *621:41 *664:48 6.40769e-05
33 *3439:A1 *3662:A1 0.000120655
34 *3439:A1 *621:41 0
35 *3439:S *3662:A1 0.000241483
36 *3440:A1 *3662:A1 6.97034e-05
37 *3440:A1 *3713:A0 5.83121e-06
38 *3489:A *3488:A1 5.73739e-05
39 *3611:A *621:37 1.83847e-05
40 *3611:A *621:41 0
41 *3644:S *621:22 9.84957e-05
42 *3654:S *3696:A1 4.66108e-05
43 *3654:S *621:16 2.07184e-05
44 *3654:S *621:18 0.000109009
45 *3654:S *621:22 0.000499089
46 *3663:A *3662:A1 0.000209
47 *3663:A *621:16 0
48 *3663:A *621:18 0
49 *3680:A *3679:A1 9.83921e-06
50 *3696:S *3696:A1 1.19928e-05
51 *3714:A *3713:A0 0.000271365
52 *3714:A *621:16 5.8687e-05
53 *3714:A *621:96 0.000194157
54 *3818:D *3644:A1 4.77769e-05
55 *3866:D *3713:A0 1.10951e-05
56 *3866:D *621:10 1.03592e-05
57 *3866:D *621:16 6.03272e-05
58 *3866:D *621:96 9.70046e-05
59 *488:123 *3610:A1 2.86265e-06
60 *488:123 *3627:A1 1.1392e-05
61 *488:123 *621:37 9.74535e-05
*RES
1 *4011:X *621:10 4.2825 
2 *621:10 *621:16 2.5725 
3 *621:16 *621:18 1.38 
4 *621:18 *621:22 8.735 
5 *621:22 *3627:A1 7.69 
6 *621:22 *621:37 3.57 
7 *621:37 *621:41 5.93 
8 *621:41 *3488:A1 10.305 
9 *621:41 *3644:A1 7.965 
10 *621:37 *3610:A1 2.395 
11 *621:18 *3662:A1 13.035 
12 *621:16 *3696:A1 4.395 
13 *621:10 *621:96 2.7225 
14 *621:96 *3679:A1 10.26 
15 *621:96 *3713:A0 9.03 
*END

*D_NET *622 0.00986887
*CONN
*I *3540:A1 I *D sky130_fd_sc_hd__mux2_2
*I *3558:A1 I *D sky130_fd_sc_hd__mux2_2
*I *3593:A0 I *D sky130_fd_sc_hd__mux2_2
*I *3576:A1 I *D sky130_fd_sc_hd__mux2_2
*I *3731:A1 I *D sky130_fd_sc_hd__mux2_2
*I *3505:A1 I *D sky130_fd_sc_hd__mux2_2
*I *3522:A0 I *D sky130_fd_sc_hd__mux2_2
*I *3748:A1 I *D sky130_fd_sc_hd__mux2_2
*I *4012:X O *D sky130_fd_sc_hd__clkdlybuf4s25_1
*CAP
1 *3540:A1 0.000354839
2 *3558:A1 0.0002791
3 *3593:A0 0
4 *3576:A1 0
5 *3731:A1 0.00011541
6 *3505:A1 0.00024022
7 *3522:A0 3.56363e-05
8 *3748:A1 0
9 *4012:X 0.000381878
10 *622:84 0.000989372
11 *622:63 0.000571521
12 *622:43 0.000733995
13 *622:23 0.000406468
14 *622:14 0.000476397
15 *622:12 0.00113016
16 *3505:A1 *668:51 0.000477246
17 *3522:A0 *3522:S 5.83121e-06
18 *3540:A1 *3540:A0 0
19 *3558:A1 *3558:A0 0
20 *3731:A1 *3727:S 0.000435228
21 *622:12 *628:20 0
22 *622:14 *3748:A0 0.000268176
23 *622:23 *3522:A1 7.07148e-05
24 *622:23 *3522:S 4.8854e-05
25 *622:63 *3435:A2 1.14487e-05
26 *622:84 *3434:S0 0
27 *622:84 *3434:S1 2.12738e-05
28 *622:84 *3435:A2 3.94628e-05
29 *622:84 *3435:A3 0.000246562
30 *622:84 *3435:S1 2.20014e-05
31 *622:84 *688:85 1.50383e-05
32 *622:84 *766:14 0.000109076
33 *622:84 *790:12 4.66108e-05
34 *3436:A1 *3540:A1 0
35 *3436:A1 *622:84 0.000118081
36 *3559:A *3558:A1 9.84609e-06
37 *3559:A *622:84 2.99518e-06
38 *3572:S *622:43 8.35118e-05
39 *3572:S *622:63 4.66108e-05
40 *3594:A *622:63 3.46092e-05
41 *3594:A *622:84 1.53838e-05
42 *3748:S *622:14 1.42674e-05
43 *3748:S *622:23 4.77769e-05
44 *3794:D *3540:A1 0.00030843
45 *3810:CLK *3558:A1 0.000274019
46 *3882:D *622:12 5.51127e-05
47 *347:12 *622:12 0
48 *413:91 *3540:A1 0.000135199
49 *452:75 *3731:A1 0.000433175
50 *461:88 *622:84 6.81992e-05
51 *544:78 *622:14 9.55262e-06
52 *578:10 *3540:A1 0.00043732
53 *578:10 *3558:A1 0.000218868
54 *578:10 *622:84 2.33933e-05
*RES
1 *4012:X *622:12 10.61 
2 *622:12 *622:14 4.245 
3 *622:14 *3748:A1 1.6 
4 *622:14 *622:23 2.79 
5 *622:23 *3522:A0 2.05 
6 *622:23 *3505:A1 11.315 
7 *622:12 *622:43 4.59 
8 *622:43 *3731:A1 10.805 
9 *622:43 *3576:A1 1.6 
10 *622:43 *622:63 2.88 
11 *622:63 *3593:A0 1.6 
12 *622:63 *622:84 13.74 
13 *622:84 *3558:A1 9.12 
14 *622:84 *3540:A1 11.235 
*END

*D_NET *623 0.00736401
*CONN
*I *3660:A1 I *D sky130_fd_sc_hd__mux2_2
*I *3711:A0 I *D sky130_fd_sc_hd__mux2_2
*I *3694:A1 I *D sky130_fd_sc_hd__mux2_2
*I *3677:A1 I *D sky130_fd_sc_hd__mux2_2
*I *3608:A1 I *D sky130_fd_sc_hd__mux2_2
*I *3486:A1 I *D sky130_fd_sc_hd__mux2_2
*I *3642:A1 I *D sky130_fd_sc_hd__mux2_2
*I *3625:A1 I *D sky130_fd_sc_hd__mux2_2
*I *4013:X O *D sky130_fd_sc_hd__clkdlybuf4s25_1
*CAP
1 *3660:A1 0
2 *3711:A0 0
3 *3694:A1 0.000166775
4 *3677:A1 0
5 *3608:A1 0
6 *3486:A1 0
7 *3642:A1 0
8 *3625:A1 0.000289482
9 *4013:X 0.000618743
10 *623:71 0.000301929
11 *623:62 0.000289542
12 *623:58 0.000154388
13 *623:28 0.000511938
14 *623:22 0.00025486
15 *623:16 0.000241996
16 *623:10 0.000828335
17 *3625:A1 *3478:S0 0.000113151
18 *3625:A1 *3478:S1 8.65905e-05
19 *3625:A1 *3623:S 0
20 *3625:A1 *3625:A0 8.8266e-05
21 *3694:A1 *837:12 3.54721e-05
22 *623:10 *3429:S0 6.5525e-05
23 *623:10 *3430:S0 3.66641e-05
24 *623:10 *3660:A0 0.000304284
25 *623:10 *4008:A 0.000136572
26 *623:10 *4013:A 2.11084e-05
27 *623:10 *4024:A 0.000101064
28 *623:16 *3430:S0 0.000166621
29 *623:16 *3608:A0 7.30547e-05
30 *623:16 *4008:A 9.89726e-05
31 *623:16 *633:25 0.000119559
32 *623:16 *669:14 3.57349e-05
33 *623:16 *669:24 4.66108e-05
34 *623:22 *633:25 9.37731e-05
35 *623:28 *3478:S0 1.73877e-05
36 *623:71 *3711:A1 0.0001076
37 *3484:S *623:28 0.00042195
38 *3486:S *623:22 2.92496e-05
39 *3640:S *623:28 2.14129e-05
40 *3642:S *623:28 0.000189426
41 *3643:A *623:28 0
42 *3712:A *3694:A1 0.000241576
43 *3817:CLK *3625:A1 6.55328e-05
44 *3833:CLK *3625:A1 0
45 *3833:CLK *623:28 0
46 *3833:D *623:28 4.43871e-06
47 *404:40 *623:22 7.23602e-05
48 *488:27 *623:28 0.000423631
49 *498:38 *623:62 7.18107e-06
50 *498:38 *623:71 0.000245058
51 *507:42 *623:62 0.000119667
52 *507:42 *623:71 9.12671e-06
53 *525:45 *623:71 0.000107405
*RES
1 *4013:X *623:10 14.16 
2 *623:10 *623:16 7.235 
3 *623:16 *623:22 5.125 
4 *623:22 *623:28 9.155 
5 *623:28 *3625:A1 9.855 
6 *623:28 *3642:A1 3.6 
7 *623:22 *3486:A1 1.6 
8 *623:16 *3608:A1 1.6 
9 *623:10 *623:58 2 
10 *623:58 *623:62 2.19 
11 *623:62 *3677:A1 1.6 
12 *623:62 *623:71 4.515 
13 *623:71 *3694:A1 9.275 
14 *623:71 *3711:A0 1.6 
15 *623:58 *3660:A1 1.6 
*END

*D_NET *624 0.0103265
*CONN
*I *3574:A1 I *D sky130_fd_sc_hd__mux2_2
*I *3556:A1 I *D sky130_fd_sc_hd__mux2_2
*I *3503:A1 I *D sky130_fd_sc_hd__mux2_2
*I *3520:A0 I *D sky130_fd_sc_hd__mux2_2
*I *3729:A1 I *D sky130_fd_sc_hd__mux2_2
*I *3746:A1 I *D sky130_fd_sc_hd__mux2_2
*I *3538:A1 I *D sky130_fd_sc_hd__mux2_2
*I *3591:A0 I *D sky130_fd_sc_hd__mux2_2
*I *4014:X O *D sky130_fd_sc_hd__clkdlybuf4s25_1
*CAP
1 *3574:A1 0.000166637
2 *3556:A1 0
3 *3503:A1 0
4 *3520:A0 2.74453e-05
5 *3729:A1 0.000300387
6 *3746:A1 0.000217537
7 *3538:A1 0.000337458
8 *3591:A0 0
9 *4014:X 0.000686655
10 *624:96 0.000241899
11 *624:50 0.000582299
12 *624:48 0.000316262
13 *624:42 0.000509984
14 *624:21 0.000713328
15 *624:14 0.000285815
16 *624:8 0.000957404
17 *3520:A0 *3435:S0 2.69217e-05
18 *3538:A1 *3538:A0 4.82863e-05
19 *3574:A1 *3574:A0 0.000220836
20 *3729:A1 *699:52 0.000392144
21 *3746:A1 *3746:A0 0.000112027
22 *624:14 *3574:A0 2.25299e-05
23 *624:14 *3591:A1 0.000133569
24 *624:14 *686:122 3.68784e-05
25 *624:14 *789:10 0.000132089
26 *624:21 *3591:A1 4.82919e-05
27 *624:42 *3426:S0 0
28 *624:42 *3427:S1 0.000116853
29 *624:42 *4026:A 0.00011686
30 *624:96 *3574:A0 4.1213e-05
31 *3504:A *624:48 0.000308811
32 *3520:S *3729:A1 0.000780343
33 *3540:S *3746:A1 7.755e-05
34 *3540:S *624:48 4.58262e-06
35 *3540:S *624:50 4.4579e-05
36 *3591:S *624:14 4.66108e-05
37 *3591:S *624:21 0.000122331
38 *3592:A *624:14 0.000490888
39 *3729:S *3729:A1 3.13354e-05
40 *3746:S *3746:A1 5.99393e-05
41 *3747:A *3746:A1 1.79098e-05
42 *3747:A *624:42 3.67496e-05
43 *3793:CLK *624:14 0.000206817
44 *3793:CLK *624:42 0
45 *3793:CLK *624:48 5.92191e-05
46 *3793:D *624:14 3.6951e-05
47 *3793:D *624:96 3.32593e-05
48 *3809:D *624:8 0.000197969
49 *3810:CLK *3746:A1 1.08758e-05
50 *3813:CLK *3746:A1 4.28112e-06
51 *3881:D *624:42 0.000180689
52 *3971:A *3729:A1 4.77807e-05
53 *413:85 *624:42 1.91597e-05
54 *413:91 *624:42 2.75145e-05
55 *413:91 *624:48 9.27495e-05
56 *588:20 *3729:A1 4.71087e-05
57 *588:22 *3746:A1 0.000104813
58 *588:22 *624:50 2.45547e-05
59 *588:42 *624:48 0.000122752
60 *588:42 *624:50 4.4022e-05
61 *589:36 *624:8 0.000252701
*RES
1 *4014:X *624:8 12.33 
2 *624:8 *624:14 9.44 
3 *624:14 *3591:A0 1.6 
4 *624:14 *624:21 1.83 
5 *624:21 *3538:A1 6.205 
6 *624:21 *624:42 10.045 
7 *624:42 *624:48 7.415 
8 *624:48 *624:50 1.635 
9 *624:50 *3746:A1 9 
10 *624:50 *3729:A1 12.69 
11 *624:48 *3520:A0 4.05 
12 *624:42 *3503:A1 1.6 
13 *624:8 *624:96 1.575 
14 *624:96 *3556:A1 3.6 
15 *624:96 *3574:A1 6.96 
*END

*D_NET *625 0.00918681
*CONN
*I *3675:A1 I *D sky130_fd_sc_hd__mux2_2
*I *3658:A1 I *D sky130_fd_sc_hd__mux2_2
*I *3709:A0 I *D sky130_fd_sc_hd__mux2_2
*I *3692:A1 I *D sky130_fd_sc_hd__mux2_2
*I *3484:A1 I *D sky130_fd_sc_hd__mux2_2
*I *3606:A1 I *D sky130_fd_sc_hd__mux2_2
*I *3640:A1 I *D sky130_fd_sc_hd__mux2_2
*I *3623:A1 I *D sky130_fd_sc_hd__mux2_2
*I *4015:X O *D sky130_fd_sc_hd__clkdlybuf4s25_1
*CAP
1 *3675:A1 0.000487767
2 *3658:A1 0.000204785
3 *3709:A0 0
4 *3692:A1 0.000230379
5 *3484:A1 6.845e-05
6 *3606:A1 0
7 *3640:A1 0.000249243
8 *3623:A1 8.70196e-05
9 *4015:X 0
10 *625:82 0.00103111
11 *625:65 0.000583777
12 *625:50 0.000704322
13 *625:35 0.000807003
14 *625:19 0.000876857
15 *625:4 0.000204801
16 *3484:A1 *3484:A0 9.14049e-05
17 *3484:A1 *3623:S 4.82863e-05
18 *3623:A1 *3623:A0 7.08493e-05
19 *3640:A1 *3640:A0 0.000273003
20 *3675:A1 *3675:A0 0
21 *3675:A1 *684:21 0.00031036
22 *3675:A1 *690:14 0
23 *3675:A1 *828:10 0
24 *3692:A1 *684:27 0.000126731
25 *625:19 *3620:S 7.06865e-05
26 *625:19 *3623:S 4.43682e-05
27 *625:19 *4047:A 7.06865e-05
28 *625:35 *669:24 0.000724249
29 *625:50 *3420:A0 0.000154481
30 *625:50 *3484:A0 0.000116853
31 *625:82 *3709:A1 4.89395e-05
32 *625:82 *828:10 8.08129e-05
33 *3422:A0 *3675:A1 4.6368e-06
34 *3440:A1 *625:50 4.4591e-05
35 *3480:A1 *3484:A1 4.66108e-05
36 *3485:A *3484:A1 0
37 *3485:A *3692:A1 0.000124934
38 *3485:A *625:50 0
39 *3640:S *3640:A1 6.97528e-06
40 *3640:S *625:35 3.1562e-06
41 *3658:S *3658:A1 0.000122797
42 *3675:S *3675:A1 0.00015701
43 *3695:A *3675:A1 0
44 *3709:S *625:82 0.00045726
45 *3710:A *625:65 1.79098e-05
46 *3848:CLK *625:82 4.04729e-05
47 *3848:D *625:82 1.43717e-05
48 *3857:D *3675:A1 0
49 *3864:CLK *3692:A1 4.53873e-05
50 *3991:A *625:65 0.000119873
51 *498:38 *3658:A1 0.00011099
52 *498:38 *3675:A1 4.21484e-05
53 *498:38 *625:82 2.49909e-05
54 *525:60 *3658:A1 3.54721e-05
*RES
1 *4015:X *625:4 1.6 
2 *625:4 *3623:A1 2.74 
3 *625:4 *625:19 6.01 
4 *625:19 *3640:A1 4.81 
5 *625:19 *3606:A1 1.6 
6 *625:19 *625:35 9.005 
7 *625:35 *3484:A1 5.175 
8 *625:35 *625:50 6.695 
9 *625:50 *3692:A1 10.775 
10 *625:50 *625:65 3.9 
11 *625:65 *3709:A0 1.6 
12 *625:65 *625:82 10.625 
13 *625:82 *3658:A1 6.81 
14 *625:82 *3675:A1 13.2 
*END

*D_NET *626 0.00913432
*CONN
*I *3589:A0 I *D sky130_fd_sc_hd__mux2_2
*I *3572:A1 I *D sky130_fd_sc_hd__mux2_2
*I *3744:A1 I *D sky130_fd_sc_hd__mux2_2
*I *3536:A1 I *D sky130_fd_sc_hd__mux2_2
*I *3554:A1 I *D sky130_fd_sc_hd__mux2_2
*I *3727:A1 I *D sky130_fd_sc_hd__mux2_2
*I *3518:A0 I *D sky130_fd_sc_hd__mux2_2
*I *3501:A1 I *D sky130_fd_sc_hd__mux2_2
*I *4016:X O *D sky130_fd_sc_hd__clkdlybuf4s25_1
*CAP
1 *3589:A0 0.000229895
2 *3572:A1 0
3 *3744:A1 0.000280389
4 *3536:A1 0.000175784
5 *3554:A1 0
6 *3727:A1 6.06539e-05
7 *3518:A0 0.000117057
8 *3501:A1 0.000147337
9 *4016:X 7.56888e-05
10 *626:92 0.000596872
11 *626:77 0.000791292
12 *626:55 0.00129114
13 *626:18 0.000699977
14 *626:14 0.000541728
15 *626:10 0.00138633
16 *626:8 0.000445102
17 *3501:A1 *3501:A0 8.52883e-05
18 *3501:A1 *3518:S 8.47721e-05
19 *3518:A0 *3416:A2 0
20 *3518:A0 *3518:S 0.000119285
21 *3536:A1 *3554:S 0.000161467
22 *3536:A1 *686:122 9.77048e-06
23 *3536:A1 *772:10 0
24 *3589:A0 *3572:A0 1.32026e-05
25 *626:10 *3416:A0 0.000164679
26 *626:10 *3416:A1 0.000106393
27 *626:10 *628:20 0
28 *626:14 *3416:A0 6.75724e-05
29 *626:14 *628:20 0
30 *626:14 *852:14 3.09233e-05
31 *626:18 *748:8 1.83756e-05
32 *626:55 *3554:A0 5.39961e-05
33 *626:55 *3727:S 9.28581e-05
34 *626:55 *772:10 8.53113e-06
35 *626:77 *628:20 0
36 *3418:A1 *626:55 9.70988e-05
37 *3572:S *3589:A0 4.89395e-05
38 *3572:S *626:92 8.53011e-05
39 *3573:A *626:92 0.00011548
40 *3589:S *626:55 0.000120655
41 *3590:A *3589:A0 1.34687e-05
42 *3591:S *626:55 0.00030949
43 *3728:A *626:18 0.0001249
44 *3744:S *3744:A1 4.77807e-05
45 *3800:D *626:10 0
46 *3808:CLK *626:77 0
47 *3872:D *626:18 4.82863e-05
48 *347:12 *626:55 0.0001249
49 *585:18 *626:55 0.000141661
*RES
1 *4016:X *626:8 4.395 
2 *626:8 *626:10 4.95 
3 *626:10 *626:14 3.125 
4 *626:14 *626:18 8.315 
5 *626:18 *3501:A1 5.865 
6 *626:18 *3518:A0 6.255 
7 *626:14 *3727:A1 2.74 
8 *626:10 *626:55 21.105 
9 *626:55 *3554:A1 1.6 
10 *626:55 *3536:A1 8.555 
11 *626:8 *626:77 4.145 
12 *626:77 *3744:A1 4.81 
13 *626:77 *626:92 5.76 
14 *626:92 *3572:A1 1.6 
15 *626:92 *3589:A0 4.48 
*END

*D_NET *627 0.000545194
*CONN
*I *3901:D I *D sky130_fd_sc_hd__dfrtp_2
*I *3902:HI O *D sky130_fd_sc_hd__conb_1
*CAP
1 *3901:D 0.000212476
2 *3902:HI 0.000212476
3 *3901:D *3891:RESET_B 4.77769e-05
4 *3901:CLK *3901:D 1.0263e-05
5 *3903:RESET_B *3901:D 6.22023e-05
*RES
1 *3902:HI *3901:D 10.7137 
*END

*D_NET *628 0.0109885
*CONN
*I *4016:A I *D sky130_fd_sc_hd__clkdlybuf4s25_1
*I *4015:A I *D sky130_fd_sc_hd__clkdlybuf4s25_1
*I *4057:X O *D sky130_fd_sc_hd__clkdlybuf4s25_1
*CAP
1 *4016:A 0
2 *4015:A 0.00173812
3 *4057:X 0.000471985
4 *628:20 0.00268367
5 *628:14 0.00141753
6 *4015:A *3420:S0 0
7 *4015:A *3434:A3 0.000263731
8 *4015:A *3434:S1 1.32711e-05
9 *4015:A *3450:S0 0.000581014
10 *4015:A *3479:S0 0.000337524
11 *4015:A *3526:S 0.000459028
12 *4015:A *3606:A0 9.14947e-05
13 *4015:A *3620:S 7.63047e-05
14 *4015:A *3623:S 4.82863e-05
15 *4015:A *3758:A0 0
16 *4015:A *4011:A 0.000149882
17 *4015:A *4047:A 0
18 *4015:A *668:41 0.000256833
19 *4015:A *796:10 2.23253e-05
20 *4015:A *862:10 0
21 *628:14 *3416:A1 3.45588e-05
22 *628:14 *3744:A0 5.09431e-05
23 *628:20 *3416:A1 0.000148968
24 *628:20 *3416:S1 5.2089e-05
25 *628:20 *3434:S1 8.46333e-05
26 *628:20 *3748:A0 2.69079e-05
27 *628:20 *852:14 0
28 *3736:A *4015:A 0.000135523
29 *3744:S *628:14 0.000135258
30 *3744:S *628:20 0
31 *3745:A *628:14 8.64421e-05
32 *3753:A *4015:A 0.000468933
33 *3759:A *4015:A 0.000398699
34 *3760:CLK *4015:A 5.11712e-05
35 *3856:CLK *4015:A 0
36 *3856:D *4015:A 9.44361e-05
37 *3872:CLK *628:20 0
38 *3872:D *628:20 9.37731e-05
39 *3879:D *4015:A 0
40 *3882:CLK *4015:A 0
41 *3882:D *4015:A 0
42 *544:78 *4015:A 0.000443321
43 *544:78 *628:20 7.18529e-05
44 *613:10 *4015:A 0
45 *622:12 *628:20 0
46 *626:10 *628:20 0
47 *626:14 *628:20 0
48 *626:77 *628:20 0
*RES
1 *4057:X *628:14 13.31 
2 *628:14 *628:20 19.2575 
3 *628:20 *4015:A 48.6525 
4 *628:14 *4016:A 1.6 
*END

*D_NET *629 0.00386807
*CONN
*I *3941:RESET_B I *D sky130_fd_sc_hd__dfrtp_2
*I *4054:X O *D sky130_fd_sc_hd__dlygate4sd3_1
*CAP
1 *3941:RESET_B 0.00124426
2 *4054:X 0.00124426
3 *3941:RESET_B *3941:D 0.000757635
4 *3941:RESET_B *4017:A 8.49205e-05
5 *3941:RESET_B *728:8 7.6506e-05
6 *3941:RESET_B *733:12 0
7 *3941:RESET_B *733:37 0.000156217
8 *3227:A *3941:RESET_B 0.000304285
9 *3375:B *3941:RESET_B 0
10 *296:18 *3941:RESET_B 0
*RES
1 *4054:X *3941:RESET_B 26.1275 
*END

*D_NET *630 0.00873563
*CONN
*I *4014:A I *D sky130_fd_sc_hd__clkdlybuf4s25_1
*I *4013:A I *D sky130_fd_sc_hd__clkdlybuf4s25_1
*I *4058:X O *D sky130_fd_sc_hd__clkdlybuf4s25_1
*CAP
1 *4014:A 0
2 *4013:A 2.23868e-05
3 *4058:X 0.000263698
4 *630:16 0.00194097
5 *630:10 0.00218228
6 *630:10 *765:10 3.60365e-05
7 *630:16 *3428:S 0.000135931
8 *630:16 *3458:A2 0
9 *630:16 *3458:S0 0.00124422
10 *630:16 *3459:A2 0.000249928
11 *630:16 *3599:A0 0
12 *630:16 *3599:A1 6.4422e-05
13 *630:16 *3754:A1 0
14 *630:16 *4026:A 0.000459009
15 *630:16 *686:22 0
16 *630:16 *724:115 0
17 *3428:A1 *630:16 0.000364065
18 *3431:A2 *630:16 0.000115782
19 *3511:S *630:16 8.78813e-05
20 *3574:S *630:10 4.90227e-05
21 *3730:A *630:16 0.000392275
22 *3754:S *630:16 0
23 *3755:A *630:16 0
24 *3781:D *630:16 9.37846e-05
25 *3789:CLK *630:16 0.000214054
26 *3797:D *630:16 0.000140791
27 *3971:A *630:16 0
28 *388:16 *630:16 0.000151575
29 *452:37 *630:16 0
30 *544:32 *630:16 0
31 *562:162 *630:16 7.40338e-05
32 *562:176 *630:16 0.000372196
33 *586:47 *630:16 6.01789e-05
34 *589:10 *630:16 0
35 *589:32 *630:16 0
36 *612:51 *630:16 0
37 *623:10 *4013:A 2.11084e-05
*RES
1 *4058:X *630:10 7.815 
2 *630:10 *630:16 49.62 
3 *630:16 *4013:A 4.05 
4 *630:10 *4014:A 3.6 
*END

*D_NET *631 0.0160528
*CONN
*I *4012:A I *D sky130_fd_sc_hd__clkdlybuf4s25_1
*I *4011:A I *D sky130_fd_sc_hd__clkdlybuf4s25_1
*I *4059:X O *D sky130_fd_sc_hd__clkdlybuf4s25_1
*CAP
1 *4012:A 0
2 *4011:A 0.00718084
3 *4059:X 0.000207291
4 *631:6 0.00738813
5 *4011:A *3420:S0 0.000118407
6 *4011:A *3450:S0 0.00010445
7 *4011:A *3479:S0 0.000102317
8 *4011:A *3518:S 1.73506e-05
9 *4011:A *3637:S 0
10 *4011:A *3748:A0 0.000113124
11 *3480:A1 *4011:A 0.000203294
12 *3753:A *4011:A 0.000109539
13 *3760:D *4011:A 0.000129969
14 *3856:CLK *4011:A 0.000100382
15 *3882:CLK *4011:A 0.000114655
16 *4015:A *4011:A 0.000149882
17 *413:108 *4011:A 1.31816e-05
18 *583:10 *4011:A 0
19 *583:12 *4011:A 0
*RES
1 *4059:X *631:6 4.465 
2 *631:6 *4011:A 22.6736 
3 *631:6 *4012:A 1.6 
*END

*D_NET *632 0.0134972
*CONN
*I *4010:A I *D sky130_fd_sc_hd__clkdlybuf4s25_1
*I *4009:A I *D sky130_fd_sc_hd__clkdlybuf4s25_1
*I *4060:X O *D sky130_fd_sc_hd__clkdlybuf4s25_1
*CAP
1 *4010:A 0.000291228
2 *4009:A 0
3 *4060:X 0.000589936
4 *632:25 0.00177523
5 *632:23 0.00166413
6 *632:14 0.000770062
7 *632:25 *3252:A2 1.94892e-05
8 *632:25 *3322:A1 0.000392428
9 *632:25 *3482:C 7.46987e-05
10 *632:25 *3919:D 0
11 *632:25 *3929:D 0.00116156
12 *632:25 *637:20 8.98657e-05
13 *632:25 *637:22 4.62396e-05
14 *632:25 *683:59 0.000229851
15 *632:25 *726:31 0.00101879
16 *3264:A *632:25 0
17 *3295:A2 *632:25 0
18 *3322:A2 *632:25 1.82563e-05
19 *3447:A1 *632:25 0.000209151
20 *3447:S *632:25 0.00030856
21 *3491:A *632:14 0.00066165
22 *3629:S *632:14 0.000196301
23 *3646:A1 *632:14 7.28112e-05
24 *3763:CLK *632:14 9.50342e-06
25 *3819:D *632:14 1.43717e-05
26 *3978:A *632:25 0.000294905
27 *173:10 *632:25 0.00261594
28 *194:10 *632:25 0
29 *352:14 *4010:A 9.8042e-05
30 *479:8 *632:14 5.93675e-06
31 *595:21 *632:14 0.000136877
32 *619:6 *632:14 0.000158536
33 *619:6 *632:23 0.000263805
34 *619:10 *632:14 0.000309017
*RES
1 *4060:X *632:14 19.865 
2 *632:14 *4009:A 1.6 
3 *632:14 *632:23 5.555 
4 *632:23 *632:25 51.36 
5 *632:25 *4010:A 8.19 
*END

*D_NET *633 0.0141648
*CONN
*I *4008:A I *D sky130_fd_sc_hd__clkdlybuf4s25_1
*I *4053:A I *D sky130_fd_sc_hd__clkdlybuf4s25_1
*I *4061:X O *D sky130_fd_sc_hd__clkdlybuf4s25_1
*CAP
1 *4008:A 0.00166763
2 *4053:A 2.08101e-05
3 *4061:X 3.51161e-05
4 *633:25 0.00352947
5 *633:21 0.00265715
6 *633:6 0.000851245
7 *4008:A *3429:S0 0.000118513
8 *4008:A *3429:S1 0
9 *4008:A *3432:A1 8.71001e-05
10 *4008:A *3580:A0 8.8786e-05
11 *4008:A *4024:A 0
12 *4008:A *668:20 0.000382557
13 *4008:A *684:8 0
14 *633:6 *3488:S 3.57275e-05
15 *633:6 *725:22 7.00889e-06
16 *633:21 *3488:S 0.000102726
17 *633:21 *3492:A1 0.000204154
18 *633:21 *672:32 0.000177337
19 *633:21 *725:22 0.000162404
20 *633:25 *3608:A0 0.000167751
21 *633:25 *3666:S 0.000163019
22 *633:25 *3702:A0 0
23 *633:25 *663:43 0.000186099
24 *633:25 *723:38 0
25 *633:25 *797:10 1.1561e-05
26 *3432:A2 *4008:A 0
27 *3433:B1_N *4008:A 0.00025762
28 *3486:S *633:25 2.34345e-05
29 *3487:A *633:25 0
30 *3493:A *633:21 0.000188852
31 *3512:A *4008:A 0.000445371
32 *3544:A1 *4008:A 6.31732e-05
33 *3634:A *633:25 0
34 *3648:S *633:25 0
35 *3651:A *633:25 0
36 *3675:S *4008:A 0.000526344
37 *3678:A *4008:A 0
38 *3683:S *633:25 0.000114846
39 *3703:A *633:25 0
40 *3720:A *633:25 0
41 *3796:D *4008:A 6.23669e-05
42 *3817:D *633:25 8.97486e-05
43 *3821:D *633:25 0
44 *3829:CLK *633:25 0
45 *3837:D *633:25 6.14689e-05
46 *3861:CLK *633:25 0
47 *3861:D *633:25 3.50571e-05
48 *3976:A *633:25 0.000118527
49 *404:40 *633:25 4.92206e-05
50 *461:26 *4008:A 0.000181135
51 *461:53 *4008:A 6.44876e-05
52 *507:46 *4008:A 0.000308027
53 *507:46 *633:25 0.000236979
54 *516:51 *633:25 0
55 *562:229 *633:25 7.51327e-05
56 *618:6 *4008:A 0.000157983
57 *623:10 *4008:A 0.000136572
58 *623:16 *4008:A 9.89726e-05
59 *623:16 *633:25 0.000119559
60 *623:22 *633:25 9.37731e-05
*RES
1 *4061:X *633:6 2.395 
2 *633:6 *4053:A 1.96 
3 *633:6 *633:21 15.935 
4 *633:21 *633:25 37.6575 
5 *633:25 *4008:A 40.0575 
*END

*D_NET *634 0.0113063
*CONN
*I *4052:A I *D sky130_fd_sc_hd__clkdlybuf4s25_1
*I *4051:A I *D sky130_fd_sc_hd__clkdlybuf4s25_1
*I *4062:X O *D sky130_fd_sc_hd__clkdlybuf4s25_1
*CAP
1 *4052:A 0.000855123
2 *4051:A 2.51931e-05
3 *4062:X 0.000186695
4 *634:31 0.00229916
5 *634:10 0.00165592
6 *4051:A *3494:A1 4.66108e-05
7 *4052:A *3458:S1 4.70326e-05
8 *4052:A *3459:S1 0.000204905
9 *4052:A *3754:A0 0
10 *634:10 *672:32 9.66684e-05
11 *634:31 *3461:A0 0.000161253
12 *634:31 *3461:A1 0.000203472
13 *634:31 *3462:A0 6.37427e-05
14 *634:31 *3462:A1 0
15 *634:31 *3616:A0 0
16 *634:31 *3635:A1 0.000221428
17 *634:31 *3685:A0 0.000314438
18 *634:31 *670:68 0.000117428
19 *634:31 *692:38 0.000428366
20 *634:31 *723:62 1.73877e-05
21 *3460:A1 *4052:A 0.000729404
22 *3464:A1 *4052:A 0.00110308
23 *3464:A1 *634:31 0.00050173
24 *3495:A *634:10 9.42517e-05
25 *3636:A *634:31 0.000148497
26 *3653:A *634:31 0.000206123
27 *3705:A *4052:A 0.000300147
28 *3722:A *4052:A 0.00020613
29 *3765:D *634:10 0.00013629
30 *3765:D *634:31 0.00012286
31 *3838:D *634:31 0.000452229
32 *3845:D *634:31 6.00003e-05
33 *3877:CLK *4052:A 0
34 *350:30 *634:31 1.7635e-05
35 *461:26 *4052:A 0
36 *562:37 *4052:A 9.47616e-05
37 *593:24 *634:31 0
38 *597:12 *634:31 0.000188365
*RES
1 *4062:X *634:10 7.665 
2 *634:10 *4051:A 4.05 
3 *634:10 *634:31 38.2725 
4 *634:31 *4052:A 28.2825 
*END

*D_NET *635 0.0121896
*CONN
*I *4050:A I *D sky130_fd_sc_hd__clkdlybuf4s25_1
*I *4049:A I *D sky130_fd_sc_hd__clkdlybuf4s25_1
*I *4063:X O *D sky130_fd_sc_hd__clkdlybuf4s25_1
*CAP
1 *4050:A 1.58741e-05
2 *4049:A 0.00339054
3 *4063:X 0.000608032
4 *635:10 0.00401445
5 *4049:A *3442:A3 0.000124806
6 *4049:A *3691:B_N 2.42236e-05
7 *4049:A *683:59 1.09082e-05
8 *4049:A *703:98 1.7635e-05
9 *4049:A *707:74 6.03407e-05
10 *4050:A *722:6 8.65961e-05
11 *635:10 *722:76 0.00035192
12 *635:10 *778:14 0
13 *3468:A1 *4049:A 1.27474e-05
14 *3468:A1 *635:10 7.12228e-06
15 *3549:A *635:10 5.83121e-06
16 *3756:S *4049:A 0.00232676
17 *3787:D *4049:A 0.000133068
18 *3790:D *635:10 7.58382e-05
19 *3798:D *635:10 2.61744e-05
20 *3886:D *4050:A 3.72916e-05
21 *544:16 *4049:A 0.000191421
22 *544:138 *4049:A 0.000668059
23 *602:49 *4049:A 0
24 *602:49 *635:10 0
*RES
1 *4063:X *635:10 14.565 
2 *635:10 *4049:A 14.5263 
3 *635:10 *4050:A 4.395 
*END

*D_NET *636 0.00783553
*CONN
*I *4047:A I *D sky130_fd_sc_hd__clkdlybuf4s25_1
*I *4048:A I *D sky130_fd_sc_hd__clkdlybuf4s25_1
*I *4064:X O *D sky130_fd_sc_hd__clkdlybuf4s25_1
*CAP
1 *4047:A 0.00166661
2 *4048:A 0
3 *4064:X 0.000209705
4 *636:6 0.00187632
5 *4047:A *3479:S0 0
6 *4047:A *3509:A0 6.30072e-05
7 *4047:A *3526:S 0.000536344
8 *4047:A *3532:A1 0.000335163
9 *4047:A *3606:A0 0.000228859
10 *4047:A *3620:A0 0.00010506
11 *4047:A *3620:A1 4.49498e-05
12 *4047:A *3620:S 0.000149857
13 *4047:A *3623:A0 6.73424e-05
14 *4047:A *3640:A0 0.000252977
15 *4047:A *668:41 0.000751674
16 *4047:A *720:10 4.21973e-05
17 *4047:A *796:10 6.19969e-05
18 *4047:A *812:8 0.000262158
19 *636:6 *720:10 0.000110662
20 *3509:S *4047:A 0.000706417
21 *3510:A *4047:A 0
22 *3884:D *4047:A 0
23 *3887:D *4047:A 9.54469e-05
24 *4015:A *4047:A 0
25 *413:112 *4047:A 6.73424e-05
26 *544:78 *4047:A 8.07863e-05
27 *605:6 *4047:A 4.99619e-05
28 *625:19 *4047:A 7.06865e-05
*RES
1 *4064:X *636:6 5.155 
2 *636:6 *4048:A 1.6 
3 *636:6 *4047:A 49.535 
*END

*D_NET *637 0.0102036
*CONN
*I *3235:B I *D sky130_fd_sc_hd__and3b_2
*I *3285:B I *D sky130_fd_sc_hd__and4_4
*I *3251:B I *D sky130_fd_sc_hd__and3_2
*I *3482:C I *D sky130_fd_sc_hd__and4bb_2
*I *3262:A2 I *D sky130_fd_sc_hd__a21o_2
*I *3238:A2 I *D sky130_fd_sc_hd__a31oi_2
*I *3252:A2 I *D sky130_fd_sc_hd__a21oi_2
*I *4065:X O *D sky130_fd_sc_hd__clkdlybuf4s25_1
*CAP
1 *3235:B 0
2 *3285:B 3.1827e-05
3 *3251:B 0
4 *3482:C 0.000164907
5 *3262:A2 9.71884e-06
6 *3238:A2 0.000224322
7 *3252:A2 9.83039e-05
8 *4065:X 0.0022513
9 *637:22 0.000404838
10 *637:20 0.00018812
11 *637:18 0.000261096
12 *637:16 0.000278128
13 *637:14 0.000547599
14 *637:12 0.00248894
15 *3238:A2 *3238:A3 5.95498e-05
16 *3238:A2 *3252:B1 6.68001e-05
17 *3252:A2 *3238:A3 0.00015896
18 *3262:A2 *3262:B1 4.82919e-05
19 *3482:C *3252:B1 0
20 *3482:C *3691:A_N 0
21 *637:12 *3243:B 2.14725e-05
22 *637:12 *3243:C 2.49909e-05
23 *637:12 *4113:A 5.2397e-05
24 *637:12 *708:41 6.0011e-05
25 *637:12 *708:86 0.000206328
26 *637:12 *714:52 6.69896e-05
27 *637:12 *912:8 0.000235328
28 *637:14 *3235:C 8.19126e-05
29 *637:20 *707:29 8.57752e-05
30 *637:20 *869:71 3.60648e-05
31 *637:22 *869:71 2.46089e-05
32 full *637:12 2.39461e-05
33 *3252:A1 *3238:A2 6.50844e-05
34 *3252:A1 *3252:A2 5.30673e-05
35 *3482:D *3482:C 4.82863e-05
36 *3605:D_N *3262:A2 4.82919e-05
37 *3920:CLK *637:12 0.000183394
38 *3987:A *637:12 0.00075928
39 *183:23 *637:12 4.9918e-05
40 *184:10 *3285:B 2.42236e-05
41 *184:18 *3238:A2 4.63093e-05
42 *184:40 *637:14 1.19928e-05
43 *193:8 *637:16 0.000266164
44 *193:14 *3285:B 7.21296e-06
45 *193:45 *3285:B 7.4027e-05
46 *218:39 *3285:B 5.16348e-05
47 *218:39 *637:14 1.91597e-05
48 *218:39 *637:16 6.26945e-05
49 *632:25 *3252:A2 1.94892e-05
50 *632:25 *3482:C 7.46987e-05
51 *632:25 *637:20 8.98657e-05
52 *632:25 *637:22 4.62396e-05
*RES
1 *4065:X *637:12 34.415 
2 *637:12 *637:14 2.865 
3 *637:14 *637:16 3.555 
4 *637:16 *637:18 2 
5 *637:18 *637:20 2.655 
6 *637:20 *637:22 1.635 
7 *637:22 *3252:A2 5.7 
8 *637:22 *3238:A2 6.99 
9 *637:20 *3262:A2 4.05 
10 *637:18 *3482:C 6.54 
11 *637:16 *3251:B 1.6 
12 *637:14 *3285:B 6.725 
13 *637:12 *3235:B 1.6 
*END

*D_NET *638 0.00167101
*CONN
*I *3890:D I *D sky130_fd_sc_hd__dfrtp_2
*I *4066:X O *D sky130_fd_sc_hd__clkdlybuf4s25_1
*CAP
1 *3890:D 0.00058805
2 *4066:X 0.00058805
3 *3890:D *3890:RESET_B 4.77731e-05
4 *3367:A2 *3890:D 0.000283165
5 *3368:A3 *3890:D 5.09291e-05
6 *3891:CLK *3890:D 9.47911e-05
7 *554:10 *3890:D 1.82571e-05
*RES
1 *4066:X *3890:D 16.4438 
*END

*D_NET *639 0.00132533
*CONN
*I *3900:RESET_B I *D sky130_fd_sc_hd__dfrtp_2
*I *3898:RESET_B I *D sky130_fd_sc_hd__dfrtp_2
*I *4067:X O *D sky130_fd_sc_hd__clkdlybuf4s25_1
*CAP
1 *3900:RESET_B 0.00019667
2 *3898:RESET_B 3.2153e-05
3 *4067:X 0.000205303
4 *639:10 0.000434125
5 *3898:RESET_B *3897:RESET_B 7.91957e-05
6 *3900:RESET_B *3897:RESET_B 4.98012e-05
7 *3900:RESET_B *3900:D 0.000294352
8 *639:10 *3897:RESET_B 1.46781e-05
9 *4067:A *639:10 1.90535e-05
*RES
1 *4067:X *639:10 6.21 
2 *639:10 *3898:RESET_B 2.7425 
3 *639:10 *3900:RESET_B 6.5825 
*END

*D_NET *640 0.000674769
*CONN
*I *4090:A I *D sky130_fd_sc_hd__buf_1
*I *3888:Q O *D sky130_fd_sc_hd__dfstp_2
*CAP
1 *4090:A 0.000167168
2 *3888:Q 0.000167168
3 *4090:A *3888:SET_B 0.000201182
4 *4090:A *713:12 0.000139251
*RES
1 *3888:Q *4090:A 11.13 
*END

*D_NET *641 0.000760678
*CONN
*I *4091:A I *D sky130_fd_sc_hd__buf_1
*I *3893:Q O *D sky130_fd_sc_hd__dfrtp_2
*CAP
1 *4091:A 0.0002415
2 *3893:Q 0.0002415
3 *4091:A *4045:A 8.72302e-05
4 *4091:A *4046:A 0.000141599
5 *4091:A *718:6 4.88478e-05
*RES
1 *3893:Q *4091:A 12.045 
*END

*D_NET *642 0.0120789
*CONN
*I *4092:A I *D sky130_fd_sc_hd__buf_1
*I *3224:A_N I *D sky130_fd_sc_hd__nand4b_2
*I *3228:A_N I *D sky130_fd_sc_hd__and3b_4
*I *3219:A I *D sky130_fd_sc_hd__inv_2
*I *3216:A_N I *D sky130_fd_sc_hd__nand3b_2
*I *3938:Q O *D sky130_fd_sc_hd__dfstp_2
*CAP
1 *4092:A 2.946e-05
2 *3224:A_N 3.55506e-05
3 *3228:A_N 0.000389778
4 *3219:A 0.000110601
5 *3216:A_N 0
6 *3938:Q 0.000297589
7 *642:45 0.000732211
8 *642:30 0.000555007
9 *642:24 0.00278445
10 *642:10 0.00275278
11 *3219:A *3249:A2 8.49205e-05
12 *3219:A *696:8 0
13 *3224:A_N *3224:B 0
14 *3228:A_N *3468:S 7.9642e-06
15 *3228:A_N *683:38 0.000434844
16 *3228:A_N *698:10 0
17 *3228:A_N *715:25 0.000243309
18 *3228:A_N *715:27 6.36273e-05
19 *3228:A_N *715:29 1.0183e-05
20 *642:10 *3910:D 0
21 *642:10 *4114:A 0.000273008
22 *642:10 *895:10 0
23 *642:24 *3407:A2 9.2073e-05
24 *642:24 *711:6 0.000215865
25 *642:24 *711:12 4.60123e-05
26 *642:24 *712:24 0.00119826
27 *642:24 *729:6 8.88523e-06
28 *642:24 *729:20 7.27298e-06
29 *642:24 *730:16 3.23698e-05
30 *642:30 *3224:B 6.97034e-05
31 *642:30 *3224:C 7.07879e-05
32 *642:30 *3224:D 0.000140912
33 *642:30 *715:31 9.50342e-06
34 *642:45 *3224:C 0.000185398
35 *642:45 *3249:A2 0.000123225
36 *642:45 *4078:A 0.000158297
37 *642:45 *681:22 7.26629e-05
38 *642:45 *696:8 4.66108e-05
39 *642:45 *715:29 2.23485e-05
40 *642:45 *715:31 5.99925e-05
41 *3221:B *3228:A_N 0.000139352
42 *3249:A1 *3219:A 6.20977e-05
43 *3256:A1 *3219:A 2.28686e-05
44 *3942:CLK *642:24 0.000414855
45 *174:10 *642:30 1.4399e-05
46 *177:6 *3228:A_N 2.69153e-05
47 *192:8 *642:45 8.34281e-06
48 *336:10 *642:24 2.46089e-05
*RES
1 *3938:Q *642:10 11.315 
2 *642:10 *642:24 35.725 
3 *642:24 *642:30 6.845 
4 *642:30 *3216:A_N 3.6 
5 *642:30 *642:45 7.955 
6 *642:45 *3219:A 3.805 
7 *642:45 *3228:A_N 16.355 
8 *642:24 *3224:A_N 2.215 
9 *642:10 *4092:A 2.05 
*END

*D_NET *643 0.00726006
*CONN
*I *4093:A I *D sky130_fd_sc_hd__buf_1
*I *3235:A_N I *D sky130_fd_sc_hd__and3b_2
*I *3237:A I *D sky130_fd_sc_hd__inv_2
*I *3928:Q O *D sky130_fd_sc_hd__dfrtp_2
*CAP
1 *4093:A 0.000932838
2 *3235:A_N 0
3 *3237:A 0.000140751
4 *3928:Q 0.00222024
5 *643:16 0.00142815
6 *3237:A *708:41 0.000122331
7 *3237:A *714:52 0.000184063
8 *4093:A *3928:D 0.000389952
9 *4093:A *3928:RESET_B 0.000153522
10 *643:16 *3235:C 0.000126659
11 *643:16 *3930:D 7.47215e-05
12 *643:16 *676:10 4.66108e-05
13 *643:16 *706:38 3.83194e-05
14 *643:16 *706:44 2.75145e-05
15 *643:16 *708:39 0.000160651
16 *643:16 *717:14 4.21973e-05
17 *643:16 *911:8 0.00035048
18 *3236:A *643:16 3.81908e-06
19 *3265:B *643:16 0.000376993
20 *3482:D *3237:A 8.40269e-05
21 *184:10 *3237:A 6.28687e-05
22 *184:18 *3237:A 2.97561e-05
23 *185:31 *643:16 1.90762e-05
24 *193:14 *3237:A 0
25 *603:8 *643:16 5.0751e-05
26 *604:25 *4093:A 4.00168e-06
27 *604:36 *4093:A 0.000189769
*RES
1 *3928:Q *643:16 26.345 
2 *643:16 *3237:A 9.395 
3 *643:16 *3235:A_N 1.6 
4 *3928:Q *4093:A 16.1 
*END

*D_NET *644 0.000899541
*CONN
*I *4094:A I *D sky130_fd_sc_hd__buf_1
*I *3425:X O *D sky130_fd_sc_hd__buf_1
*CAP
1 *4094:A 0.000309191
2 *3425:X 0.000309191
3 *4094:A *4096:A 0.000106884
4 *4094:A *4105:A 0.000151744
5 rd_data[0] *4094:A 2.65814e-06
6 *3441:A *4094:A 1.9872e-05
*RES
1 *3425:X *4094:A 13.395 
*END

*D_NET *645 0.00708666
*CONN
*I *4095:A I *D sky130_fd_sc_hd__buf_1
*I *3433:X O *D sky130_fd_sc_hd__a21bo_2
*CAP
1 *4095:A 0.00337439
2 *3433:X 0.00337439
3 *4095:A *3550:A1 0
4 *4095:A *3562:S 4.05245e-05
5 *4095:A *666:24 7.75061e-05
6 *3433:B1_N *4095:A 0
7 *3540:S *4095:A 0
8 *3783:CLK *4095:A 4.18147e-05
9 *3813:CLK *4095:A 0.000140905
10 *432:47 *4095:A 0
11 *461:88 *4095:A 0
12 *611:47 *4095:A 3.71338e-05
*RES
1 *3433:X *4095:A 19.557 
*END

*D_NET *646 0.000496964
*CONN
*I *4096:A I *D sky130_fd_sc_hd__buf_1
*I *3441:X O *D sky130_fd_sc_hd__buf_1
*CAP
1 *4096:A 0.000180691
2 *3441:X 0.000180691
3 *4096:A *4103:A 2.86975e-05
4 *4094:A *4096:A 0.000106884
*RES
1 *3441:X *4096:A 10.425 
*END

*D_NET *647 0.00125799
*CONN
*I *4097:A I *D sky130_fd_sc_hd__buf_1
*I *3449:X O *D sky130_fd_sc_hd__buf_1
*CAP
1 *4097:A 0.000464349
2 *3449:X 0.000464349
3 *4097:A *4109:A 0.000329289
*RES
1 *3449:X *4097:A 14.19 
*END

*D_NET *648 0.00546354
*CONN
*I *4098:A I *D sky130_fd_sc_hd__buf_1
*I *3457:X O *D sky130_fd_sc_hd__a22o_2
*CAP
1 *4098:A 0.00217201
2 *3457:X 0.00217201
3 *4098:A *3450:A2 0.000203876
4 *4098:A *3450:A3 0.000174065
5 *4098:A *3450:S0 0
6 *4098:A *3526:A1 5.55344e-05
7 *4098:A *760:8 2.47313e-05
8 *3457:A1 *4098:A 0.000120271
9 *3516:A *4098:A 3.38262e-05
10 *3856:CLK *4098:A 0.000236706
11 *3887:CLK *4098:A 1.9872e-05
12 *3887:D *4098:A 2.39873e-05
13 *352:67 *4098:A 5.80043e-05
14 *352:73 *4098:A 3.64622e-05
15 *544:61 *4098:A 0
16 *618:25 *4098:A 0.000132177
*RES
1 *3457:X *4098:A 40.725 
*END

*D_NET *649 0.00100607
*CONN
*I *3891:D I *D sky130_fd_sc_hd__dfrtp_2
*I *4068:X O *D sky130_fd_sc_hd__clkdlybuf4s25_1
*CAP
1 *3891:D 0.000434839
2 *4068:X 0.000434839
3 *3891:D *3889:RESET_B 4.83032e-05
4 *3382:B *3891:D 4.70338e-05
5 *3401:A2 *3891:D 4.10576e-05
*RES
1 *4068:X *3891:D 13.68 
*END

*D_NET *650 0.00042227
*CONN
*I *4099:A I *D sky130_fd_sc_hd__buf_1
*I *3465:X O *D sky130_fd_sc_hd__buf_1
*CAP
1 *4099:A 0.000120308
2 *3465:X 0.000120308
3 *4099:A *4101:A 0.000122797
4 *3465:A *4099:A 5.88561e-05
*RES
1 *3465:X *4099:A 9.72 
*END

*D_NET *651 0.00196652
*CONN
*I *4100:A I *D sky130_fd_sc_hd__buf_1
*I *3473:X O *D sky130_fd_sc_hd__a21bo_2
*CAP
1 *4100:A 0.000713171
2 *3473:X 0.000713171
3 *4100:A *3466:A2 0
4 *4100:A *3530:A1 9.14049e-05
5 *4100:A *3601:A1 2.41231e-05
6 *4100:A *722:33 0
7 *4100:A *762:8 0.000164686
8 *4100:A *786:10 0
9 *3530:S *4100:A 0
10 *3601:S *4100:A 0
11 *26:20 *4100:A 0.000259967
*RES
1 *3473:X *4100:A 21.33 
*END

*D_NET *652 0.00458216
*CONN
*I *4101:A I *D sky130_fd_sc_hd__buf_1
*I *3481:X O *D sky130_fd_sc_hd__a22o_2
*CAP
1 *4101:A 0.00170286
2 *3481:X 0.00170286
3 *4101:A *3475:A 3.41011e-05
4 *4101:A *4107:A 4.77769e-05
5 *3440:A0 *4101:A 0.000210792
6 *3465:A *4101:A 0.000193926
7 *3481:A2 *4101:A 0.0005044
8 *3804:D *4101:A 1.43717e-05
9 *4099:A *4101:A 0.000122797
10 *610:12 *4101:A 4.82863e-05
*RES
1 *3481:X *4101:A 32.055 
*END

*D_NET *653 0.000201101
*CONN
*I *4102:A I *D sky130_fd_sc_hd__clkbuf_4
*I *4100:X O *D sky130_fd_sc_hd__buf_1
*CAP
1 *4102:A 0.000100551
2 *4100:X 0.000100551
*RES
1 *4100:X *4102:A 4.7 
*END

*D_NET *654 0.000197194
*CONN
*I *4103:A I *D sky130_fd_sc_hd__clkbuf_4
*I *4096:X O *D sky130_fd_sc_hd__buf_1
*CAP
1 *4103:A 8.42481e-05
2 *4096:X 8.42481e-05
3 *4096:A *4103:A 2.86975e-05
*RES
1 *4096:X *4103:A 4.355 
*END

*D_NET *655 0.000649697
*CONN
*I *4104:A I *D sky130_fd_sc_hd__clkbuf_4
*I *4095:X O *D sky130_fd_sc_hd__buf_1
*CAP
1 *4104:A 0.000159144
2 *4095:X 0.000159144
3 *3516:A *4104:A 0
4 *3533:A *4104:A 0.000139245
5 *3783:CLK *4104:A 6.55328e-05
6 *4064:A *4104:A 0.00012663
*RES
1 *4095:X *4104:A 10.815 
*END

*D_NET *656 0.000563416
*CONN
*I *4105:A I *D sky130_fd_sc_hd__clkbuf_4
*I *4094:X O *D sky130_fd_sc_hd__buf_1
*CAP
1 *4105:A 0.000192075
2 *4094:X 0.000192075
3 rd_data[0] *4105:A 2.75229e-05
4 rd_data[2] *4105:A 0
5 *4094:A *4105:A 0.000151744
*RES
1 *4094:X *4105:A 11.325 
*END

*D_NET *657 0.000294661
*CONN
*I *4106:A I *D sky130_fd_sc_hd__clkbuf_4
*I *4101:X O *D sky130_fd_sc_hd__buf_1
*CAP
1 *4106:A 8.44635e-05
2 *4101:X 8.44635e-05
3 *4106:A *4107:A 3.32517e-05
4 *4106:A *4108:A 9.24825e-05
*RES
1 *4101:X *4106:A 8.775 
*END

*D_NET *658 0.00142024
*CONN
*I *4107:A I *D sky130_fd_sc_hd__clkbuf_4
*I *4099:X O *D sky130_fd_sc_hd__buf_1
*CAP
1 *4107:A 0.00033207
2 *4099:X 0.00033207
3 *4107:A *4108:A 0
4 rd_data[7] *4107:A 5.60879e-05
5 *3510:A *4107:A 0
6 *3527:A *4107:A 0.000341559
7 *3772:D *4107:A 0
8 *3780:D *4107:A 0.000139843
9 *4101:A *4107:A 4.77769e-05
10 *4106:A *4107:A 3.32517e-05
11 *609:12 *4107:A 0.000137578
*RES
1 *4099:X *4107:A 15.66 
*END

*D_NET *659 0.00198143
*CONN
*I *4108:A I *D sky130_fd_sc_hd__clkbuf_4
*I *4098:X O *D sky130_fd_sc_hd__buf_1
*CAP
1 *4108:A 0.000727954
2 *4098:X 0.000727954
3 rd_data[4] *4108:A 1.83847e-05
4 rd_data[5] *4108:A 0
5 rd_data[7] *4108:A 5.60879e-05
6 *3527:A *4108:A 0
7 *3780:CLK *4108:A 0.000166346
8 *3780:D *4108:A 0.000174839
9 *4106:A *4108:A 9.24825e-05
10 *4107:A *4108:A 0
11 *609:12 *4108:A 1.73877e-05
*RES
1 *4098:X *4108:A 21.525 
*END

*D_NET *660 0.000544663
*CONN
*I *3892:D I *D sky130_fd_sc_hd__dfrtp_2
*I *4069:X O *D sky130_fd_sc_hd__clkdlybuf4s25_1
*CAP
1 *3892:D 0.000227457
2 *4069:X 0.000227457
3 *3892:D *3892:RESET_B 0
4 *3892:D *713:12 8.97486e-05
*RES
1 *4069:X *3892:D 10.575 
*END

*D_NET *661 0.000751332
*CONN
*I *4109:A I *D sky130_fd_sc_hd__clkbuf_4
*I *4097:X O *D sky130_fd_sc_hd__buf_1
*CAP
1 *4109:A 0.000150723
2 *4097:X 0.000150723
3 *4109:A *3910:D 0
4 *4109:A *3911:D 0.000116158
5 rd_data[3] *4109:A 4.43871e-06
6 *4097:A *4109:A 0.000329289
*RES
1 *4097:X *4109:A 11.16 
*END

*D_NET *662 0.0167798
*CONN
*I *3737:S I *D sky130_fd_sc_hd__mux2_2
*I *3741:S I *D sky130_fd_sc_hd__mux2_2
*I *3727:S I *D sky130_fd_sc_hd__mux2_2
*I *3731:S I *D sky130_fd_sc_hd__mux2_2
*I *3735:S I *D sky130_fd_sc_hd__mux2_2
*I *4079:X O *D sky130_fd_sc_hd__buf_2
*CAP
1 *3737:S 0
2 *3741:S 0
3 *3727:S 0.000858578
4 *3731:S 4.03716e-05
5 *3735:S 0.000466479
6 *4079:X 0.000843666
7 *662:59 0.00120326
8 *662:46 0.000833412
9 *662:40 0.000124036
10 *662:34 0.00287269
11 *662:12 0.00365493
12 *3727:S *3418:S 0
13 *3727:S *3576:A0 3.77501e-05
14 *3727:S *782:10 3.61339e-05
15 *3727:S *854:10 9.05592e-05
16 *3731:S *3434:S0 8.41384e-05
17 *3735:S *3741:A0 9.30717e-05
18 *662:12 *3517:A_N 2.5403e-06
19 *662:12 *687:78 0.000323513
20 *662:34 *3459:A2 0.000198046
21 *662:34 *3568:A0 2.49909e-05
22 *662:34 *3737:A1 0.00028447
23 *662:34 *666:16 0.000624212
24 *662:34 *687:78 0.000122331
25 *662:34 *729:80 0.000115482
26 *662:34 *787:10 4.89295e-05
27 *662:40 *3474:S0 5.16418e-05
28 *662:46 *3474:S0 0.000118081
29 *662:46 *3474:S1 6.33103e-05
30 *662:59 *3741:A0 3.09233e-05
31 *3508:A *662:34 0.000124895
32 *3551:A *662:34 0.000142905
33 *3569:A *662:34 0.000230139
34 *3572:S *3727:S 0.000133705
35 *3580:S *3735:S 0.000308388
36 *3580:S *662:40 0.000115464
37 *3580:S *662:59 0.000297138
38 *3731:A1 *3727:S 0.000435228
39 *3732:A *662:59 0
40 *3742:A *3735:S 4.18603e-06
41 *3742:A *662:59 0.000157315
42 *3799:D *662:34 8.77498e-05
43 *3802:D *3727:S 0.000111431
44 *3805:CLK *662:34 7.35813e-05
45 *3805:D *662:34 4.39443e-05
46 *3807:CLK *662:34 1.83847e-05
47 *3807:D *662:34 4.82319e-06
48 *3875:D *662:12 7.95409e-05
49 *26:22 *662:34 0.000142928
50 *347:12 *3727:S 5.0751e-05
51 *347:12 *3735:S 0
52 *347:12 *662:59 0
53 *452:14 *662:34 0
54 *452:75 *3727:S 3.18965e-05
55 *452:75 *662:59 0.000161339
56 *535:18 *662:12 0.000236689
57 *584:12 *3727:S 0.000175848
58 *618:8 *3735:S 0.000271121
59 *626:55 *3727:S 9.28581e-05
*RES
1 *4079:X *662:12 13.48 
2 *662:12 *662:34 48.625 
3 *662:34 *662:40 5.38 
4 *662:40 *662:46 3.5 
5 *662:46 *3735:S 13.875 
6 *662:46 *662:59 8.52 
7 *662:59 *3731:S 4.395 
8 *662:59 *3727:S 22.74 
9 *662:40 *3741:S 1.6 
10 *662:12 *3737:S 1.6 
*END

*D_NET *663 0.0142094
*CONN
*I *3664:S I *D sky130_fd_sc_hd__mux2_2
*I *3662:S I *D sky130_fd_sc_hd__mux2_2
*I *3666:S I *D sky130_fd_sc_hd__mux2_2
*I *3668:S I *D sky130_fd_sc_hd__mux2_2
*I *4080:X O *D sky130_fd_sc_hd__clkbuf_2
*CAP
1 *3664:S 0.000231114
2 *3662:S 0.00124863
3 *3666:S 9.47406e-05
4 *3668:S 0
5 *4080:X 0.00086695
6 *663:43 0.00221563
7 *663:26 0.0014184
8 *663:16 0.0016442
9 *3664:S *3664:A0 3.59859e-05
10 *3666:S *3454:A0 3.09164e-05
11 *3666:S *3666:A0 0.000357446
12 *663:16 *707:35 0.000153801
13 *663:16 *707:41 0.00013687
14 *663:16 *707:74 0.000292757
15 *663:43 *3454:A0 0.000177568
16 *663:43 *3461:A0 3.83194e-05
17 *663:43 *3668:A0 0.000278117
18 *663:43 *3702:A0 8.64421e-05
19 *663:43 *3702:A1 4.60061e-05
20 *663:43 *723:90 8.14518e-05
21 *3497:A *663:16 0
22 *3682:A *663:16 1.64141e-05
23 *3703:A *663:43 5.73739e-05
24 *3715:A0 *3664:S 0.00027287
25 *3715:A0 *663:16 9.12857e-06
26 *3715:S *663:16 0.000436118
27 *3766:CLK *663:16 9.68709e-05
28 *3766:D *663:16 0.000141599
29 *3844:D *3662:S 2.97453e-05
30 *3845:D *663:43 0.000240588
31 *3846:CLK *663:16 1.91597e-05
32 *3860:D *3662:S 4.82319e-06
33 *3861:CLK *3666:S 7.21296e-06
34 *3867:D *663:26 9.14714e-05
35 *3981:A *663:26 0.000162311
36 *4080:A *663:16 0.000163774
37 *4081:A *663:16 0.000286635
38 *4111:A *663:26 0.000304432
39 *202:56 *663:16 2.55135e-05
40 *202:104 *663:16 0.000112496
41 *404:14 *663:16 0
42 *488:65 *663:26 0.000252466
43 *498:22 *663:16 0.000175219
44 *516:24 *663:16 0.000136627
45 *516:51 *3666:S 0.000277223
46 *516:105 *663:16 0.000132896
47 *525:29 *663:16 0.000195431
48 *562:262 *663:26 5.28932e-05
49 *562:262 *663:43 0.000168213
50 *590:34 *3662:S 0.00024883
51 *590:42 *3662:S 3.55395e-05
52 *598:14 *663:26 0.000234685
53 *619:55 *3664:S 3.6355e-05
54 *633:25 *3666:S 0.000163019
55 *633:25 *663:43 0.000186099
*RES
1 *4080:X *663:16 29.33 
2 *663:16 *663:26 16.555 
3 *663:26 *3668:S 1.6 
4 *663:26 *663:43 19.91 
5 *663:43 *3666:S 8.01 
6 *663:43 *3662:S 18.93 
7 *663:16 *3664:S 6.325 
*END

*D_NET *664 0.0114783
*CONN
*I *3633:S I *D sky130_fd_sc_hd__mux2_2
*I *3631:S I *D sky130_fd_sc_hd__mux2_2
*I *3637:S I *D sky130_fd_sc_hd__mux2_2
*I *3627:S I *D sky130_fd_sc_hd__mux2_2
*I *4110:X O *D sky130_fd_sc_hd__clkbuf_2
*CAP
1 *3633:S 0
2 *3631:S 0
3 *3637:S 0.000812047
4 *3627:S 0
5 *4110:X 0.00078104
6 *664:48 0.00197392
7 *664:34 0.002433
8 *664:18 0.00205216
9 *3637:S *3479:A3 0.000285767
10 *3637:S *3627:A0 0
11 *3637:S *3637:A0 8.35068e-05
12 *3637:S *3654:A0 0.000233276
13 *3637:S *3654:A1 3.50033e-05
14 *3637:S *719:18 3.83194e-05
15 *664:18 *3494:A1 0.000377856
16 *664:18 *3633:A0 3.52253e-05
17 *664:18 *672:24 4.88504e-05
18 *664:18 *723:24 8.52951e-05
19 *664:34 *3633:A0 0.000122797
20 *664:34 *723:38 1.52352e-05
21 *664:34 *725:22 0.000350631
22 *664:34 *808:12 0.000272872
23 *664:48 *3438:A0 0.000104309
24 *664:48 *3438:A1 2.39856e-05
25 *664:48 *3438:S0 0.000123641
26 *664:48 *3627:A0 0
27 *664:48 *3631:A0 0.000121019
28 *664:48 *742:8 2.27133e-05
29 *664:48 *806:8 0
30 *3439:A1 *664:48 1.39456e-05
31 *3632:A *664:48 9.06574e-05
32 *3644:A1 *664:48 0.00015832
33 *3645:A *664:48 0.00012398
34 *3649:A *664:34 0
35 *3762:D *664:48 4.90227e-05
36 *3820:CLK *664:34 0.000122817
37 *3820:D *664:34 8.81793e-05
38 *3826:CLK *664:48 0.000247989
39 *3834:CLK *3637:S 0
40 *3834:CLK *664:48 0
41 *3834:D *664:48 3.47837e-05
42 *3858:D *3637:S 5.21046e-05
43 *4011:A *3637:S 0
44 *621:41 *664:48 6.40769e-05
*RES
1 *4110:X *664:18 20.385 
2 *664:18 *664:34 26.815 
3 *664:34 *664:48 27.735 
4 *664:48 *3627:S 3.6 
5 *664:48 *3637:S 19.47 
6 *664:34 *3631:S 1.6 
7 *664:18 *3633:S 1.6 
*END

*D_NET *665 0.0132417
*CONN
*I *3635:S I *D sky130_fd_sc_hd__mux2_2
*I *3625:S I *D sky130_fd_sc_hd__mux2_2
*I *3623:S I *D sky130_fd_sc_hd__mux2_2
*I *4081:X O *D sky130_fd_sc_hd__clkbuf_2
*CAP
1 *3635:S 0.000234484
2 *3625:S 0
3 *3623:S 0.0014008
4 *4081:X 0.000853812
5 *665:14 0.00218378
6 *665:12 0.00187127
7 *3623:S *3478:S1 8.43407e-05
8 *3623:S *3623:A0 8.696e-05
9 *3623:S *3625:A0 0.00012398
10 *3623:S *690:14 0.000695008
11 *3635:S *3635:A0 4.89395e-05
12 *3635:S *685:18 0.000197757
13 *3635:S *721:26 0.000196699
14 *665:12 *3470:A2 0
15 *665:12 *3635:A0 0.00013891
16 *665:12 *3652:A0 7.33465e-05
17 *665:12 *685:18 0
18 *665:12 *721:51 0.000352349
19 *665:12 *721:64 6.47516e-05
20 *665:12 *818:8 3.89528e-05
21 *665:14 *3478:S1 2.747e-05
22 *665:14 *3625:A0 0.000274061
23 *665:14 *3635:A1 0.000153816
24 *665:14 *685:34 0.000329689
25 *665:14 *721:26 7.14699e-05
26 *3463:S *3635:S 2.85623e-05
27 *3480:A0 *3623:S 0.000380875
28 *3480:A1 *3623:S 0.000181611
29 *3481:B1 *3623:S 2.75145e-05
30 *3484:A1 *3623:S 4.82863e-05
31 *3484:S *3623:S 0.00111753
32 *3485:A *3623:S 4.82919e-05
33 *3625:A1 *3623:S 0
34 *3833:CLK *3623:S 0.000296775
35 *4015:A *3623:S 4.82863e-05
36 *4087:A *3635:S 0.000121043
37 *173:29 *3635:S 4.66108e-05
38 *350:30 *3635:S 8.41384e-05
39 *350:57 *3623:S 0.000199833
40 *404:40 *665:12 0.000314209
41 *507:65 *3623:S 0.000272466
42 *507:65 *665:14 0.000409783
43 *562:204 *3635:S 2.382e-05
44 *562:214 *3635:S 2.86691e-05
45 *562:248 *3635:S 1.64056e-05
46 *625:19 *3623:S 4.43682e-05
*RES
1 *4081:X *665:12 23 
2 *665:12 *665:14 16.32 
3 *665:14 *3623:S 40.745 
4 *665:14 *3625:S 1.6 
5 *665:12 *3635:S 12.005 
*END

*D_NET *666 0.0139508
*CONN
*I *3564:S I *D sky130_fd_sc_hd__mux2_2
*I *3568:S I *D sky130_fd_sc_hd__mux2_2
*I *3554:S I *D sky130_fd_sc_hd__mux2_2
*I *3558:S I *D sky130_fd_sc_hd__mux2_2
*I *3562:S I *D sky130_fd_sc_hd__mux2_2
*I *4082:X O *D sky130_fd_sc_hd__buf_2
*CAP
1 *3564:S 0
2 *3568:S 0
3 *3554:S 0.000993615
4 *3558:S 2.54081e-05
5 *3562:S 0.00155495
6 *4082:X 0.000561756
7 *666:49 0.00167298
8 *666:24 0.00228253
9 *666:16 0.00153682
10 *666:10 0.00202495
11 *3554:S *3558:A0 0.000137229
12 *3554:S *686:122 0.000123059
13 *666:10 *3524:A1 4.43682e-05
14 *666:10 *777:12 5.4239e-05
15 *666:16 *3546:A0 0
16 *666:16 *3564:A1 7.23602e-05
17 *666:16 *3582:A0 4.82919e-05
18 *666:16 *777:12 1.0183e-05
19 *666:24 *3568:A1 9.50342e-06
20 *666:49 *3568:A0 5.00617e-05
21 *666:49 *3568:A1 8.23691e-05
22 *666:49 *686:22 0
23 *666:49 *686:33 2.53191e-06
24 *666:49 *686:35 8.15235e-05
25 *666:49 *779:10 5.4239e-05
26 *3460:A1 *666:16 0
27 *3477:A2 *666:24 3.97211e-05
28 *3508:A *666:16 0
29 *3525:A *666:10 0.000311294
30 *3525:A *666:16 0
31 *3536:A1 *3554:S 0.000161467
32 *3541:A *3554:S 0
33 *3551:A *666:16 0.000198939
34 *3769:D *3554:S 0
35 *3777:D *3554:S 0
36 *3786:D *3554:S 4.89078e-05
37 *3801:CLK *3554:S 0.000139245
38 *3805:CLK *666:16 7.35813e-05
39 *3805:D *666:16 0.000125185
40 *3810:CLK *3558:S 4.77769e-05
41 *4095:A *3562:S 4.05245e-05
42 *4095:A *666:24 7.75061e-05
43 *26:22 *666:10 0
44 *26:22 *666:16 0
45 *422:29 *666:10 1.91597e-05
46 *422:39 *666:10 0.000142327
47 *442:24 *666:10 6.69608e-06
48 *461:88 *666:49 7.96722e-05
49 *461:168 *666:10 0.000296151
50 *586:10 *666:49 0
51 *611:16 *666:49 9.5433e-05
52 *662:34 *666:16 0.000624212
*RES
1 *4082:X *666:10 14.655 
2 *666:10 *666:16 26.465 
3 *666:16 *666:24 3.2003 
4 *666:24 *3562:S 7.77717 
5 *666:24 *666:49 13.2275 
6 *666:49 *3558:S 4.05 
7 *666:49 *3554:S 22.815 
8 *666:16 *3568:S 1.6 
9 *666:10 *3564:S 3.6 
*END

*D_NET *667 0.0123698
*CONN
*I *3548:S I *D sky130_fd_sc_hd__mux2_2
*I *3536:S I *D sky130_fd_sc_hd__mux2_2
*I *3538:S I *D sky130_fd_sc_hd__mux2_2
*I *3542:S I *D sky130_fd_sc_hd__mux2_2
*I *4083:X O *D sky130_fd_sc_hd__clkbuf_2
*CAP
1 *3548:S 0.000137425
2 *3536:S 0.000970806
3 *3538:S 0.000216562
4 *3542:S 0
5 *4083:X 0.000359918
6 *667:31 0.0031572
7 *667:27 0.00282469
8 *667:12 0.00107735
9 *3536:S *3417:S0 0.000247672
10 *3536:S *3427:A0 9.37289e-05
11 *3536:S *3427:A1 2.16917e-05
12 *3536:S *3427:S1 0.000119756
13 *3548:S *778:14 4.47448e-05
14 *667:27 *699:34 0
15 *667:27 *726:12 0
16 *3428:A1 *3536:S 0.00030358
17 *3428:A1 *3538:S 0.000292059
18 *3798:CLK *667:31 3.00381e-05
19 *3798:D *667:31 1.54049e-05
20 *3886:D *667:27 0.000176522
21 *4003:A *667:12 9.30717e-05
22 *602:21 *667:12 0.000576883
23 *602:21 *667:27 0.000592568
24 *602:32 *667:27 0.000342254
25 *602:49 *3548:S 2.42236e-05
26 *602:49 *667:27 0.000337524
27 *602:49 *667:31 0.000314083
*RES
1 *4083:X *667:12 11.91 
2 *667:12 *3542:S 3.6 
3 *667:12 *667:27 16.92 
4 *667:27 *667:31 23.84 
5 *667:31 *3538:S 9.815 
6 *667:31 *3536:S 16.795 
7 *667:27 *3548:S 6.255 
*END

*D_NET *668 0.0179538
*CONN
*I *3528:S I *D sky130_fd_sc_hd__mux2_2
*I *3532:S I *D sky130_fd_sc_hd__mux2_2
*I *3518:S I *D sky130_fd_sc_hd__mux2_2
*I *3522:S I *D sky130_fd_sc_hd__mux2_2
*I *3526:S I *D sky130_fd_sc_hd__mux2_2
*I *4084:X O *D sky130_fd_sc_hd__buf_2
*CAP
1 *3528:S 0
2 *3532:S 0
3 *3518:S 0.000581276
4 *3522:S 6.95684e-05
5 *3526:S 0.000312632
6 *4084:X 0.0015965
7 *668:51 0.00122224
8 *668:41 0.00103357
9 *668:20 0.00282612
10 *668:12 0.00364781
11 *3518:S *3501:A0 0
12 *3518:S *3518:A1 1.77665e-05
13 *3526:S *3526:A1 5.05521e-05
14 *668:12 *3528:A0 2.01737e-05
15 *668:12 *3528:A1 2.84192e-05
16 *668:41 *3515:A0 0.000127373
17 *668:41 *3532:A1 0.000196045
18 *668:41 *755:10 0.000185405
19 *668:41 *862:10 3.83194e-05
20 *668:51 *3532:A1 4.77757e-05
21 *668:51 *720:10 0.000118527
22 *668:51 *750:12 9.03081e-05
23 *3501:A1 *3518:S 8.47721e-05
24 *3501:S *3518:S 4.91189e-05
25 *3505:A1 *668:51 0.000477246
26 *3509:A1 *668:20 0.000237054
27 *3512:A *668:20 0.000122817
28 *3518:A0 *3518:S 0.000119285
29 *3522:A0 *3522:S 5.83121e-06
30 *3526:A0 *3526:S 8.49205e-05
31 *3529:A *668:12 4.31127e-05
32 *3544:A1 *668:20 0.000121019
33 *3734:A *668:12 2.53645e-05
34 *3736:A *3526:S 0.000136826
35 *3744:S *3518:S 0
36 *3759:A *668:41 4.32182e-05
37 *3796:D *668:20 9.24693e-05
38 *3885:CLK *668:12 1.74519e-05
39 *3885:D *668:12 3.51254e-06
40 *3887:D *668:41 9.54469e-05
41 *4008:A *668:20 0.000382557
42 *4011:A *3518:S 1.73506e-05
43 *4015:A *3526:S 0.000459028
44 *4015:A *668:41 0.000256833
45 *4047:A *3526:S 0.000536344
46 *4047:A *668:41 0.000751674
47 *413:108 *3518:S 0
48 *413:112 *668:51 0
49 *544:78 *668:41 0.000141599
50 *618:6 *668:20 0.000384782
51 *618:8 *668:20 0.000965569
52 *618:12 *668:20 3.93531e-05
53 *622:23 *3522:S 4.8854e-05
*RES
1 *4084:X *668:12 20.725 
2 *668:12 *668:20 30.68 
3 *668:20 *3526:S 15.465 
4 *668:20 *668:41 16.91 
5 *668:41 *668:51 13.91 
6 *668:51 *3522:S 4.755 
7 *668:51 *3518:S 14.4 
8 *668:41 *3532:S 1.6 
9 *668:12 *3528:S 1.6 
*END

*D_NET *669 0.00964597
*CONN
*I *3608:S I *D sky130_fd_sc_hd__mux2_2
*I *3606:S I *D sky130_fd_sc_hd__mux2_2
*I *3620:S I *D sky130_fd_sc_hd__mux2_2
*I *4085:X O *D sky130_fd_sc_hd__clkbuf_2
*CAP
1 *3608:S 0
2 *3606:S 0
3 *3620:S 0.000172557
4 *4085:X 0.00132833
5 *669:24 0.00178575
6 *669:14 0.00294152
7 *3620:S *3479:S0 8.05768e-05
8 *3620:S *3620:A1 7.22354e-05
9 *669:14 *3608:A0 4.41506e-05
10 *669:24 *3608:A0 2.75145e-05
11 *3431:A2 *669:14 0
12 *3609:A *669:24 3.45588e-05
13 *3640:S *669:24 0.000958643
14 *3760:D *669:24 1.54049e-05
15 *4015:A *3620:S 7.63047e-05
16 *4047:A *3620:S 0.000149857
17 *404:40 *669:14 0.000116912
18 *404:40 *669:24 1.34594e-05
19 *488:6 *669:14 1.83847e-05
20 *488:8 *669:14 0.000235273
21 *488:27 *669:14 0.000697256
22 *623:16 *669:14 3.57349e-05
23 *623:16 *669:24 4.66108e-05
24 *625:19 *3620:S 7.06865e-05
25 *625:35 *669:24 0.000724249
*RES
1 *4085:X *669:14 23.84 
2 *669:14 *669:24 29.325 
3 *669:24 *3620:S 10.67 
4 *669:24 *3606:S 1.6 
5 *669:14 *3608:S 1.6 
*END

*D_NET *670 0.0122838
*CONN
*I *3616:S I *D sky130_fd_sc_hd__mux2_2
*I *3614:S I *D sky130_fd_sc_hd__mux2_2
*I *3610:S I *D sky130_fd_sc_hd__mux2_2
*I *3612:S I *D sky130_fd_sc_hd__mux2_2
*I *4111:X O *D sky130_fd_sc_hd__clkbuf_2
*CAP
1 *3616:S 0
2 *3614:S 0
3 *3610:S 0.000619838
4 *3612:S 0.00138449
5 *4111:X 0.00236569
6 *670:68 0.00178953
7 *670:44 0.00215089
8 *3610:S *3610:A0 0.000160635
9 *3610:S *3614:A0 4.99619e-05
10 *3610:S *3614:A1 2.0514e-05
11 *3610:S *725:35 0.000262716
12 *3610:S *725:85 2.49909e-05
13 *670:44 *3681:A0 0.000119242
14 *670:44 *3698:A0 0.000308713
15 *670:44 *723:62 1.08758e-05
16 *670:68 *3462:A1 2.92496e-05
17 *670:68 *3462:A3 9.081e-06
18 *670:68 *3614:A0 8.40213e-05
19 *670:68 *3616:A0 0.000273001
20 *670:68 *3650:A0 4.89295e-05
21 *670:68 *801:8 4.66108e-05
22 *3648:S *3610:S 0.000387003
23 *3648:S *670:68 0.000197429
24 *3649:A *3610:S 2.49909e-05
25 *3669:A *670:44 0.000159747
26 *3681:S *3612:S 5.69107e-05
27 *3682:A *670:44 0.000121437
28 *3699:A *670:44 0.000141546
29 *4111:A *670:44 0.000215319
30 *488:88 *670:44 0.000267454
31 *488:123 *3610:S 0.000425054
32 *591:12 *670:68 4.82299e-05
33 *591:14 *670:68 7.85295e-05
34 *591:18 *670:68 0.000279747
35 *621:37 *3610:S 4.00541e-06
36 *634:31 *670:68 0.000117428
*RES
1 *4111:X *3612:S 11.5321 
2 *4111:X *670:44 19.6 
3 *670:44 *670:68 23.35 
4 *670:68 *3610:S 16.9 
5 *670:68 *3614:S 1.6 
6 *670:44 *3616:S 1.6 
*END

*D_NET *671 0.00135928
*CONN
*I *3894:D I *D sky130_fd_sc_hd__dfrtp_2
*I *4070:X O *D sky130_fd_sc_hd__clkdlybuf4s25_1
*CAP
1 *3894:D 0.00064478
2 *4070:X 0.00064478
3 *3894:D *3895:D 0
4 *3327:A2_N *3894:D 6.97199e-05
*RES
1 *4070:X *3894:D 17.01 
*END

*D_NET *672 0.0127572
*CONN
*I *3490:S I *D sky130_fd_sc_hd__mux2_2
*I *3494:S I *D sky130_fd_sc_hd__mux2_2
*I *3492:S I *D sky130_fd_sc_hd__mux2_2
*I *3488:S I *D sky130_fd_sc_hd__mux2_2
*I *4086:X O *D sky130_fd_sc_hd__clkbuf_2
*CAP
1 *3490:S 0
2 *3494:S 0
3 *3492:S 0
4 *3488:S 0.00103934
5 *4086:X 0.000893085
6 *672:32 0.00217289
7 *672:24 0.00201613
8 *672:14 0.00177566
9 *3488:S *3492:A1 0.000662314
10 *672:14 *721:18 0.000116165
11 *672:14 *802:8 4.66108e-05
12 *672:24 *3446:S1 0.000188228
13 *672:24 *3646:A0 0
14 *672:24 *685:79 0.000395792
15 *672:32 *3494:A0 5.31158e-06
16 *3490:A1 *672:14 5.83121e-06
17 *3495:A *672:32 0
18 *3497:A *672:14 0.000163293
19 *3630:A *672:24 4.77769e-05
20 *3646:S *672:14 0
21 *3646:S *672:24 0.000208484
22 *3835:D *672:24 7.31702e-05
23 *4061:A *3488:S 4.82919e-05
24 *4062:A *672:32 4.77757e-05
25 *4111:A *672:14 0.000476135
26 *470:25 *672:14 1.87343e-05
27 *479:8 *672:14 0.0015159
28 *516:24 *672:14 0.00037896
29 *633:6 *3488:S 3.57275e-05
30 *633:21 *3488:S 0.000102726
31 *633:21 *672:32 0.000177337
32 *634:10 *672:32 9.66684e-05
33 *664:18 *672:24 4.88504e-05
*RES
1 *4086:X *672:14 28.94 
2 *672:14 *672:24 20.665 
3 *672:24 *672:32 21.685 
4 *672:32 *3488:S 15.985 
5 *672:32 *3492:S 1.6 
6 *672:24 *3494:S 1.6 
7 *672:14 *3490:S 1.6 
*END

*D_NET *673 0.000681409
*CONN
*I *3297:A2 I *D sky130_fd_sc_hd__a22oi_4
*I *4112:X O *D sky130_fd_sc_hd__clkdlybuf4s25_1
*CAP
1 *3297:A2 0.000165862
2 *4112:X 0.000165862
3 *3297:A2 *3312:A 5.83121e-06
4 *230:8 *3297:A2 0.000343853
*RES
1 *4112:X *3297:A2 6.77 
*END

*D_NET *674 0.0121252
*CONN
*I *3477:A1 I *D sky130_fd_sc_hd__o21a_2
*I *3453:A1 I *D sky130_fd_sc_hd__o21a_2
*I *3472:A1 I *D sky130_fd_sc_hd__o21ai_2
*I *3432:A1 I *D sky130_fd_sc_hd__o21ai_2
*I *4087:X O *D sky130_fd_sc_hd__clkbuf_2
*CAP
1 *3477:A1 0.000366802
2 *3453:A1 4.89332e-05
3 *3472:A1 0.000201867
4 *3432:A1 0.000644552
5 *4087:X 0.000723145
6 *674:39 0.000498265
7 *674:8 0.00148703
8 *3432:A1 *4019:A 0.00132228
9 *3432:A1 *681:58 6.27114e-05
10 *3432:A1 *685:10 1.12578e-05
11 *3472:A1 *3460:S 0
12 *3477:A1 *3544:A0 0.000199021
13 *674:8 *3470:A1 0
14 *674:8 *3470:S1 0.00140635
15 *674:8 *685:10 0.000244598
16 *674:8 *685:18 0.00144321
17 *3433:B1_N *3432:A1 1.22762e-05
18 *3465:A *3477:A1 1.32026e-05
19 *3472:A2 *3472:A1 0
20 *3472:A2 *674:8 0
21 *3511:S *3472:A1 7.06865e-05
22 *3544:A1 *3477:A1 8.84295e-05
23 *3544:S *3477:A1 8.52972e-05
24 *3597:S *3453:A1 0.000115762
25 *3597:S *674:39 0.000230925
26 *3619:A *674:8 0
27 *3721:S *674:8 0
28 *3746:S *3477:A1 0.000431404
29 *3773:CLK *3477:A1 0.000139589
30 *3788:D *3477:A1 0.000115464
31 *3796:D *3477:A1 6.33761e-05
32 *3822:D *674:8 7.89767e-05
33 *3865:CLK *3477:A1 0.000405104
34 *3877:CLK *3472:A1 0
35 *3980:A *674:8 8.97609e-05
36 *4008:A *3432:A1 8.71001e-05
37 *26:22 *3472:A1 0.000101517
38 *352:44 *3432:A1 7.10578e-05
39 *352:44 *3472:A1 5.93998e-05
40 *352:44 *674:8 1.88407e-05
41 *352:58 *3453:A1 8.16598e-05
42 *352:58 *674:39 0.00015765
43 *461:26 *3432:A1 0.00083645
44 *488:65 *674:8 0
45 *544:32 *3432:A1 0.000111285
*RES
1 *4087:X *674:8 28.95 
2 *674:8 *3432:A1 24.775 
3 *674:8 *3472:A1 7.785 
4 *3432:A1 *674:39 5.155 
5 *674:39 *3453:A1 3.43 
6 *674:39 *3477:A1 17.825 
*END

*D_NET *675 0.00372759
*CONN
*I *3250:B I *D sky130_fd_sc_hd__nor2_8
*I *3366:A2_N I *D sky130_fd_sc_hd__a2bb2oi_2
*I *4088:X O *D sky130_fd_sc_hd__buf_2
*CAP
1 *3250:B 0.00010174
2 *3366:A2_N 0
3 *4088:X 0.00072141
4 *675:10 0.000823151
5 *3250:B *3468:S 0
6 *3250:B *3940:RESET_B 0.00013694
7 *675:10 *3220:C 9.30717e-05
8 *675:10 *3468:S 0
9 *675:10 *3473:A1 0.000322953
10 *675:10 *3940:RESET_B 5.49561e-05
11 *675:10 *4027:A 0.000410765
12 *675:10 *681:116 0.000442604
13 *675:10 *715:25 0.000162138
14 *675:10 *715:27 1.07797e-05
15 *675:10 *729:20 5.13924e-05
16 *675:10 *732:12 8.52902e-05
17 *3250:A *3250:B 0
18 *192:8 *675:10 0.000310394
*RES
1 *4088:X *675:10 20.775 
2 *675:10 *3366:A2_N 3.6 
3 *675:10 *3250:B 6 
*END

*D_NET *676 0.00503458
*CONN
*I *3318:A2_N I *D sky130_fd_sc_hd__a2bb2oi_2
*I *3286:C1 I *D sky130_fd_sc_hd__a311oi_1
*I *3307:C1 I *D sky130_fd_sc_hd__a311o_2
*I *3296:A2_N I *D sky130_fd_sc_hd__a2bb2o_4
*I *4089:X O *D sky130_fd_sc_hd__clkbuf_2
*CAP
1 *3318:A2_N 0.00010242
2 *3286:C1 4.91733e-05
3 *3307:C1 0.000176491
4 *3296:A2_N 0.000174107
5 *4089:X 0.000478588
6 *676:16 0.000412366
7 *676:12 0.000212778
8 *676:10 0.000682845
9 *3307:C1 *3307:A3 0.000204777
10 *676:10 *3317:B1 5.0096e-05
11 *676:10 *3319:B1 0.000225147
12 *676:10 *708:24 0.000116165
13 *676:10 *708:39 0.000139238
14 *676:10 *884:14 0.000638664
15 *676:10 *884:16 0.000339552
16 *676:10 *906:10 7.21296e-06
17 *3286:B1 *3286:C1 2.11084e-05
18 *3319:C1 *676:10 0.000325603
19 *214:12 *676:10 7.83711e-05
20 *214:14 *676:10 8.77784e-05
21 *214:14 *676:12 0.00011741
22 *214:14 *676:16 2.4997e-05
23 *214:26 *3307:C1 9.05377e-05
24 *214:26 *676:16 6.55406e-05
25 *219:10 *3307:C1 0
26 *219:10 *676:16 6.55406e-05
27 *228:10 *676:10 0
28 *228:10 *676:12 0
29 *228:10 *676:16 0
30 *229:10 *3296:A2_N 9.27495e-05
31 *596:42 *3307:C1 8.7152e-06
32 *643:16 *676:10 4.66108e-05
*RES
1 *4089:X *676:10 19.71 
2 *676:10 *676:12 2.4 
3 *676:12 *676:16 3.89 
4 *676:16 *3296:A2_N 4.465 
5 *676:16 *3307:C1 9.485 
6 *676:12 *3286:C1 4.395 
7 *676:10 *3318:A2_N 5.085 
*END

*D_NET *677 0.000994589
*CONN
*I *4113:A I *D sky130_fd_sc_hd__clkbuf_4
*I *4093:X O *D sky130_fd_sc_hd__buf_1
*CAP
1 *4113:A 0.000265834
2 *4093:X 0.000265834
3 *4113:A *3922:D 0.000185405
4 *4113:A *3922:RESET_B 0
5 full *4113:A 0.000157711
6 *3922:CLK *4113:A 6.74079e-05
7 *4065:A *4113:A 0
8 *637:12 *4113:A 5.2397e-05
*RES
1 *4093:X *4113:A 13.395 
*END

*D_NET *678 0.00112173
*CONN
*I *4114:A I *D sky130_fd_sc_hd__clkbuf_4
*I *4092:X O *D sky130_fd_sc_hd__buf_1
*CAP
1 *4114:A 0.00024474
2 *4092:X 0.00024474
3 *4114:A *4039:A 0.000274059
4 *4114:A *710:8 8.51862e-05
5 *642:10 *4114:A 0.000273008
*RES
1 *4092:X *4114:A 12.885 
*END

*D_NET *679 0.000388352
*CONN
*I *4115:A I *D sky130_fd_sc_hd__clkbuf_4
*I *4091:X O *D sky130_fd_sc_hd__buf_1
*CAP
1 *4115:A 0.000192083
2 *4091:X 0.000192083
3 *4115:A *3893:RESET_B 4.18603e-06
4 *4115:A *4045:A 0
5 *3893:D *4115:A 0
*RES
1 *4091:X *4115:A 9.81 
*END

*D_NET *680 0.000852688
*CONN
*I *4116:A I *D sky130_fd_sc_hd__clkbuf_4
*I *4090:X O *D sky130_fd_sc_hd__buf_1
*CAP
1 *4116:A 0.000232865
2 *4090:X 0.000232865
3 *4116:A *3888:SET_B 8.69284e-05
4 *4116:A *3903:D 0.000121032
5 *4116:A *4042:A 8.46767e-05
6 *4116:A *713:12 9.43218e-05
*RES
1 *4090:X *4116:A 11.865 
*END

*D_NET *681 0.0334944
*CONN
*I *3428:S I *D sky130_fd_sc_hd__mux2_2
*I *3418:S I *D sky130_fd_sc_hd__mux2_2
*I *3436:S I *D sky130_fd_sc_hd__mux2_2
*I *3222:C I *D sky130_fd_sc_hd__nand4_2
*I *3223:A I *D sky130_fd_sc_hd__inv_2
*I *3431:A1 I *D sky130_fd_sc_hd__o21a_2
*I *3475:A I *D sky130_fd_sc_hd__or2_2
*I *3451:A I *D sky130_fd_sc_hd__or2_2
*I *4017:X O *D sky130_fd_sc_hd__clkdlybuf4s25_1
*CAP
1 *3428:S 0.000203079
2 *3418:S 0.000503562
3 *3436:S 3.18224e-05
4 *3222:C 2.11983e-05
5 *3223:A 0
6 *3431:A1 0
7 *3475:A 0.00048993
8 *3451:A 1.37561e-05
9 *4017:X 0.00334136
10 *681:124 0.00265864
11 *681:116 0.00553381
12 *681:58 0.00230856
13 *681:44 0.00396147
14 *681:22 0.00308047
15 *681:10 0.00107897
16 *3222:C *3222:D 4.82919e-05
17 *3418:S *790:12 9.10422e-05
18 *3436:S *790:12 3.86781e-05
19 *3451:A *3450:S1 2.75229e-05
20 *681:10 *4027:A 0.000129735
21 *681:10 *687:24 7.70938e-05
22 *681:10 *732:12 0.000119756
23 *681:22 *3224:C 0.00038133
24 *681:22 *3904:D 0.000136722
25 *681:22 *3915:D 0.000188727
26 *681:22 *3935:RESET_B 0.000117825
27 *681:22 *4027:A 0.000155234
28 *681:22 *4078:A 1.23331e-05
29 *681:22 *687:24 0.000190219
30 *681:22 *726:31 0
31 *681:44 *3458:A0 4.28634e-05
32 *681:44 *3517:B 3.23663e-05
33 *681:44 *3754:A0 4.01548e-05
34 *681:44 *3754:A1 0.000283891
35 *681:44 *707:91 0.00030536
36 *681:44 *857:6 2.65687e-05
37 *681:44 *865:12 1.1392e-05
38 *681:58 *3754:A1 2.16917e-05
39 *681:116 *715:25 0.000442604
40 *681:124 *3729:A0 4.63518e-05
41 *3231:A2 *681:22 0
42 *3255:B *681:22 0
43 *3257:B1 *681:22 2.01541e-05
44 *3418:A1 *3418:S 0.000239807
45 *3428:A0 *3428:S 0.000268001
46 *3428:A1 *3428:S 0.000117159
47 *3432:A1 *681:58 6.27114e-05
48 *3432:A2 *681:58 0.000184182
49 *3440:A0 *3436:S 2.69217e-05
50 *3440:A0 *3475:A 0
51 *3440:A0 *681:58 7.35729e-05
52 *3451:B *3475:A 0.000127366
53 *3451:B *681:58 9.50342e-06
54 *3457:A1 *681:58 4.32126e-05
55 *3460:A0 *681:44 6.5525e-05
56 *3460:A1 *681:44 1.13002e-05
57 *3464:A0 *681:44 5.27253e-05
58 *3481:A1 *3475:A 0.000652375
59 *3481:A2 *3475:A 0.000166542
60 *3481:B1 *681:58 0
61 *3481:B2 *3475:A 3.06212e-05
62 *3481:B2 *681:58 5.7344e-05
63 *3511:S *681:44 3.93101e-05
64 *3517:C *681:44 1.33293e-05
65 *3594:A *3418:S 7.84169e-05
66 *3594:A *3436:S 4.36573e-06
67 *3727:S *3418:S 0
68 *3730:A *3428:S 0.000206483
69 *3730:A *681:124 0.000132686
70 *3754:S *681:44 0.000121844
71 *3802:D *3418:S 0
72 *3804:D *3475:A 0.00017664
73 *3807:CLK *3475:A 2.42236e-05
74 *3877:CLK *681:44 0.000150397
75 *3877:D *681:44 6.50844e-06
76 *3954:A *681:44 0.000100276
77 *3997:A *3436:S 7.45532e-05
78 *4101:A *3475:A 3.41011e-05
79 *169:10 *681:22 5.72091e-05
80 *173:10 *681:22 2.49909e-05
81 *173:60 *681:22 0.000406431
82 *173:71 *681:22 0.000158298
83 *174:10 *681:22 7.14696e-05
84 *180:20 *681:22 4.85535e-05
85 *352:50 *681:44 0.000408018
86 *352:50 *681:58 8.40269e-05
87 *413:85 *3428:S 0.000233561
88 *461:26 *681:58 0.000163204
89 *461:88 *3418:S 3.3625e-05
90 *461:98 *3418:S 0.000659464
91 *544:22 *681:44 0.000146973
92 *544:32 *681:44 1.79536e-05
93 *544:32 *681:58 0.000150781
94 *544:38 *681:58 0.000416778
95 *562:347 *681:44 0.00014987
96 *587:42 *3428:S 0
97 *610:12 *3475:A 1.79098e-05
98 *618:47 *3451:A 2.75229e-05
99 *630:16 *3428:S 0.000135931
100 *642:45 *681:22 7.26629e-05
101 *675:10 *681:116 0.000442604
*RES
1 *4017:X *681:10 6.375 
2 *681:10 *681:22 26.315 
3 *681:22 *681:44 32.2405 
4 *681:44 *681:58 31.275 
5 *681:58 *3451:A 4.05 
6 *681:58 *3475:A 16.2 
7 *681:44 *3431:A1 1.6 
8 *681:22 *3223:A 1.6 
9 *681:10 *3222:C 4.05 
10 *4017:X *681:116 14.8649 
11 *681:116 *681:124 6.169 
12 *681:124 *3436:S 4.5375 
13 *681:124 *3418:S 15.4425 
14 *681:116 *3428:S 10.6425 
*END

*D_NET *682 0.000169021
*CONN
*I *3895:D I *D sky130_fd_sc_hd__dfrtp_2
*I *4071:X O *D sky130_fd_sc_hd__clkdlybuf4s25_1
*CAP
1 *3895:D 8.45105e-05
2 *4071:X 8.45105e-05
3 *3894:D *3895:D 0
*RES
1 *4071:X *3895:D 8.58 
*END

*D_NET *683 0.0159734
*CONN
*I *3468:S I *D sky130_fd_sc_hd__mux2_2
*I *3256:B1 I *D sky130_fd_sc_hd__a311o_2
*I *3471:A1 I *D sky130_fd_sc_hd__o21a_2
*I *3460:S I *D sky130_fd_sc_hd__mux2_2
*I *3444:S I *D sky130_fd_sc_hd__mux2_2
*I *3229:B I *D sky130_fd_sc_hd__nand4_4
*I *4018:X O *D sky130_fd_sc_hd__clkdlybuf4s25_1
*CAP
1 *3468:S 0.00140448
2 *3256:B1 0
3 *3471:A1 5.0717e-05
4 *3460:S 0.000894928
5 *3444:S 0.00014537
6 *3229:B 0.00028399
7 *4018:X 0.000108859
8 *683:59 0.0022654
9 *683:44 0.00173515
10 *683:38 0.000852512
11 *683:30 0.0021621
12 *3229:B *3229:A 4.90291e-05
13 *3229:B *687:12 4.65309e-05
14 *3229:B *687:24 2.45932e-05
15 *3468:S *715:25 3.49517e-05
16 *3468:S *726:12 0
17 *683:30 *3228:C 1.32026e-05
18 *683:30 *687:24 4.77807e-05
19 *683:30 *715:12 8.63671e-05
20 *683:30 *729:20 9.78714e-05
21 *683:38 *715:29 0
22 *683:38 *726:31 0.000312603
23 *683:44 *3224:B 0.000185398
24 *683:44 *697:19 0.000126679
25 *683:44 *715:29 0
26 *683:44 *726:31 0.000121045
27 *683:59 *726:31 0.000189782
28 *683:59 *727:22 0.000986809
29 *3221:B *683:38 0.000140779
30 *3228:A_N *3468:S 7.9642e-06
31 *3228:A_N *683:38 0.000434844
32 *3229:D *683:30 2.69217e-05
33 *3229:D *683:38 9.56017e-06
34 *3250:A *3468:S 0.00013994
35 *3250:B *3468:S 0
36 *3256:A1 *683:38 0.000127366
37 *3256:A1 *683:44 9.50342e-06
38 *3257:B1 *683:44 0
39 *3258:A *3444:S 5.83121e-06
40 *3258:A *683:44 5.05521e-05
41 *3258:B *683:44 0.000141592
42 *3448:A1 *683:59 5.00526e-05
43 *3468:A0 *3468:S 7.04684e-05
44 *3468:A1 *3468:S 4.31222e-06
45 *3471:A2 *3471:A1 1.88369e-05
46 *3471:B1 *3471:A1 4.00541e-06
47 *3472:A1 *3460:S 0
48 *3511:S *3460:S 0
49 *3553:A *683:59 9.76456e-05
50 *3571:A *3471:A1 4.21973e-05
51 *3739:S *3468:S 5.05521e-05
52 *3740:A *3468:S 4.86773e-05
53 *3877:CLK *3460:S 0.000295666
54 *3941:CLK *3229:B 0.000121039
55 *3941:CLK *683:30 1.54665e-05
56 *4049:A *683:59 1.09082e-05
57 *173:10 *683:59 0.00045936
58 *177:6 *683:38 1.32102e-05
59 *177:10 *3468:S 0.000354787
60 *202:78 *3471:A1 1.79536e-05
61 *284:10 *3229:B 3.21146e-05
62 *352:34 *3471:A1 8.5235e-05
63 *352:44 *3460:S 0
64 *432:20 *683:59 0
65 *442:14 *683:59 0
66 *461:26 *3460:S 0.000378625
67 *461:26 *683:59 0.00016029
68 *562:302 *683:59 9.10974e-05
69 *632:25 *683:59 0.000229851
70 *675:10 *3468:S 0
*RES
1 *4018:X *3229:B 10.08 
2 *3229:B *683:30 5.275 
3 *683:30 *683:38 15.335 
4 *683:38 *683:44 8.27 
5 *683:44 *3444:S 3.43 
6 *683:44 *683:59 19.957 
7 *683:59 *3460:S 10.1656 
8 *683:59 *3471:A1 5.59625 
9 *683:38 *3256:B1 3.6 
10 *683:30 *3468:S 26.465 
*END

*D_NET *684 0.0196228
*CONN
*I *3419:S1 I *D sky130_fd_sc_hd__mux4_2
*I *3420:S1 I *D sky130_fd_sc_hd__mux4_2
*I *3437:S1 I *D sky130_fd_sc_hd__mux4_2
*I *3454:S1 I *D sky130_fd_sc_hd__mux4_2
*I *3455:S1 I *D sky130_fd_sc_hd__mux4_2
*I *3438:S1 I *D sky130_fd_sc_hd__mux4_2
*I *3479:S1 I *D sky130_fd_sc_hd__mux4_2
*I *3429:S1 I *D sky130_fd_sc_hd__mux4_2
*I *4019:X O *D sky130_fd_sc_hd__clkdlybuf4s25_1
*CAP
1 *3419:S1 9.72629e-05
2 *3420:S1 0.000198799
3 *3437:S1 5.00127e-05
4 *3454:S1 0.000281816
5 *3455:S1 0.000119343
6 *3438:S1 0.000226742
7 *3479:S1 0.00023371
8 *3429:S1 8.85628e-05
9 *4019:X 4.60494e-05
10 *684:71 0.00172956
11 *684:50 0.00190999
12 *684:48 0.000831213
13 *684:31 0.00118647
14 *684:27 0.00187239
15 *684:21 0.00229526
16 *684:8 0.00118543
17 *3420:S1 *3420:A0 1.08758e-05
18 *3420:S1 *3420:A1 9.20791e-05
19 *3429:S1 *3711:A1 9.50342e-06
20 *3429:S1 *845:10 0.000141592
21 *3437:S1 *3437:A3 2.75145e-05
22 *3454:S1 *3454:A2 7.23533e-05
23 *3454:S1 *3454:A3 0.000272984
24 *3454:S1 *3454:S0 4.2463e-05
25 *3454:S1 *3455:S0 0.000577935
26 *3454:S1 *3700:A0 0.00022921
27 *3454:S1 *725:39 7.24779e-05
28 *3454:S1 *725:59 3.78024e-05
29 *3455:S1 *3455:S0 0.000268271
30 *3455:S1 *3648:A0 8.71079e-05
31 *3455:S1 *725:39 3.98865e-05
32 *3455:S1 *816:10 4.43871e-06
33 *3479:S1 *3479:A0 7.76351e-05
34 *3479:S1 *3479:A1 8.40269e-05
35 *3479:S1 *719:68 0.00019558
36 *684:27 *3420:S0 3.88404e-05
37 *684:31 *3479:S0 0
38 *684:48 *3706:A0 3.02702e-05
39 *684:48 *719:68 0.000312182
40 *3422:A0 *684:21 8.76124e-05
41 *3422:A0 *684:27 9.90519e-05
42 *3422:A1 *684:27 0.000122331
43 *3422:S *684:27 1.47347e-05
44 *3424:A1 *684:27 0.000156207
45 *3424:S *684:27 2.29083e-05
46 *3439:A1 *3438:S1 0
47 *3439:A1 *684:50 0
48 *3441:A *684:27 0.000199833
49 *3480:A1 *684:31 0.000424138
50 *3485:A *684:27 0
51 *3485:A *684:31 0
52 *3611:A *3438:S1 0.000185411
53 *3644:S *3438:S1 0
54 *3663:A *684:50 0.00011852
55 *3675:A1 *684:21 0.00031036
56 *3675:S *3429:S1 8.47455e-05
57 *3675:S *684:21 0.000443625
58 *3684:A *3454:S1 5.53249e-06
59 *3692:A1 *684:27 0.000126731
60 *3692:S *3419:S1 2.88357e-05
61 *3706:S *684:48 0.000365921
62 *3706:S *684:50 9.9535e-05
63 *3707:A *684:31 0
64 *3707:A *684:48 0
65 *3713:A0 *684:48 1.64056e-05
66 *3714:A *684:48 0.000164185
67 *3714:A *684:50 0.000112971
68 *3760:D *684:27 0.000265416
69 *3760:D *684:31 0.000103192
70 *3842:D *684:50 0.000316118
71 *3849:D *3429:S1 6.26567e-05
72 *3849:D *684:8 3.23391e-05
73 *3852:D *3454:S1 3.06386e-05
74 *3856:CLK *684:27 0
75 *3863:D *684:31 0.000193815
76 *3865:D *684:21 1.43717e-05
77 *4008:A *3429:S1 0
78 *4008:A *684:8 0
79 *516:57 *684:50 5.18691e-05
80 *562:75 *3419:S1 0.000143501
81 *610:45 *3419:S1 0.000141633
82 *621:18 *684:50 0
83 *621:22 *3438:S1 0
84 *621:22 *684:50 0
*RES
1 *4019:X *684:8 4.47 
2 *684:8 *3429:S1 6.51 
3 *684:8 *684:21 15.905 
4 *684:21 *684:27 20.105 
5 *684:27 *684:31 14.09 
6 *684:31 *3479:S1 6.31 
7 *684:31 *684:48 13.13 
8 *684:48 *684:50 9.03 
9 *684:50 *3438:S1 7.77 
10 *684:50 *684:71 18.25 
11 *684:71 *3455:S1 6.765 
12 *684:71 *3454:S1 13.2 
13 *684:48 *3437:S1 4.395 
14 *684:27 *3420:S1 6.825 
15 *684:21 *3419:S1 8.96 
*END

*D_NET *685 0.0245663
*CONN
*I *4019:A I *D sky130_fd_sc_hd__clkdlybuf4s25_1
*I *3469:S1 I *D sky130_fd_sc_hd__mux4_2
*I *3445:S1 I *D sky130_fd_sc_hd__mux4_2
*I *3446:S1 I *D sky130_fd_sc_hd__mux4_2
*I *3462:S1 I *D sky130_fd_sc_hd__mux4_2
*I *3461:S1 I *D sky130_fd_sc_hd__mux4_2
*I *3430:S1 I *D sky130_fd_sc_hd__mux4_2
*I *3478:S1 I *D sky130_fd_sc_hd__mux4_2
*I *4020:X O *D sky130_fd_sc_hd__clkdlybuf4s25_1
*CAP
1 *4019:A 0.000390303
2 *3469:S1 8.38749e-05
3 *3445:S1 0.000420194
4 *3446:S1 0.00035176
5 *3462:S1 0.000524574
6 *3461:S1 0
7 *3430:S1 0.000188013
8 *3478:S1 0.00122837
9 *4020:X 0.00061764
10 *685:79 0.00144001
11 *685:73 0.00122142
12 *685:34 0.00247975
13 *685:24 0.00148072
14 *685:18 0.0015432
15 *685:10 0.00119951
16 *3430:S1 *3430:A2 4.5783e-05
17 *3430:S1 *3642:A0 2.04101e-05
18 *3445:S1 *3445:A2 0.000121547
19 *3445:S1 *3445:A3 0.000107205
20 *3445:S1 *3445:S0 0.000473442
21 *3446:S1 *3446:A2 0.000156774
22 *3446:S1 *3446:A3 4.89395e-05
23 *3446:S1 *3446:S0 0.00041942
24 *3446:S1 *3629:A0 0.000160342
25 *3462:S1 *3462:A1 4.99619e-05
26 *3462:S1 *3462:A3 8.64421e-05
27 *3462:S1 *3462:S0 7.69078e-05
28 *3469:S1 *3469:A1 4.66108e-05
29 *3478:S1 *3625:A0 0.00018171
30 *3478:S1 *3672:A1 0.000344325
31 *3478:S1 *3723:A1 5.20968e-05
32 *3478:S1 *719:82 0.000385884
33 *685:10 *3469:S0 5.46981e-05
34 *685:18 *3469:A1 0.000178946
35 *685:18 *3469:S0 1.10951e-05
36 *685:18 *3470:A2 0.000140844
37 *685:18 *3652:A0 7.54567e-05
38 *685:18 *721:64 0
39 *685:18 *818:8 8.08153e-06
40 *685:18 *834:10 0.000131022
41 *685:24 *3461:A1 4.77769e-05
42 *685:24 *3461:S0 7.87005e-05
43 *685:34 *3461:A3 0.000161474
44 *3432:A1 *4019:A 0.00132228
45 *3432:A1 *685:10 1.12578e-05
46 *3463:A1 *3462:S1 3.196e-05
47 *3463:S *685:18 5.4419e-05
48 *3609:A *3430:S1 0.000314438
49 *3623:S *3478:S1 8.43407e-05
50 *3625:A1 *3478:S1 8.65905e-05
51 *3635:S *685:18 0.000197757
52 *3636:A *685:34 0
53 *3646:S *685:79 0.000111096
54 *3647:A *685:79 0.000116621
55 *3716:A *685:73 8.35118e-05
56 *3721:S *4019:A 0.000124895
57 *3721:S *685:10 0.000137752
58 *3721:S *685:18 5.51406e-06
59 *3827:CLK *685:79 0
60 *3827:D *3446:S1 2.69443e-06
61 *3835:CLK *3462:S1 1.14192e-05
62 *3835:D *3462:S1 7.30505e-05
63 *3859:D *685:79 0.000139238
64 *3867:CLK *3445:S1 2.7919e-05
65 *3867:D *3445:S1 5.17877e-05
66 *3869:D *685:34 0.000199178
67 *3980:A *685:73 0.000155696
68 *3981:A *685:73 4.61595e-05
69 *3981:A *685:79 0.000169727
70 *4110:A *3462:S1 0.000151202
71 *350:57 *3478:S1 0
72 *352:44 *685:10 4.82863e-05
73 *488:65 *685:73 0
74 *488:65 *685:79 0.000174227
75 *507:46 *3430:S1 6.00003e-05
76 *507:65 *3478:S1 0.00013948
77 *525:29 *685:18 5.05066e-06
78 *544:32 *4019:A 0.0005721
79 *582:10 *3430:S1 0.000335851
80 *598:14 *685:79 5.65627e-05
81 *665:12 *685:18 0
82 *665:14 *3478:S1 2.747e-05
83 *665:14 *685:34 0.000329689
84 *672:24 *3446:S1 0.000188228
85 *672:24 *685:79 0.000395792
86 *674:8 *685:10 0.000244598
87 *674:8 *685:18 0.00144321
*RES
1 *4020:X *685:10 9.6 
2 *685:10 *685:18 25.355 
3 *685:18 *685:24 6.435 
4 *685:24 *685:34 20.515 
5 *685:34 *3478:S1 22.355 
6 *685:34 *3430:S1 11.36 
7 *685:24 *3461:S1 1.6 
8 *685:18 *685:73 6.23 
9 *685:73 *685:79 13.3725 
10 *685:79 *3462:S1 13.4925 
11 *685:79 *3446:S1 11.8425 
12 *685:73 *3445:S1 12.795 
13 *685:10 *3469:S1 4.74 
14 *4020:X *4019:A 15.38 
*END

*D_NET *686 0.0229547
*CONN
*I *3427:S1 I *D sky130_fd_sc_hd__mux4_2
*I *3417:S1 I *D sky130_fd_sc_hd__mux4_2
*I *3416:S1 I *D sky130_fd_sc_hd__mux4_2
*I *3426:S1 I *D sky130_fd_sc_hd__mux4_2
*I *3474:S1 I *D sky130_fd_sc_hd__mux4_2
*I *3452:S1 I *D sky130_fd_sc_hd__mux4_2
*I *3450:S1 I *D sky130_fd_sc_hd__mux4_2
*I *3476:S1 I *D sky130_fd_sc_hd__mux4_2
*I *4021:X O *D sky130_fd_sc_hd__clkdlybuf4s25_1
*CAP
1 *3427:S1 0.000287083
2 *3417:S1 0
3 *3416:S1 0.000837354
4 *3426:S1 0
5 *3474:S1 0.00104695
6 *3452:S1 8.73055e-05
7 *3450:S1 0.000924985
8 *3476:S1 0
9 *4021:X 0.000374228
10 *686:122 0.00222422
11 *686:102 0.00181406
12 *686:35 0.0016457
13 *686:33 0.00181103
14 *686:22 0.00149366
15 *686:10 0.00159711
16 *3416:S1 *3417:A2 0.000198051
17 *3416:S1 *3417:A3 4.99619e-05
18 *3416:S1 *756:12 9.30717e-05
19 *3427:S1 *3426:S0 0
20 *3427:S1 *3427:A1 4.66108e-05
21 *3427:S1 *3591:A1 9.79472e-05
22 *3427:S1 *4077:A 0
23 *3427:S1 *773:10 9.14049e-05
24 *3450:S1 *3450:A1 0.000122331
25 *3450:S1 *3452:A2 0
26 *3450:S1 *3562:A0 0.000211683
27 *3450:S1 *3597:A1 0
28 *3474:S1 *3474:A0 0.000311288
29 *3474:S1 *3474:S0 0.000263849
30 *3474:S1 *3603:A0 7.32549e-05
31 *3474:S1 *720:40 0.000362348
32 *3474:S1 *720:81 1.35273e-05
33 *686:10 *3426:A1 5.31158e-06
34 *686:10 *3426:S0 0.000463527
35 *686:10 *757:10 0.000139316
36 *686:22 *3426:A1 0.000201648
37 *686:35 *3452:A2 0
38 *686:35 *3562:A0 4.1652e-06
39 *686:35 *776:8 6.97581e-05
40 *686:122 *3417:A1 1.33293e-05
41 *3418:A1 *3416:S1 4.66108e-05
42 *3418:A1 *686:122 0.000141592
43 *3433:A2 *686:10 0.000152132
44 *3433:A2 *686:22 0.000427724
45 *3451:A *3450:S1 2.75229e-05
46 *3536:A1 *686:122 9.77048e-06
47 *3536:S *3427:S1 0.000119756
48 *3537:A *686:122 0.000176202
49 *3539:A *3427:S1 0
50 *3544:A1 *686:35 9.03138e-05
51 *3554:S *686:122 0.000123059
52 *3555:A *686:122 0.000122801
53 *3562:A1 *3450:S1 0.000223104
54 *3589:S *686:122 8.08153e-06
55 *3592:A *686:122 7.06865e-05
56 *3597:S *3450:S1 7.46328e-06
57 *3598:A *3450:S1 0.000455909
58 *3603:S *3474:S1 0.000126241
59 *3604:A *3474:S1 8.8954e-05
60 *3747:A *686:10 3.18137e-05
61 *3784:D *686:122 2.83649e-05
62 *3791:CLK *3474:S1 2.68526e-05
63 *3791:CLK *686:35 0
64 *3791:D *3474:S1 1.43717e-05
65 *3791:D *686:35 5.45625e-05
66 *3793:CLK *3427:S1 0
67 *3793:CLK *686:122 4.28483e-05
68 *3793:D *3427:S1 1.15688e-05
69 *3799:CLK *686:22 7.54996e-05
70 *3799:CLK *686:33 0
71 *3799:D *686:22 0
72 *3800:D *3416:S1 1.54049e-05
73 *3801:D *686:122 5.36069e-06
74 *3807:D *3474:S1 2.05568e-05
75 *3971:A *686:10 1.44983e-05
76 *3992:A *3450:S1 2.49909e-05
77 *452:37 *686:22 0.00134153
78 *461:88 *686:33 9.98706e-05
79 *461:88 *686:35 5.04569e-05
80 *544:61 *3450:S1 0.000163019
81 *584:12 *3416:S1 0.000131782
82 *584:14 *3416:S1 0.000128914
83 *584:16 *3416:S1 0.000177144
84 *585:18 *686:122 8.92442e-05
85 *585:38 *686:122 0.000160651
86 *611:16 *686:33 6.94159e-05
87 *618:25 *3450:S1 0.000164679
88 *618:47 *3450:S1 0.000264172
89 *624:14 *686:122 3.68784e-05
90 *624:42 *3427:S1 0.000116853
91 *628:20 *3416:S1 5.2089e-05
92 *630:16 *686:22 0
93 *662:46 *3474:S1 6.33103e-05
94 *666:49 *686:22 0
95 *666:49 *686:33 2.53191e-06
96 *666:49 *686:35 8.15235e-05
*RES
1 *4021:X *686:10 10.365 
2 *686:10 *686:22 30.03 
3 *686:22 *3476:S1 1.6 
4 *686:22 *686:33 4.52 
5 *686:33 *686:35 11.07 
6 *686:35 *3450:S1 27.175 
7 *686:35 *3452:S1 4.74 
8 *686:33 *3474:S1 22.455 
9 *686:10 *3426:S1 3.6 
10 *4021:X *686:102 3.085 
11 *686:102 *686:122 28.565 
12 *686:122 *3416:S1 18.335 
13 *686:122 *3417:S1 1.6 
14 *686:102 *3427:S1 11.945 
*END

*D_NET *687 0.0157936
*CONN
*I *3229:A I *D sky130_fd_sc_hd__nand4_4
*I *3218:A I *D sky130_fd_sc_hd__inv_2
*I *3224:C I *D sky130_fd_sc_hd__nand4b_2
*I *3256:C1 I *D sky130_fd_sc_hd__a311o_2
*I *3217:B I *D sky130_fd_sc_hd__nand2_2
*I *3442:S1 I *D sky130_fd_sc_hd__mux4_2
*I *3459:S1 I *D sky130_fd_sc_hd__mux4_2
*I *3458:S1 I *D sky130_fd_sc_hd__mux4_2
*I *4022:X O *D sky130_fd_sc_hd__clkdlybuf4s25_1
*CAP
1 *3229:A 1.73013e-05
2 *3218:A 0
3 *3224:C 0.000107751
4 *3256:C1 1.17282e-05
5 *3217:B 2.33704e-05
6 *3442:S1 0
7 *3459:S1 0.000948039
8 *3458:S1 0.000226442
9 *4022:X 0.000537874
10 *687:78 0.0019338
11 *687:54 0.00164465
12 *687:46 0.00118036
13 *687:32 0.000366555
14 *687:30 0.000284822
15 *687:24 0.000649389
16 *687:12 0.00111066
17 *3217:B *697:46 1.9872e-05
18 *3224:C *3224:D 2.75538e-05
19 *3229:A *729:20 4.42148e-05
20 *3256:C1 *3256:A3 0
21 *3256:C1 *697:8 4.00541e-06
22 *3458:S1 *3754:A0 0.000122801
23 *3458:S1 *865:12 4.89295e-05
24 *3459:S1 *3459:A0 4.85763e-05
25 *3459:S1 *3459:A1 0.000137139
26 *3459:S1 *724:115 0
27 *687:12 *3361:A1 0.00011686
28 *687:12 *4017:A 7.76301e-05
29 *687:12 *4022:A 8.49205e-05
30 *687:12 *688:31 3.54025e-05
31 *687:12 *715:12 0
32 *687:24 *3940:RESET_B 5.62661e-05
33 *687:24 *4017:A 0.000264569
34 *687:24 *4027:A 4.05474e-06
35 *687:24 *729:20 0.000196084
36 *687:24 *732:12 0.000375041
37 *687:30 *4078:A 3.57349e-05
38 *687:30 *697:8 0
39 *687:32 *4078:A 8.23457e-05
40 *687:32 *697:8 6.6564e-05
41 *687:32 *697:46 9.27326e-05
42 *687:46 *3256:A2 5.53572e-05
43 *687:46 *3256:A3 4.74146e-05
44 *687:46 *697:8 2.75229e-05
45 *687:46 *697:46 0.000233364
46 *687:54 *3442:A1 0
47 *687:54 *3442:A3 0.000670544
48 *687:54 *3524:A1 9.50342e-06
49 *687:54 *697:46 6.07611e-05
50 *687:78 *3517:A_N 0
51 *687:78 *3737:A1 4.82919e-05
52 *3229:B *3229:A 4.90291e-05
53 *3229:B *687:12 4.65309e-05
54 *3229:B *687:24 2.45932e-05
55 *3255:B *687:24 0
56 *3367:B1_N *687:12 0.000163201
57 *3444:A1 *687:54 0
58 *3460:A1 *3459:S1 0.000177642
59 *3517:C *687:78 2.0514e-05
60 *3565:A *3459:S1 0.000109198
61 *3571:A *687:78 2.75145e-05
62 *3738:A *687:78 0.000242664
63 *3750:S *687:54 0
64 *3875:CLK *687:54 6.81399e-06
65 *3875:CLK *687:78 0.000109463
66 *3875:D *687:78 0.000121036
67 *3877:D *687:78 4.82863e-05
68 *3941:CLK *687:24 2.89299e-05
69 *4003:A *687:54 9.2541e-05
70 *4052:A *3458:S1 4.70326e-05
71 *4052:A *3459:S1 0.000204905
72 *284:10 *687:12 0
73 *297:12 *687:12 4.11224e-05
74 *413:54 *687:78 4.76051e-05
75 *422:10 *687:78 9.53328e-05
76 *432:30 *3459:S1 9.6949e-06
77 *452:14 *687:78 0.000282787
78 *535:26 *687:78 8.54281e-05
79 *565:10 *687:12 0
80 *571:8 *687:54 0
81 *620:12 *687:54 0.00012712
82 *620:12 *687:78 4.93336e-05
83 *642:30 *3224:C 7.07879e-05
84 *642:45 *3224:C 0.000185398
85 *662:12 *687:78 0.000323513
86 *662:34 *687:78 0.000122331
87 *681:10 *687:24 7.70938e-05
88 *681:22 *3224:C 0.00038133
89 *681:22 *687:24 0.000190219
90 *683:30 *687:24 4.77807e-05
*RES
1 *4022:X *687:12 15.44 
2 *687:12 *687:24 18.415 
3 *687:24 *687:30 1.575 
4 *687:30 *687:32 2.175 
5 *687:32 *687:46 6.24 
6 *687:46 *687:54 17.03 
7 *687:54 *687:78 24.65 
8 *687:78 *3458:S1 6.915 
9 *687:78 *3459:S1 19.71 
10 *687:54 *3442:S1 3.6 
11 *687:46 *3217:B 2.41 
12 *687:32 *3256:C1 1.96 
13 *687:30 *3224:C 10.04 
14 *687:24 *3218:A 1.6 
15 *687:12 *3229:A 2.395 
*END

*D_NET *688 0.0215966
*CONN
*I *3443:S1 I *D sky130_fd_sc_hd__mux4_2
*I *3467:S1 I *D sky130_fd_sc_hd__mux4_2
*I *3466:S1 I *D sky130_fd_sc_hd__mux4_2
*I *4021:A I *D sky130_fd_sc_hd__clkdlybuf4s25_1
*I *3435:S1 I *D sky130_fd_sc_hd__mux4_2
*I *3434:S1 I *D sky130_fd_sc_hd__mux4_2
*I *4022:A I *D sky130_fd_sc_hd__clkdlybuf4s25_1
*I *4023:X O *D sky130_fd_sc_hd__clkdlybuf4s25_1
*CAP
1 *3443:S1 0.000881636
2 *3467:S1 0.000430377
3 *3466:S1 0
4 *4021:A 0
5 *3435:S1 7.47227e-05
6 *3434:S1 0.00116534
7 *4022:A 7.45482e-05
8 *4023:X 0.000530278
9 *688:85 0.0028905
10 *688:51 0.00305098
11 *688:37 0.00149448
12 *688:35 0.000756692
13 *688:31 0.00243373
14 *688:14 0.00192455
15 *3434:S1 *3434:A3 0.000263731
16 *3434:S1 *3434:S0 2.23253e-05
17 *3434:S1 *3748:A0 0.00020477
18 *3434:S1 *862:10 5.31158e-06
19 *3435:S1 *3435:A3 6.00082e-05
20 *3443:S1 *775:10 7.28465e-06
21 *3467:S1 *3466:S0 5.4003e-05
22 *3467:S1 *722:16 0
23 *4022:A *3361:A1 4.66108e-05
24 *688:31 *3466:A1 0
25 *688:31 *866:6 5.83121e-06
26 *688:35 *3466:A1 0.000213056
27 *688:35 *866:6 3.67118e-05
28 *688:51 *3466:S0 9.86689e-05
29 *688:51 *722:18 0.000240548
30 *688:85 *3426:S0 0.000404402
31 *688:85 *3434:S0 4.59022e-06
32 *688:85 *3435:A1 0.00010058
33 *688:85 *3435:A2 5.25343e-05
34 *688:85 *774:6 1.83847e-05
35 *3362:A *688:14 2.59981e-05
36 *3362:C *4022:A 0.000124895
37 *3362:C *688:14 0.000197269
38 *3372:A1 *688:14 0.000308292
39 *3436:A1 *3434:S1 0.000340813
40 *3468:A0 *3443:S1 1.73877e-05
41 *3468:A0 *688:51 5.83121e-06
42 *3468:A1 *3443:S1 5.11729e-05
43 *3473:A2 *688:51 4.82919e-05
44 *3531:A *688:51 3.31103e-05
45 *3542:A1 *3443:S1 0.000208414
46 *3543:A *3443:S1 0.00015575
47 *3601:S *3467:S1 0
48 *3601:S *688:51 0.000101325
49 *3756:S *3443:S1 1.88656e-05
50 *3777:CLK *688:85 8.67385e-05
51 *3777:D *688:85 5.75645e-05
52 *3782:D *688:51 8.88687e-06
53 *3790:CLK *3467:S1 0
54 *3794:CLK *688:85 4.77757e-05
55 *3794:D *688:85 0.000122911
56 *3878:D *3443:S1 0
57 *3886:CLK *688:31 7.22225e-05
58 *3940:CLK *688:14 3.21772e-05
59 *3971:A *688:85 0.000229897
60 *3972:A *688:85 0.000172838
61 *3997:A *3434:S1 0.000148867
62 *4015:A *3434:S1 1.32711e-05
63 *280:10 *688:14 2.42236e-05
64 *280:21 *688:14 9.32213e-05
65 *280:29 *688:14 0.000306053
66 *284:10 *688:14 7.89034e-05
67 *284:21 *688:14 8.78813e-05
68 *284:34 *688:14 3.05373e-05
69 *284:43 *688:14 8.97486e-05
70 *442:37 *3443:S1 0
71 *442:37 *3467:S1 0
72 *461:98 *688:85 0
73 *565:70 *688:14 0.00025982
74 *565:72 *688:14 8.33575e-05
75 *565:74 *688:14 9.24881e-05
76 *602:21 *3443:S1 0
77 *602:32 *3443:S1 0
78 *614:37 *3434:S1 9.34083e-06
79 *622:84 *3434:S1 2.12738e-05
80 *622:84 *3435:S1 2.20014e-05
81 *622:84 *688:85 1.50383e-05
82 *628:20 *3434:S1 8.46333e-05
83 *687:12 *4022:A 8.49205e-05
84 *687:12 *688:31 3.54025e-05
*RES
1 *4023:X *688:14 19.655 
2 *688:14 *4022:A 3.7 
3 *688:14 *688:31 15.24 
4 *688:31 *688:35 3.915 
5 *688:35 *688:37 1.14 
6 *688:37 *688:51 22.42 
7 *688:51 *688:85 33.3 
8 *688:85 *3434:S1 24.745 
9 *688:85 *3435:S1 4.755 
10 *688:51 *4021:A 1.6 
11 *688:37 *3466:S1 1.6 
12 *688:35 *3467:S1 12.785 
13 *688:31 *3443:S1 20.72 
*END

*D_NET *689 0.00726921
*CONN
*I *3479:S0 I *D sky130_fd_sc_hd__mux4_2
*I *3420:S0 I *D sky130_fd_sc_hd__mux4_2
*I *4075:A I *D sky130_fd_sc_hd__buf_4
*I *3419:S0 I *D sky130_fd_sc_hd__mux4_2
*I *3429:S0 I *D sky130_fd_sc_hd__mux4_2
*I *4024:X O *D sky130_fd_sc_hd__clkdlybuf4s25_1
*CAP
1 *3479:S0 0.00047214
2 *3420:S0 0.00144519
3 *4075:A 0
4 *3419:S0 0.0012431
5 *3429:S0 0.000287288
6 *4024:X 8.3532e-05
7 *689:25 0.000473806
8 *3419:S0 *3419:A1 0.000115318
9 *3419:S0 *690:14 8.65905e-05
10 *3420:S0 *3419:A2 5.23283e-05
11 *3479:S0 *3479:A1 0.000289691
12 *3479:S0 *3498:A0 0.000133862
13 *3479:S0 *3620:A1 9.86532e-05
14 *3479:S0 *719:12 9.68709e-05
15 *689:25 *3429:A2 0.000181835
16 *3422:A0 *3419:S0 2.68464e-05
17 *3480:A1 *3479:S0 0
18 *3485:A *3420:S0 9.01848e-05
19 *3499:A *3479:S0 0
20 *3620:S *3479:S0 8.05768e-05
21 *3692:S *3419:S0 0.000400154
22 *3692:S *689:25 9.04065e-05
23 *3760:CLK *3420:S0 8.5069e-05
24 *3760:CLK *3479:S0 9.16237e-05
25 *3760:D *3420:S0 0.000481487
26 *3760:D *3479:S0 0
27 *3856:CLK *3420:S0 8.1526e-05
28 *3856:D *3420:S0 0
29 *4008:A *3429:S0 0.000118513
30 *4011:A *3420:S0 0.000118407
31 *4011:A *3479:S0 0.000102317
32 *4015:A *3420:S0 0
33 *4015:A *3479:S0 0.000337524
34 *4047:A *3479:S0 0
35 *623:10 *3429:S0 6.5525e-05
36 *684:27 *3420:S0 3.88404e-05
37 *684:31 *3479:S0 0
*RES
1 *4024:X *3429:S0 7.43 
2 *3429:S0 *689:25 4.3125 
3 *689:25 *3419:S0 6.3825 
4 *689:25 *4075:A 1.6 
5 *3419:S0 *3420:S0 19.2475 
6 *3420:S0 *3479:S0 16.345 
*END

*D_NET *690 0.0108535
*CONN
*I *3438:S0 I *D sky130_fd_sc_hd__mux4_2
*I *3437:S0 I *D sky130_fd_sc_hd__mux4_2
*I *3454:S0 I *D sky130_fd_sc_hd__mux4_2
*I *3455:S0 I *D sky130_fd_sc_hd__mux4_2
*I *4075:X O *D sky130_fd_sc_hd__buf_4
*CAP
1 *3438:S0 0.00108944
2 *3437:S0 0.000680167
3 *3454:S0 1.09204e-05
4 *3455:S0 0.00148679
5 *4075:X 0.00135774
6 *690:16 0.000475399
7 *690:14 0.00210503
8 *3437:S0 *3437:A0 0.000207879
9 *3438:S0 *808:12 1.92979e-05
10 *3455:S0 *3455:A0 0
11 *3455:S0 *816:10 1.57812e-05
12 *3419:S0 *690:14 8.65905e-05
13 *3439:A0 *3437:S0 2.75229e-05
14 *3454:S1 *3454:S0 4.2463e-05
15 *3454:S1 *3455:S0 0.000577935
16 *3455:S1 *3455:S0 0.000268271
17 *3456:A1 *3455:S0 0
18 *3615:A *3455:S0 0.000111316
19 *3623:S *690:14 0.000695008
20 *3626:A *690:14 0.000558061
21 *3640:S *690:14 0
22 *3643:A *690:14 0
23 *3667:A *3455:S0 7.81876e-05
24 *3675:A1 *690:14 0
25 *3684:A *3455:S0 1.01661e-05
26 *3684:A *690:14 1.52862e-05
27 *3684:A *690:16 6.31804e-05
28 *3692:S *690:14 8.52972e-05
29 *3718:A *3437:S0 8.64421e-05
30 *3719:S *3437:S0 5.05437e-05
31 *3719:S *690:14 6.07826e-05
32 *3852:CLK *690:14 0.000111293
33 *3852:D *3454:S0 2.40185e-05
34 *3852:D *690:14 3.48985e-05
35 *3852:D *690:16 6.36578e-05
36 *3857:D *690:14 5.82738e-05
37 *3974:A *3455:S0 0
38 *525:60 *690:14 0
39 *525:86 *690:14 0.000104519
40 *590:6 *3437:S0 3.7445e-05
41 *590:25 *3455:S0 0
42 *590:25 *690:16 0
43 *594:10 *3438:S0 1.00941e-05
44 *621:41 *3438:S0 2.02052e-05
45 *664:48 *3438:S0 0.000123641
*RES
1 *4075:X *690:14 31.665 
2 *690:14 *690:16 1.89 
3 *690:16 *3455:S0 12.56 
4 *690:16 *3454:S0 2.3975 
5 *690:14 *3437:S0 13.4375 
6 *3455:S0 *3438:S0 7.30927 
*END

*D_NET *691 0.00870248
*CONN
*I *3478:S0 I *D sky130_fd_sc_hd__mux4_2
*I *4076:A I *D sky130_fd_sc_hd__buf_4
*I *4024:A I *D sky130_fd_sc_hd__clkdlybuf4s25_1
*I *3430:S0 I *D sky130_fd_sc_hd__mux4_2
*I *4025:X O *D sky130_fd_sc_hd__clkdlybuf4s25_1
*CAP
1 *3478:S0 0.000997979
2 *4076:A 0
3 *4024:A 0.000139901
4 *3430:S0 0.00133965
5 *4025:X 8.0621e-05
6 *691:16 0.00104084
7 *691:12 0.000639894
8 *3430:S0 *3430:A0 0.000231564
9 *3430:S0 *3608:A0 0.000360611
10 *3430:S0 *3660:A0 0.000304284
11 *3478:S0 *3430:A2 0.000144105
12 *3478:S0 *3478:A0 9.17464e-05
13 *3478:S0 *3478:A1 0.000190336
14 *3478:S0 *3625:A0 2.97004e-06
15 *3478:S0 *3672:A1 2.66148e-05
16 *3478:S0 *813:10 0
17 *691:12 *3470:S1 0.000141606
18 *691:16 *3469:S0 4.82919e-05
19 *691:16 *3704:A0 8.40213e-05
20 *691:16 *3704:A1 4.82919e-05
21 *691:16 *821:10 0.000160641
22 *3431:A2 *3430:S0 0.00043743
23 *3431:A2 *4024:A 3.57846e-05
24 *3432:A2 *4024:A 0.000139238
25 *3472:A2 *691:12 7.89767e-05
26 *3480:A0 *3478:S0 0.000157919
27 *3609:A *3478:S0 0
28 *3625:A1 *3478:S0 0.000113151
29 *3642:S *3478:S0 5.53249e-06
30 *3817:CLK *3478:S0 0.00011852
31 *3825:CLK *3478:S0 3.46328e-05
32 *3825:D *3478:S0 0.000174636
33 *3841:D *691:16 0.000388872
34 *4008:A *4024:A 0
35 *516:105 *691:12 7.3151e-05
36 *516:105 *691:16 0.000200981
37 *516:109 *691:16 0.000344131
38 *593:30 *3478:S0 3.81908e-06
39 *623:10 *3430:S0 3.66641e-05
40 *623:10 *4024:A 0.000101064
41 *623:16 *3430:S0 0.000166621
42 *623:28 *3478:S0 1.73877e-05
*RES
1 *4025:X *691:12 8.03 
2 *691:12 *691:16 14.87 
3 *691:16 *3430:S0 14.09 
4 *691:16 *4024:A 6.795 
5 *691:12 *4076:A 1.6 
6 *3430:S0 *3478:S0 21.5725 
*END

*D_NET *692 0.0117678
*CONN
*I *3461:S0 I *D sky130_fd_sc_hd__mux4_2
*I *3445:S0 I *D sky130_fd_sc_hd__mux4_2
*I *3462:S0 I *D sky130_fd_sc_hd__mux4_2
*I *3446:S0 I *D sky130_fd_sc_hd__mux4_2
*I *3469:S0 I *D sky130_fd_sc_hd__mux4_2
*I *4076:X O *D sky130_fd_sc_hd__buf_4
*CAP
1 *3461:S0 3.7232e-05
2 *3445:S0 0.000770211
3 *3462:S0 4.16142e-05
4 *3446:S0 0.000623057
5 *3469:S0 0.000688296
6 *4076:X 6.3658e-05
7 *692:38 0.00103705
8 *692:32 0.00121571
9 *692:30 0.000734992
10 *3445:S0 *833:8 4.82919e-05
11 *3446:S0 *3462:A0 0.000113222
12 *3446:S0 *3494:A0 7.41798e-05
13 *3446:S0 *745:8 3.33839e-05
14 *3469:S0 *3469:A1 3.12855e-05
15 *692:30 *3635:A0 0.000164578
16 *692:30 *721:51 0.000508345
17 *692:30 *721:64 0.000348338
18 *692:30 *721:79 0.000211209
19 *692:32 *3461:A0 0.000152305
20 *692:38 *3461:A0 0.00020613
21 *692:38 *3462:A0 4.29758e-05
22 *3445:S1 *3445:S0 0.000473442
23 *3446:S1 *3446:S0 0.00041942
24 *3462:S1 *3462:S0 7.69078e-05
25 *3463:A0 *692:30 0.000115945
26 *3463:A1 *3446:S0 1.64067e-05
27 *3463:A1 *692:30 4.98012e-05
28 *3463:A1 *692:32 0.000122583
29 *3463:A1 *692:38 0.000618206
30 *3464:A1 *692:30 0.00122062
31 *3721:S *3469:S0 0.000157
32 *3822:CLK *692:30 0.0002003
33 *3827:D *3446:S0 1.43717e-05
34 *3867:CLK *3445:S0 0.000138801
35 *3952:A *3445:S0 3.05183e-05
36 *350:30 *692:30 7.96104e-06
37 *516:105 *3469:S0 4.77807e-05
38 *562:248 *692:30 0
39 *597:8 *692:30 0.000160574
40 *597:12 *692:30 9.55518e-05
41 *597:12 *692:32 3.43917e-05
42 *634:31 *692:38 0.000428366
43 *685:10 *3469:S0 5.46981e-05
44 *685:18 *3469:S0 1.10951e-05
45 *685:24 *3461:S0 7.87005e-05
46 *691:16 *3469:S0 4.82919e-05
*RES
1 *4076:X *3469:S0 7.94 
2 *3469:S0 *692:30 25.4 
3 *692:30 *692:32 2.655 
4 *692:32 *692:38 12.645 
5 *692:38 *3446:S0 13.8725 
6 *692:38 *3462:S0 2.7425 
7 *692:32 *3445:S0 14.2775 
8 *692:30 *3461:S0 2.7425 
*END

*D_NET *693 0.000510308
*CONN
*I *3896:D I *D sky130_fd_sc_hd__dfrtp_2
*I *4072:X O *D sky130_fd_sc_hd__clkdlybuf4s25_1
*CAP
1 *3896:D 0.000255154
2 *4072:X 0.000255154
*RES
1 *4072:X *3896:D 10.41 
*END

*D_NET *694 0.00425328
*CONN
*I *3416:S0 I *D sky130_fd_sc_hd__mux4_2
*I *3417:S0 I *D sky130_fd_sc_hd__mux4_2
*I *3427:S0 I *D sky130_fd_sc_hd__mux4_2
*I *4077:A I *D sky130_fd_sc_hd__buf_4
*I *4026:X O *D sky130_fd_sc_hd__clkdlybuf4s25_1
*CAP
1 *3416:S0 0.000441459
2 *3417:S0 0.000986619
3 *3427:S0 0.000545159
4 *4077:A 0.000327143
5 *4026:X 8.22529e-05
6 *694:8 0.000409396
7 *3417:S0 *3417:A0 0.000298981
8 *4077:A *3426:S0 0.000301905
9 *4077:A *3556:A0 0
10 *4077:A *773:10 0.000132406
11 *694:8 *3556:A0 0
12 *3418:A0 *3416:S0 0.000273105
13 *3418:A1 *3417:S0 2.29804e-05
14 *3427:S1 *4077:A 0
15 *3536:S *3417:S0 0.000247672
16 *3539:A *4077:A 0
17 *3539:A *694:8 0
18 *3589:S *3416:S0 8.18011e-05
19 *3590:A *3416:S0 0.000102403
20 *584:12 *3416:S0 0
*RES
1 *4026:X *694:8 4.98 
2 *694:8 *4077:A 9.645 
3 *694:8 *3427:S0 2 
4 *3427:S0 *3417:S0 10.14 
5 *3417:S0 *3416:S0 13.0075 
*END

*D_NET *695 0.01294
*CONN
*I *3450:S0 I *D sky130_fd_sc_hd__mux4_2
*I *3474:S0 I *D sky130_fd_sc_hd__mux4_2
*I *3452:S0 I *D sky130_fd_sc_hd__mux4_2
*I *3476:S0 I *D sky130_fd_sc_hd__mux4_2
*I *3426:S0 I *D sky130_fd_sc_hd__mux4_2
*I *4077:X O *D sky130_fd_sc_hd__buf_4
*CAP
1 *3450:S0 0.000541394
2 *3474:S0 0.00142523
3 *3452:S0 0.000722731
4 *3476:S0 0.00124584
5 *3426:S0 0.00167937
6 *4077:X 0.000533793
7 *695:44 0.00170683
8 *3450:S0 *3450:A2 2.58393e-05
9 *3450:S0 *867:8 0
10 *3452:S0 *3586:A1 9.08126e-05
11 *3452:S0 *3603:A1 2.30184e-05
12 *3452:S0 *792:8 4.73509e-05
13 *3474:S0 *720:36 3.86529e-05
14 *3476:S0 *3476:A0 4.87317e-05
15 *3476:S0 *3476:A1 8.07616e-05
16 *3476:S0 *3550:A0 4.67945e-05
17 *3476:S0 *4026:A 8.33066e-06
18 *3476:S0 *699:52 0.000133453
19 *3476:S0 *749:10 0.000105175
20 *695:44 *3476:A3 3.34804e-06
21 *695:44 *3586:A0 0
22 *695:44 *3586:A1 6.38762e-05
23 *695:44 *3603:A1 2.56752e-06
24 *695:44 *795:6 2.93447e-05
25 *3427:S1 *3426:S0 0
26 *3433:A2 *3476:S0 0
27 *3433:B1_N *3476:S0 0.000139933
28 *3440:A0 *3474:S0 0
29 *3474:S1 *3474:S0 0.000263849
30 *3520:S *3476:S0 3.09257e-05
31 *3539:A *3426:S0 0.00011852
32 *3550:S *3476:S0 2.77283e-05
33 *3580:S *3474:S0 2.80139e-05
34 *3583:A *3476:S0 2.03321e-05
35 *3587:A *3474:S0 0
36 *3747:A *3426:S0 0
37 *3805:D *3476:S0 0.00024756
38 *3813:CLK *3476:S0 0
39 *3813:D *3476:S0 1.22464e-05
40 *3815:CLK *3474:S0 3.64998e-06
41 *3815:D *3474:S0 0.000202686
42 *3856:CLK *3450:S0 9.78798e-05
43 *3881:D *3476:S0 0.000364895
44 *3971:A *3426:S0 7.26668e-05
45 *3972:A *3426:S0 0.000120875
46 *3992:A *3450:S0 1.59221e-05
47 *4011:A *3450:S0 0.00010445
48 *4015:A *3450:S0 0.000581014
49 *4077:A *3426:S0 0.000301905
50 *4098:A *3450:S0 0
51 *544:61 *3450:S0 0
52 *562:106 *3452:S0 0.000481102
53 *613:10 *3450:S0 6.2951e-05
54 *624:42 *3426:S0 0
55 *662:40 *3474:S0 5.16418e-05
56 *662:46 *3474:S0 0.000118081
57 *686:10 *3426:S0 0.000463527
58 *688:85 *3426:S0 0.000404402
*RES
1 *4077:X *3426:S0 19.205 
2 *3426:S0 *3476:S0 23.8525 
3 *3476:S0 *695:44 3.9575 
4 *695:44 *3452:S0 15.5675 
5 *695:44 *3474:S0 18.3375 
6 *3474:S0 *3450:S0 16.7425 
*END

*D_NET *696 0.00222045
*CONN
*I *3249:B1 I *D sky130_fd_sc_hd__a21oi_2
*I *3220:C I *D sky130_fd_sc_hd__nand4_2
*I *4078:A I *D sky130_fd_sc_hd__clkbuf_4
*I *4027:X O *D sky130_fd_sc_hd__clkdlybuf4s25_1
*CAP
1 *3249:B1 0
2 *3220:C 0.000116775
3 *4078:A 0.000137
4 *4027:X 0.000153951
5 *696:10 0.000253775
6 *696:8 0.000153951
7 *3220:C *3220:D 4.82919e-05
8 *3220:C *3222:B 9.80032e-06
9 *3220:C *3222:D 4.66108e-05
10 *3220:C *4027:A 2.42236e-05
11 *3220:C *715:27 0.000127373
12 *4078:A *4027:A 5.53249e-06
13 *4078:A *715:27 3.09233e-05
14 *4078:A *715:29 0.000180682
15 *696:8 *4027:A 4.99619e-05
16 *3219:A *696:8 0
17 *3220:A *3220:C 0.000233004
18 *3222:A *3220:C 6.92319e-05
19 *3249:A1 *696:8 0
20 *192:8 *696:8 0.000150967
21 *642:45 *4078:A 0.000158297
22 *642:45 *696:8 4.66108e-05
23 *675:10 *3220:C 9.30717e-05
24 *681:22 *4078:A 1.23331e-05
25 *687:30 *4078:A 3.57349e-05
26 *687:32 *4078:A 8.23457e-05
*RES
1 *4027:X *696:8 4.825 
2 *696:8 *696:10 2 
3 *696:10 *4078:A 7.14 
4 *696:10 *3220:C 7.77 
5 *696:8 *3249:B1 1.6 
*END

*D_NET *697 0.0117055
*CONN
*I *3458:S0 I *D sky130_fd_sc_hd__mux4_2
*I *3442:S0 I *D sky130_fd_sc_hd__mux4_2
*I *3459:S0 I *D sky130_fd_sc_hd__mux4_2
*I *3216:B I *D sky130_fd_sc_hd__nand3b_2
*I *3224:B I *D sky130_fd_sc_hd__nand4b_2
*I *3256:A2 I *D sky130_fd_sc_hd__a311o_2
*I *4078:X O *D sky130_fd_sc_hd__clkbuf_4
*CAP
1 *3458:S0 0.000603056
2 *3442:S0 0.000192983
3 *3459:S0 0.00142508
4 *3216:B 0
5 *3224:B 0.000247433
6 *3256:A2 3.6139e-05
7 *4078:X 0.00129963
8 *697:46 0.00226454
9 *697:19 0.000319212
10 *697:8 0.000158019
11 *3256:A2 *3256:A3 0.000120655
12 *3458:S0 *3458:A3 0.000109696
13 *3458:S0 *3582:A0 0
14 *3458:S0 *3599:A0 0
15 *3458:S0 *724:49 0
16 *3459:S0 *3459:A1 0.000340995
17 *697:8 *3256:A3 0.000150653
18 *697:19 *715:31 0
19 *3217:B *697:46 1.9872e-05
20 *3224:A_N *3224:B 0
21 *3256:C1 *697:8 4.00541e-06
22 *3257:B1 *3224:B 7.45968e-05
23 *3257:B1 *697:19 1.22676e-05
24 *3259:A *3224:B 3.45588e-05
25 *3565:A *3459:S0 8.65961e-05
26 *3779:CLK *3459:S0 0.000131107
27 *3779:D *3459:S0 1.33293e-05
28 *3787:CLK *3442:S0 7.5416e-05
29 *4003:A *697:46 6.4413e-05
30 *388:16 *3458:S0 0.000325408
31 *413:54 *3442:S0 0.000309986
32 *535:26 *3442:S0 0.000757874
33 *601:8 *3442:S0 0.000118513
34 *601:23 *3442:S0 0.000226555
35 *620:33 *3442:S0 2.05661e-05
36 *630:16 *3458:S0 0.00124422
37 *642:30 *3224:B 6.97034e-05
38 *683:44 *3224:B 0.000185398
39 *683:44 *697:19 0.000126679
40 *687:30 *697:8 0
41 *687:32 *697:8 6.6564e-05
42 *687:32 *697:46 9.27326e-05
43 *687:46 *3256:A2 5.53572e-05
44 *687:46 *697:8 2.75229e-05
45 *687:46 *697:46 0.000233364
46 *687:54 *697:46 6.07611e-05
*RES
1 *4078:X *697:8 3.445 
2 *697:8 *3256:A2 2.74 
3 *697:8 *697:19 3.635 
4 *697:19 *3224:B 8.97 
5 *697:19 *3216:B 3.6 
6 *4078:X *697:46 16.195 
7 *697:46 *3459:S0 11.4675 
8 *697:46 *3442:S0 12.775 
9 *3459:S0 *3458:S0 20.4175 
*END

*D_NET *698 0.00659194
*CONN
*I *3467:S0 I *D sky130_fd_sc_hd__mux4_2
*I *3466:S0 I *D sky130_fd_sc_hd__mux4_2
*I *3228:B I *D sky130_fd_sc_hd__and3b_4
*I *3443:S0 I *D sky130_fd_sc_hd__mux4_2
*I *3222:B I *D sky130_fd_sc_hd__nand4_2
*I *4028:X O *D sky130_fd_sc_hd__clkdlybuf4s25_1
*CAP
1 *3467:S0 0.000239694
2 *3466:S0 0.000677471
3 *3228:B 0
4 *3443:S0 0.000798892
5 *3222:B 0.000446923
6 *4028:X 7.56265e-05
7 *698:10 0.000963894
8 *698:6 0.000231481
9 *3222:B *3222:D 6.95556e-05
10 *3222:B *726:31 0.000118769
11 *3222:B *727:22 0.000353285
12 *3443:S0 *699:34 8.73421e-05
13 *3443:S0 *726:12 8.23457e-05
14 *3443:S0 *726:31 1.08758e-05
15 *3466:S0 *722:16 0
16 *3466:S0 *791:10 0.000115945
17 *3466:S0 *858:10 0
18 *698:10 *726:12 0.000108082
19 *698:10 *727:22 8.27307e-05
20 *3220:A *3222:B 2.50602e-05
21 *3220:C *3222:B 9.80032e-06
22 *3222:A *3222:B 0.000272096
23 *3228:A_N *698:10 0
24 *3467:S1 *3466:S0 5.4003e-05
25 *3542:A1 *3443:S0 0.000415735
26 *3543:A *3443:S0 9.49848e-05
27 *3601:S *3466:S0 0
28 *3601:S *3467:S0 0.000295076
29 *3739:S *3466:S0 0.000354336
30 *3941:CLK *698:6 3.41115e-05
31 *26:20 *3467:S0 4.04828e-05
32 *413:75 *3466:S0 0.000165048
33 *535:26 *3466:S0 6.01908e-05
34 *620:42 *3466:S0 2.98587e-05
35 *620:70 *3466:S0 0.000179579
36 *688:51 *3466:S0 9.86689e-05
*RES
1 *4028:X *698:6 2.74 
2 *698:6 *698:10 5.42 
3 *698:10 *3222:B 12.99 
4 *698:10 *3443:S0 9.6575 
5 *698:6 *3228:B 1.6 
6 *3443:S0 *3466:S0 16.345 
7 *3466:S0 *3467:S0 9.97 
*END

*D_NET *699 0.0170025
*CONN
*I *3434:S0 I *D sky130_fd_sc_hd__mux4_2
*I *4028:A I *D sky130_fd_sc_hd__clkdlybuf4s25_1
*I *4026:A I *D sky130_fd_sc_hd__clkdlybuf4s25_1
*I *3435:S0 I *D sky130_fd_sc_hd__mux4_2
*I *4027:A I *D sky130_fd_sc_hd__clkdlybuf4s25_1
*I *4029:X O *D sky130_fd_sc_hd__clkdlybuf4s25_1
*CAP
1 *3434:S0 0.000682522
2 *4028:A 2.21004e-05
3 *4026:A 0.000807653
4 *3435:S0 0.00129769
5 *4027:A 0.000393786
6 *4029:X 0.00104413
7 *699:52 0.0037546
8 *699:34 0.00300422
9 *3434:S0 *3434:A0 0.000309804
10 *3434:S0 *3435:A2 5.13924e-05
11 *3435:S0 *3520:A1 2.99026e-05
12 *3435:S0 *3540:A0 7.27003e-05
13 *3435:S0 *766:14 1.21575e-05
14 *4026:A *3503:A0 6.33103e-05
15 *4026:A *3538:A0 0.000423461
16 *4026:A *765:10 0.000135247
17 *4027:A *732:12 8.70018e-05
18 *699:34 *726:12 0.00014529
19 *699:34 *726:31 4.29365e-05
20 *699:52 *3729:A0 2.12738e-05
21 *3220:C *4027:A 2.42236e-05
22 *3433:A2 *4026:A 0.000267846
23 *3434:S1 *3434:S0 2.23253e-05
24 *3436:A0 *3434:S0 0.000170985
25 *3440:A0 *3434:S0 0.000286524
26 *3443:S0 *699:34 8.73421e-05
27 *3476:S0 *4026:A 8.33066e-06
28 *3476:S0 *699:52 0.000133453
29 *3504:A *3435:S0 0.000121039
30 *3520:A0 *3435:S0 2.69217e-05
31 *3520:S *699:52 0.000102454
32 *3543:A *699:52 0.00019606
33 *3559:A *3434:S0 2.53001e-05
34 *3594:A *3434:S0 8.79845e-05
35 *3729:A1 *699:52 0.000392144
36 *3729:S *699:52 1.14169e-05
37 *3731:S *3434:S0 8.41384e-05
38 *3769:D *3435:S0 1.56428e-05
39 *3793:CLK *4026:A 9.19758e-05
40 *3810:D *3434:S0 7.58994e-05
41 *3873:D *699:52 0.000161633
42 *3881:D *4026:A 0.000152672
43 *3941:CLK *699:34 1.33205e-05
44 *3971:A *699:52 4.66108e-05
45 *3972:A *4026:A 0.000156887
46 *3997:A *3434:S0 2.16549e-05
47 *4078:A *4027:A 5.53249e-06
48 *192:8 *4027:A 4.82863e-05
49 *413:85 *4026:A 8.34281e-06
50 *580:8 *4026:A 1.91597e-05
51 *587:36 *699:52 0.000172001
52 *587:42 *699:52 0.000150073
53 *588:42 *4026:A 6.65482e-05
54 *588:42 *699:52 1.64056e-05
55 *622:84 *3434:S0 0
56 *624:42 *4026:A 0.00011686
57 *630:16 *4026:A 0.000459009
58 *667:27 *699:34 0
59 *675:10 *4027:A 0.000410765
60 *681:10 *4027:A 0.000129735
61 *681:22 *4027:A 0.000155234
62 *687:24 *4027:A 4.05474e-06
63 *688:85 *3434:S0 4.59022e-06
64 *696:8 *4027:A 4.99619e-05
*RES
1 *4029:X *4027:A 15.285 
2 *4029:X *699:34 14.84 
3 *699:34 *699:52 36.435 
4 *699:52 *3435:S0 11.7125 
5 *699:52 *4026:A 26.335 
6 *699:34 *4028:A 1.96 
7 *3435:S0 *3434:S0 18.9175 
*END

*D_NET *700 0.00828932
*CONN
*I *3743:C I *D sky130_fd_sc_hd__and4bb_2
*I *3656:A_N I *D sky130_fd_sc_hd__and3b_2
*I *3534:B I *D sky130_fd_sc_hd__and3_2
*I *3552:C I *D sky130_fd_sc_hd__and4b_2
*I *3500:C I *D sky130_fd_sc_hd__and4bb_2
*I *3517:B I *D sky130_fd_sc_hd__nand4b_1
*I *3570:C I *D sky130_fd_sc_hd__and4b_2
*I *3691:B_N I *D sky130_fd_sc_hd__and4bb_2
*I *4030:X O *D sky130_fd_sc_hd__clkdlybuf4s25_1
*CAP
1 *3743:C 0
2 *3656:A_N 0.000436284
3 *3534:B 0.000139905
4 *3552:C 0.000336714
5 *3500:C 1.42455e-05
6 *3517:B 0.000105363
7 *3570:C 0
8 *3691:B_N 0.000263973
9 *4030:X 0
10 *700:105 0.000669283
11 *700:40 0.000278912
12 *700:12 0.00027999
13 *700:10 0.000521598
14 *700:6 0.000518063
15 *700:4 0.000207976
16 *3500:C *707:91 1.91597e-05
17 *3517:B *3517:D 2.23485e-05
18 *3517:B *707:91 0.000111901
19 *3534:B *3725:A_N 3.6227e-05
20 *3552:C *3725:B 6.05423e-05
21 *3552:C *701:84 0.000115614
22 *3656:A_N *3605:A 0.000189426
23 *3656:A_N *3743:A_N 4.82863e-05
24 *3656:A_N *703:12 4.66108e-05
25 *3656:A_N *869:31 0.000339946
26 *3656:A_N *869:40 0.000124245
27 *3691:B_N *3691:D 8.23457e-05
28 *3691:B_N *703:98 7.4027e-05
29 *3691:B_N *703:107 6.55336e-05
30 *3691:B_N *707:74 9.06802e-05
31 *700:12 *703:107 5.07362e-05
32 *700:40 *703:107 0.000485049
33 *700:105 *3552:B 2.10152e-05
34 *700:105 *3725:A_N 0.000111821
35 *700:105 *4033:A 1.08758e-05
36 *700:105 *701:8 0.000118081
37 *700:105 *703:6 2.01565e-05
38 *700:105 *703:12 3.83194e-05
39 *700:105 *703:61 0.000150141
40 *3500:D *3500:C 4.66108e-05
41 *3500:D *3517:B 7.40446e-05
42 *3517:C *3517:B 0.000313435
43 *3552:D *700:105 4.66108e-05
44 *3571:A *3517:B 1.34361e-05
45 *3766:CLK *3656:A_N 3.85797e-05
46 *3846:D *3691:B_N 1.14192e-05
47 *3915:CLK *3534:B 6.21825e-05
48 *3915:CLK *700:6 3.83194e-05
49 *3915:CLK *700:10 0.000174375
50 *4049:A *3691:B_N 2.42236e-05
51 *4080:A *3691:B_N 9.1113e-06
52 *202:65 *3691:B_N 0.000313818
53 *202:78 *3691:B_N 2.62115e-05
54 *202:78 *700:12 2.38184e-05
55 *202:78 *700:40 0.000258024
56 *352:34 *3552:C 0
57 *352:34 *700:10 5.12248e-05
58 *404:8 *3656:A_N 9.54469e-05
59 *404:14 *3656:A_N 5.39961e-05
60 *413:54 *3517:B 9.47454e-05
61 *507:30 *3656:A_N 2.01841e-05
62 *507:30 *3691:B_N 3.28644e-05
63 *516:105 *3691:B_N 8.9257e-05
64 *562:302 *3552:C 0
65 *600:10 *3656:A_N 7.492e-05
66 *600:58 *3656:A_N 6.47032e-05
67 *681:44 *3517:B 3.23663e-05
*RES
1 *4030:X *700:4 1.6 
2 *700:4 *700:6 0.795 
3 *700:6 *700:10 6.245 
4 *700:10 *700:12 0.615 
5 *700:12 *3691:B_N 11.625 
6 *700:12 *3570:C 3.6 
7 *700:10 *700:40 7.715 
8 *700:40 *3517:B 9.755 
9 *700:40 *3500:C 2.05 
10 *700:6 *3552:C 7.745 
11 *700:4 *3534:B 7.61 
12 *3552:C *700:105 10.685 
13 *700:105 *3656:A_N 16.355 
14 *700:105 *3743:C 1.6 
*END

*D_NET *701 0.0068638
*CONN
*I *3725:B I *D sky130_fd_sc_hd__and3b_2
*I *4030:A I *D sky130_fd_sc_hd__clkdlybuf4s25_1
*I *3674:B_N I *D sky130_fd_sc_hd__and4bb_2
*I *3483:B I *D sky130_fd_sc_hd__nor3b_4
*I *3708:A_N I *D sky130_fd_sc_hd__nand3b_2
*I *3605:C I *D sky130_fd_sc_hd__nor4b_4
*I *3622:C I *D sky130_fd_sc_hd__nor4b_4
*I *3639:B_N I *D sky130_fd_sc_hd__and4bb_2
*I *4031:X O *D sky130_fd_sc_hd__clkdlybuf4s25_1
*CAP
1 *3725:B 0.000125166
2 *4030:A 0.000150783
3 *3674:B_N 4.38101e-05
4 *3483:B 0
5 *3708:A_N 0.000204909
6 *3605:C 0
7 *3622:C 6.29008e-05
8 *3639:B_N 5.25837e-05
9 *4031:X 0.000125529
10 *701:84 0.000399872
11 *701:44 0.000296834
12 *701:20 0.000282772
13 *701:16 0.000471977
14 *701:12 0.000402272
15 *701:10 0.000368538
16 *701:8 0.000384673
17 *3639:B_N *3639:A_N 2.07267e-05
18 *3639:B_N *3639:D 1.12467e-05
19 *3674:B_N *3656:C 4.66108e-05
20 *3708:A_N *3238:A3 0.00015817
21 *3708:A_N *3708:C 5.58286e-05
22 *3708:A_N *705:32 0
23 *3725:B *3534:A 0.000131868
24 *3725:B *3725:A_N 8.48865e-05
25 *701:8 *703:61 1.19928e-05
26 *701:10 *3552:A_N 0
27 *701:10 *3656:C 2.06767e-05
28 *701:10 *703:12 9.08126e-05
29 *701:10 *705:78 1.11025e-05
30 *701:12 *3656:C 0.000332045
31 *701:12 *705:60 9.50342e-06
32 *701:12 *705:69 2.11818e-05
33 *701:12 *705:78 1.0397e-05
34 *701:12 *869:31 0
35 *701:12 *869:40 0
36 *701:16 *3605:A 0
37 *701:16 *705:60 0.000353527
38 *701:16 *869:31 0
39 *701:20 *3605:B 9.13949e-06
40 *701:20 *3639:A_N 7.41312e-05
41 *701:20 *705:36 2.23611e-05
42 *701:44 *705:36 4.82863e-05
43 *701:84 *3534:A 0.000137571
44 *701:84 *3552:A_N 0
45 *701:84 *3725:A_N 1.65321e-05
46 *3252:A1 *3708:A_N 0
47 *3552:C *3725:B 6.05423e-05
48 *3552:C *701:84 0.000115614
49 *3552:D *701:10 0.000170904
50 *3552:D *701:84 4.76263e-05
51 *3708:B *3708:A_N 0.000175358
52 *3766:CLK *3622:C 0.00022448
53 *3915:CLK *4030:A 0.000305651
54 *193:14 *3674:B_N 8.46767e-05
55 *193:18 *701:10 7.1624e-05
56 *352:34 *3725:B 0
57 *404:14 *3622:C 0.000226841
58 *470:10 *3639:B_N 8.03494e-05
59 *470:10 *701:20 8.40269e-05
60 *498:16 *3674:B_N 4.01811e-05
61 *507:12 *701:12 6.63219e-06
62 *544:16 *701:10 0
63 *562:302 *701:84 0
64 *700:105 *701:8 0.000118081
*RES
1 *4031:X *701:8 5.085 
2 *701:8 *701:10 3.165 
3 *701:10 *701:12 4.44 
4 *701:12 *701:16 6.185 
5 *701:16 *701:20 3.225 
6 *701:20 *3639:B_N 2.86 
7 *701:20 *3622:C 8.255 
8 *701:16 *701:44 1.485 
9 *701:44 *3605:C 1.6 
10 *701:44 *3708:A_N 10.04 
11 *701:12 *3483:B 3.6 
12 *701:10 *3674:B_N 4.74 
13 *701:8 *701:84 2.655 
14 *701:84 *4030:A 6.465 
15 *701:84 *3725:B 6.03 
*END

*D_NET *702 0.00709137
*CONN
*I *3244:B1 I *D sky130_fd_sc_hd__a31o_2
*I *4031:A I *D sky130_fd_sc_hd__clkdlybuf4s25_1
*I *3243:C I *D sky130_fd_sc_hd__nand4_2
*I *3266:A I *D sky130_fd_sc_hd__xnor2_2
*I *4032:X O *D sky130_fd_sc_hd__clkdlybuf4s25_1
*CAP
1 *3244:B1 0
2 *4031:A 0.00146152
3 *3243:C 0.00012456
4 *3266:A 5.70835e-05
5 *4032:X 0.000502969
6 *702:33 0.00162666
7 *702:27 0.000145865
8 *702:14 0.00066533
9 *3243:C *3243:B 4.77719e-05
10 *3243:C *3244:A1 2.26364e-05
11 *4031:A *3904:D 9.78429e-05
12 *4031:A *3924:D 7.35813e-05
13 *4031:A *3932:D 0.000155056
14 *4031:A *726:31 6.12863e-05
15 *4031:A *903:8 2.49909e-05
16 *4031:A *908:8 7.71774e-06
17 *702:14 *3267:B 7.5589e-05
18 *702:27 *3244:A1 4.2801e-05
19 *702:33 *3244:A1 2.14005e-05
20 *3245:B *3243:C 0.000119866
21 *3245:B *702:27 0.000234744
22 *3245:B *702:33 8.35106e-05
23 *3246:A *4031:A 4.35558e-05
24 *3267:A *3266:A 2.93063e-05
25 *3267:A *702:14 0.000162137
26 *3412:B *3243:C 0.000131168
27 *188:12 *3243:C 0.000152759
28 *188:33 *4031:A 0.000171898
29 *188:33 *702:33 9.64361e-05
30 *189:8 *3266:A 6.05378e-05
31 *202:54 *3243:C 0.000119866
32 *202:54 *3266:A 0.000156189
33 *202:54 *702:14 7.27587e-05
34 *202:54 *702:27 1.32026e-05
35 *572:10 *3243:C 3.03465e-05
36 *572:10 *4031:A 0.000124777
37 *572:10 *702:33 4.86642e-05
38 *637:12 *3243:C 2.49909e-05
*RES
1 *4032:X *702:14 12.27 
2 *702:14 *3266:A 5.49 
3 *702:14 *702:27 4.52 
4 *702:27 *702:33 3.41 
5 *702:33 *3243:C 11.59 
6 *702:33 *4031:A 26.07 
7 *702:27 *3244:B1 1.6 
*END

*D_NET *703 0.00924867
*CONN
*I *3517:A_N I *D sky130_fd_sc_hd__nand4b_1
*I *3500:B_N I *D sky130_fd_sc_hd__and4bb_2
*I *3570:B I *D sky130_fd_sc_hd__and4b_2
*I *3534:A I *D sky130_fd_sc_hd__and3_2
*I *3552:B I *D sky130_fd_sc_hd__and4b_2
*I *3743:B_N I *D sky130_fd_sc_hd__and4bb_2
*I *3691:D I *D sky130_fd_sc_hd__and4bb_2
*I *3656:C I *D sky130_fd_sc_hd__and3b_2
*I *4033:X O *D sky130_fd_sc_hd__clkdlybuf4s25_1
*CAP
1 *3517:A_N 0.000180831
2 *3500:B_N 8.45069e-05
3 *3570:B 0
4 *3534:A 0.000207946
5 *3552:B 0.00032863
6 *3743:B_N 0
7 *3691:D 0.000435041
8 *3656:C 0.00042382
9 *4033:X 0
10 *703:107 0.000504608
11 *703:98 0.000532221
12 *703:61 0.000427194
13 *703:12 0.000984189
14 *703:6 0.000170589
15 *703:4 0.000228831
16 *3500:B_N *707:91 9.76407e-06
17 *3534:A *3725:A_N 0.000285661
18 *3534:A *726:31 9.53428e-06
19 *3552:B *726:31 0.000106976
20 *3656:C *705:60 0.000119227
21 *3656:C *705:69 0.000354642
22 *3656:C *707:33 0.000176524
23 *3656:C *869:20 3.08892e-05
24 *703:6 *4033:A 4.77719e-05
25 *703:61 *3725:A_N 3.82139e-05
26 *703:61 *4033:A 1.83975e-05
27 *703:61 *705:78 5.05774e-06
28 *703:61 *726:31 4.18398e-05
29 *703:98 *707:74 2.72194e-05
30 *703:98 *726:31 0.000381544
31 *703:107 *707:74 1.89685e-05
32 *703:107 *707:91 0.000279882
33 *3448:A1 *3534:A 0
34 *3500:D *3500:B_N 4.77757e-05
35 *3535:A *3534:A 8.49205e-05
36 *3552:D *3552:B 4.66108e-05
37 *3553:A *703:61 4.77719e-05
38 *3656:A_N *703:12 4.66108e-05
39 *3656:B *3656:C 6.4609e-05
40 *3657:A *3656:C 0
41 *3674:B_N *3656:C 4.66108e-05
42 *3691:B_N *3691:D 8.23457e-05
43 *3691:B_N *703:98 7.4027e-05
44 *3691:B_N *703:107 6.55336e-05
45 *3725:B *3534:A 0.000131868
46 *3725:C *3534:A 4.60123e-05
47 *3726:A *3534:A 2.58308e-05
48 *3875:D *3517:A_N 0.000185751
49 *4049:A *703:98 1.7635e-05
50 *202:78 *703:107 7.21296e-06
51 *403:36 *703:61 0
52 *422:10 *3517:A_N 4.82863e-05
53 *461:26 *3534:A 3.4323e-05
54 *498:16 *3656:C 8.35068e-05
55 *498:16 *3691:D 0.000202318
56 *507:30 *3691:D 2.99981e-06
57 *516:8 *3691:D 2.39856e-05
58 *544:16 *703:12 1.05476e-05
59 *562:347 *703:107 0
60 *571:8 *3517:A_N 0
61 *662:12 *3517:A_N 2.5403e-06
62 *687:78 *3517:A_N 0
63 *700:12 *703:107 5.07362e-05
64 *700:40 *703:107 0.000485049
65 *700:105 *3552:B 2.10152e-05
66 *700:105 *703:6 2.01565e-05
67 *700:105 *703:12 3.83194e-05
68 *700:105 *703:61 0.000150141
69 *701:8 *703:61 1.19928e-05
70 *701:10 *3656:C 2.06767e-05
71 *701:10 *703:12 9.08126e-05
72 *701:12 *3656:C 0.000332045
73 *701:84 *3534:A 0.000137571
*RES
1 *4033:X *703:4 1.6 
2 *703:4 *703:6 0.795 
3 *703:6 *703:12 4.265 
4 *703:12 *3656:C 22.3025 
5 *703:12 *3691:D 8.88 
6 *703:6 *3743:B_N 1.6 
7 *703:4 *703:61 7.795 
8 *703:61 *3552:B 2.74 
9 *703:61 *3534:A 11.495 
10 *3552:B *703:98 8.025 
11 *703:98 *3570:B 3.6 
12 *703:98 *703:107 7.5 
13 *703:107 *3500:B_N 4.755 
14 *703:107 *3517:A_N 7.02 
*END

*D_NET *704 0.00069437
*CONN
*I *3897:D I *D sky130_fd_sc_hd__dfrtp_2
*I *4073:X O *D sky130_fd_sc_hd__clkdlybuf4s25_1
*CAP
1 *3897:D 0.000280154
2 *4073:X 0.000280154
3 *3897:D *3896:RESET_B 6.29313e-05
4 *596:62 *3897:D 7.11301e-05
*RES
1 *4073:X *3897:D 11.955 
*END

*D_NET *705 0.00730525
*CONN
*I *4033:A I *D sky130_fd_sc_hd__clkdlybuf4s25_1
*I *3725:A_N I *D sky130_fd_sc_hd__and3b_2
*I *3674:D I *D sky130_fd_sc_hd__and4bb_2
*I *3483:A I *D sky130_fd_sc_hd__nor3b_4
*I *3605:B I *D sky130_fd_sc_hd__nor4b_4
*I *3639:A_N I *D sky130_fd_sc_hd__and4bb_2
*I *3708:C I *D sky130_fd_sc_hd__nand3b_2
*I *3622:B I *D sky130_fd_sc_hd__nor4b_4
*I *4034:X O *D sky130_fd_sc_hd__clkdlybuf4s25_1
*CAP
1 *4033:A 0.000241327
2 *3725:A_N 0.000442182
3 *3674:D 0
4 *3483:A 0
5 *3605:B 1.8855e-05
6 *3639:A_N 0.000499866
7 *3708:C 0.000138841
8 *3622:B 0.000122869
9 *4034:X 0.000118909
10 *705:78 0.000768486
11 *705:69 0.000258846
12 *705:60 0.000365027
13 *705:36 0.000554443
14 *705:32 0.000412426
15 *705:12 0.00026171
16 *705:10 0.000304453
17 *3622:B *3238:A3 4.4541e-05
18 *3622:B *3622:A 5.12969e-06
19 *3622:B *707:41 5.06989e-05
20 *3639:A_N *3639:D 0.000102454
21 *3708:C *3238:A3 5.88353e-05
22 *3448:A1 *705:10 0
23 *3448:A1 *705:32 0
24 *3534:A *3725:A_N 0.000285661
25 *3534:B *3725:A_N 3.6227e-05
26 *3535:A *3725:A_N 1.75281e-05
27 *3552:D *3725:A_N 0.00018037
28 *3552:D *705:78 4.11226e-05
29 *3639:B_N *3639:A_N 2.07267e-05
30 *3656:C *705:60 0.000119227
31 *3656:C *705:69 0.000354642
32 *3708:A_N *3708:C 5.58286e-05
33 *3708:A_N *705:32 0
34 *3708:B *705:32 0
35 *3708:B *705:60 0
36 *3725:B *3725:A_N 8.48865e-05
37 *3725:C *3725:A_N 0.000140567
38 *4085:A *3639:A_N 4.66108e-05
39 *4086:A *705:10 3.64998e-06
40 *193:18 *705:78 7.03276e-05
41 *403:36 *3725:A_N 0
42 *404:14 *705:10 0
43 *404:14 *705:32 0
44 *404:14 *705:60 0
45 *470:10 *3639:A_N 0.000187325
46 *488:6 *3639:A_N 8.23457e-05
47 *700:105 *3725:A_N 0.000111821
48 *700:105 *4033:A 1.08758e-05
49 *701:10 *705:78 1.11025e-05
50 *701:12 *705:60 9.50342e-06
51 *701:12 *705:69 2.11818e-05
52 *701:12 *705:78 1.0397e-05
53 *701:16 *705:60 0.000353527
54 *701:20 *3605:B 9.13949e-06
55 *701:20 *3639:A_N 7.41312e-05
56 *701:20 *705:36 2.23611e-05
57 *701:44 *705:36 4.82863e-05
58 *701:84 *3725:A_N 1.65321e-05
59 *703:6 *4033:A 4.77719e-05
60 *703:61 *3725:A_N 3.82139e-05
61 *703:61 *4033:A 1.83975e-05
62 *703:61 *705:78 5.05774e-06
*RES
1 *4034:X *705:10 5.175 
2 *705:10 *705:12 2 
3 *705:12 *3622:B 3.79 
4 *705:12 *3708:C 4.135 
5 *705:10 *705:32 2.4 
6 *705:32 *705:36 2.795 
7 *705:36 *3639:A_N 9.16 
8 *705:36 *3605:B 1.96 
9 *705:32 *705:60 4.89 
10 *705:60 *3483:A 3.6 
11 *705:60 *705:69 4.185 
12 *705:69 *3674:D 3.6 
13 *705:69 *705:78 1.7625 
14 *705:78 *3725:A_N 13.1775 
15 *705:78 *4033:A 7.1475 
*END

*D_NET *706 0.0072614
*CONN
*I *3241:B1 I *D sky130_fd_sc_hd__a21oi_4
*I *3265:A I *D sky130_fd_sc_hd__xnor2_2
*I *3244:A2 I *D sky130_fd_sc_hd__a31o_2
*I *3243:B I *D sky130_fd_sc_hd__nand4_2
*I *3240:B I *D sky130_fd_sc_hd__and2_2
*I *4034:A I *D sky130_fd_sc_hd__clkdlybuf4s25_1
*I *4035:X O *D sky130_fd_sc_hd__clkdlybuf4s25_1
*CAP
1 *3241:B1 9.79204e-05
2 *3265:A 0
3 *3244:A2 8.33726e-05
4 *3243:B 0.000101106
5 *3240:B 0
6 *4034:A 0.000943919
7 *4035:X 5.4159e-05
8 *706:44 0.000400722
9 *706:38 0.000265174
10 *706:34 0.000245356
11 *706:14 0.00107279
12 *706:8 0.000281531
13 *4034:A *3240:A 0.00059356
14 *4034:A *3263:B2 0.000205363
15 *4034:A *708:24 3.09179e-05
16 *4034:A *907:8 2.01565e-05
17 *706:14 *907:8 0.000199498
18 *3241:A2 *706:44 3.998e-05
19 *3242:A1 *3241:B1 0.000120655
20 *3242:B1 *706:14 8.23457e-05
21 *3243:C *3243:B 4.77719e-05
22 *3243:D *3243:B 4.77719e-05
23 *3244:A3 *3243:B 0.000110767
24 *3244:A3 *3244:A2 0.000111628
25 *3263:A1 *4034:A 4.66826e-05
26 *3263:A2 *4034:A 2.80883e-05
27 *3264:A *4034:A 4.82919e-05
28 *3412:B *3241:B1 2.63406e-05
29 *3925:CLK *3241:B1 6.27529e-05
30 *3987:A *3243:B 4.21579e-05
31 *183:23 *3243:B 0.000237268
32 *183:38 *3244:A2 6.23541e-06
33 *183:38 *706:44 8.80293e-06
34 *186:6 *706:14 8.80473e-05
35 *188:83 *3243:B 3.63267e-05
36 *188:83 *706:44 0.00028733
37 *189:8 *3241:B1 0.000151432
38 *189:8 *3244:A2 1.07797e-05
39 *189:8 *706:8 0.000159957
40 *189:8 *706:34 0.000329702
41 *189:8 *706:44 2.15594e-05
42 *202:8 *3243:B 4.77719e-05
43 *202:10 *3241:B1 8.52172e-05
44 *202:10 *706:8 8.70923e-05
45 *202:10 *706:34 0.000187424
46 *216:8 *4034:A 1.83756e-05
47 *637:12 *3243:B 2.14725e-05
48 *643:16 *706:38 3.83194e-05
49 *643:16 *706:44 2.75145e-05
*RES
1 *4035:X *706:8 5.49 
2 *706:8 *706:14 5.225 
3 *706:14 *4034:A 19.09 
4 *706:14 *3240:B 1.6 
5 *706:8 *706:34 3.93 
6 *706:34 *706:38 2.795 
7 *706:38 *706:44 6.38 
8 *706:44 *3243:B 7.17 
9 *706:44 *3244:A2 5.235 
10 *706:38 *3265:A 1.6 
11 *706:34 *3241:B1 6.975 
*END

*D_NET *707 0.0114664
*CONN
*I *3251:C I *D sky130_fd_sc_hd__and3_2
*I *3500:A_N I *D sky130_fd_sc_hd__and4bb_2
*I *3517:D I *D sky130_fd_sc_hd__nand4b_1
*I *3570:A_N I *D sky130_fd_sc_hd__and4b_2
*I *3639:D I *D sky130_fd_sc_hd__and4bb_2
*I *3238:A3 I *D sky130_fd_sc_hd__a31oi_2
*I *3622:A I *D sky130_fd_sc_hd__nor4b_4
*I *3482:B_N I *D sky130_fd_sc_hd__and4bb_2
*I *4036:X O *D sky130_fd_sc_hd__clkdlybuf4s25_1
*CAP
1 *3251:C 0
2 *3500:A_N 0
3 *3517:D 9.33499e-05
4 *3570:A_N 2.89988e-05
5 *3639:D 3.83802e-05
6 *3238:A3 0.00037693
7 *3622:A 1.92299e-05
8 *3482:B_N 7.2584e-05
9 *4036:X 1.20605e-05
10 *707:91 0.000432706
11 *707:74 0.000696253
12 *707:41 0.000563561
13 *707:35 0.000266868
14 *707:33 0.00118272
15 *707:29 0.00109153
16 *707:6 0.00038244
17 *3238:A3 *3252:B1 0.000101999
18 *3482:B_N *708:45 4.66108e-05
19 *707:6 *708:45 3.57349e-05
20 *707:29 *3252:B1 0.00017485
21 *707:29 *3691:A_N 2.92496e-05
22 *707:29 *869:71 4.43871e-06
23 *3238:A2 *3238:A3 5.95498e-05
24 *3252:A1 *3238:A3 0.000141833
25 *3252:A2 *3238:A3 0.00015896
26 *3264:A *707:29 0.000169055
27 *3482:D *3482:B_N 0.000197264
28 *3482:D *707:6 4.66108e-05
29 *3500:B_N *707:91 9.76407e-06
30 *3500:C *707:91 1.91597e-05
31 *3500:D *707:91 1.41165e-05
32 *3511:S *3517:D 5.53249e-06
33 *3517:B *3517:D 2.23485e-05
34 *3517:B *707:91 0.000111901
35 *3571:A *3517:D 0
36 *3622:B *3238:A3 4.4541e-05
37 *3622:B *3622:A 5.12969e-06
38 *3622:B *707:41 5.06989e-05
39 *3639:A_N *3639:D 0.000102454
40 *3639:B_N *3639:D 1.12467e-05
41 *3656:B *707:33 4.48033e-05
42 *3656:C *707:33 0.000176524
43 *3691:B_N *707:74 9.06802e-05
44 *3708:A_N *3238:A3 0.00015817
45 *3708:B *707:29 1.56428e-05
46 *3708:B *707:33 0.000144557
47 *3708:C *3238:A3 5.88353e-05
48 *3766:CLK *707:35 0.000155928
49 *3766:CLK *707:41 0.00013521
50 *3766:CLK *707:74 0.000276064
51 *3915:CLK *707:74 0.000329688
52 *3915:CLK *707:91 5.02905e-05
53 *4049:A *707:74 6.03407e-05
54 *4080:A *707:74 0.000111137
55 *202:78 *3517:D 1.52945e-05
56 *352:34 *3570:A_N 4.66108e-05
57 *404:40 *707:33 3.18249e-05
58 *413:54 *3517:D 0.000114492
59 *422:10 *3517:D 3.05373e-05
60 *470:10 *3639:D 1.19928e-05
61 *498:22 *707:74 0.00017329
62 *525:8 *3238:A3 0.000307604
63 *525:8 *707:41 0.000167697
64 *562:302 *707:91 6.81922e-05
65 *562:329 *707:91 4.40907e-05
66 *562:347 *707:91 6.44872e-05
67 *600:10 *707:74 0.000191689
68 *600:58 *707:74 0.000269387
69 *637:20 *707:29 8.57752e-05
70 *663:16 *707:35 0.000153801
71 *663:16 *707:41 0.00013687
72 *663:16 *707:74 0.000292757
73 *681:44 *707:91 0.00030536
74 *703:98 *707:74 2.72194e-05
75 *703:107 *707:74 1.89685e-05
76 *703:107 *707:91 0.000279882
*RES
1 *4036:X *707:6 2.05 
2 *707:6 *3482:B_N 3.43 
3 *707:6 *707:29 8.73607 
4 *707:29 *707:33 11.42 
5 *707:33 *707:35 1.89 
6 *707:35 *707:41 6.5 
7 *707:41 *3622:A 1.96 
8 *707:41 *3238:A3 10.72 
9 *707:35 *3639:D 4.665 
10 *707:33 *707:74 12.6 
11 *707:74 *3570:A_N 4.05 
12 *707:74 *707:91 11.45 
13 *707:91 *3517:D 7.745 
14 *707:91 *3500:A_N 1.6 
15 *707:29 *3251:C 1.6 
*END

*D_NET *708 0.0116641
*CONN
*I *3243:A I *D sky130_fd_sc_hd__nand4_2
*I *3244:A1 I *D sky130_fd_sc_hd__a31o_2
*I *3241:A1 I *D sky130_fd_sc_hd__a21oi_4
*I *4036:A I *D sky130_fd_sc_hd__clkdlybuf4s25_1
*I *3691:A_N I *D sky130_fd_sc_hd__and4bb_2
*I *3252:B1 I *D sky130_fd_sc_hd__a21oi_2
*I *3239:A1 I *D sky130_fd_sc_hd__a21oi_4
*I *3240:A I *D sky130_fd_sc_hd__and2_2
*I *4037:X O *D sky130_fd_sc_hd__clkdlybuf4s25_1
*CAP
1 *3243:A 0
2 *3244:A1 0.000532177
3 *3241:A1 0.000300837
4 *4036:A 2.08101e-05
5 *3691:A_N 0.00108297
6 *3252:B1 0.000268558
7 *3239:A1 0
8 *3240:A 0.000354523
9 *4037:X 0.000488376
10 *708:88 0.000833013
11 *708:86 0.000173609
12 *708:45 0.00150501
13 *708:41 0.000324905
14 *708:39 0.000565298
15 *708:24 0.000374928
16 *3241:A1 *885:10 0
17 *3244:A1 *885:10 0
18 *3252:B1 *3285:D 2.16306e-05
19 *3252:B1 *869:71 0.000176647
20 *708:24 *3263:B2 4.82863e-05
21 *708:24 *3930:D 2.7881e-05
22 *708:24 *906:10 3.67779e-05
23 *708:39 *3930:D 8.05665e-05
24 *708:39 *884:14 0.00012078
25 *3236:A *708:39 0.000116853
26 *3237:A *708:41 0.000122331
27 *3238:A2 *3252:B1 6.68001e-05
28 *3238:A3 *3252:B1 0.000101999
29 *3239:A2 *3241:A1 5.42473e-05
30 *3241:A2 *3241:A1 4.77757e-05
31 *3242:A1 *3241:A1 2.5177e-05
32 *3243:C *3244:A1 2.26364e-05
33 *3262:A1 *3252:B1 0.000114492
34 *3264:A *3252:B1 4.97162e-05
35 *3264:A *3691:A_N 8.24878e-05
36 *3412:B *3241:A1 3.4949e-05
37 *3412:B *3244:A1 0.000118081
38 *3482:B_N *708:45 4.66108e-05
39 *3482:C *3252:B1 0
40 *3482:C *3691:A_N 0
41 *3482:D *708:41 2.16833e-05
42 *3482:D *708:45 0.000155997
43 *3605:D_N *3252:B1 6.03272e-05
44 *3920:CLK *708:39 6.52906e-05
45 *3925:CLK *3241:A1 0.000527186
46 *3986:A *3241:A1 4.8854e-05
47 *4034:A *3240:A 0.00059356
48 *4034:A *708:24 3.09179e-05
49 *183:23 *708:86 0.000123225
50 *184:10 *708:41 6.1357e-05
51 *184:10 *708:45 2.75229e-05
52 *188:12 *3241:A1 0
53 *188:12 *3244:A1 4.99581e-05
54 *188:33 *3244:A1 9.823e-05
55 *193:14 *3691:A_N 0.000108446
56 *498:16 *3691:A_N 0.000321013
57 *507:30 *3691:A_N 2.49909e-05
58 *603:10 *708:39 1.73506e-05
59 *637:12 *708:41 6.0011e-05
60 *637:12 *708:86 0.000206328
61 *643:16 *708:39 0.000160651
62 *676:10 *708:24 0.000116165
63 *676:10 *708:39 0.000139238
64 *702:27 *3244:A1 4.2801e-05
65 *702:33 *3244:A1 2.14005e-05
66 *707:6 *708:45 3.57349e-05
67 *707:29 *3252:B1 0.00017485
68 *707:29 *3691:A_N 2.92496e-05
*RES
1 *4037:X *3240:A 9.53 
2 *4037:X *708:24 6.12 
3 *708:24 *3239:A1 3.6 
4 *708:24 *708:39 9.125 
5 *708:39 *708:41 3.21 
6 *708:41 *708:45 5.21 
7 *708:45 *3252:B1 10.47 
8 *708:45 *3691:A_N 18.45 
9 *708:41 *4036:A 1.96 
10 *708:39 *708:86 4.02 
11 *708:86 *708:88 2 
12 *708:88 *3241:A1 11.04 
13 *708:88 *3244:A1 11.475 
14 *708:86 *3243:A 1.6 
*END

*D_NET *709 0.00710639
*CONN
*I *3349:C I *D sky130_fd_sc_hd__nand3_2
*I *3347:C I *D sky130_fd_sc_hd__nand3_2
*I *3356:B I *D sky130_fd_sc_hd__nor2_2
*I *3341:A I *D sky130_fd_sc_hd__inv_2
*I *3353:B I *D sky130_fd_sc_hd__or2_2
*I *3354:B I *D sky130_fd_sc_hd__nand2_2
*I *3403:B I *D sky130_fd_sc_hd__and2_2
*I *3402:A I *D sky130_fd_sc_hd__nor2_2
*I *4038:X O *D sky130_fd_sc_hd__clkdlybuf4s25_1
*CAP
1 *3349:C 0.00016057
2 *3347:C 3.5196e-05
3 *3356:B 0.00039593
4 *3341:A 3.22871e-05
5 *3353:B 0
6 *3354:B 5.3736e-05
7 *3403:B 1.71144e-05
8 *3402:A 0.000150839
9 *4038:X 5.11877e-05
10 *709:71 0.000742277
11 *709:60 0.000343438
12 *709:58 0.000396787
13 *709:47 0.000284071
14 *709:38 0.000431016
15 *709:12 0.000268018
16 *709:8 0.000480678
17 *3354:B *895:20 0.000122325
18 *3356:B *3345:A 0.000122385
19 *3356:B *3356:A 5.58997e-05
20 *3356:B *3357:B 0.000235339
21 *3402:A *3403:A 0.000206001
22 *709:47 *895:16 4.60584e-05
23 *709:47 *895:20 3.74161e-05
24 *709:58 *895:16 9.21168e-05
25 *3344:A *3341:A 9.12671e-06
26 *3344:A *709:71 1.79174e-05
27 *3347:A *709:71 4.53873e-05
28 *3347:B *709:71 8.52972e-05
29 *3350:A *3349:C 7.01276e-05
30 *3358:A1 *3356:B 8.64488e-05
31 *3407:B1 *709:38 0
32 *3409:B1 *3402:A 1.43622e-05
33 *3409:B1 *3403:B 4.77807e-05
34 *3936:CLK *709:12 0.00017853
35 *3936:CLK *709:38 0.000195238
36 *3946:A *709:8 4.41506e-05
37 *275:10 *709:58 0.000132801
38 *275:25 *3349:C 3.68942e-05
39 *275:25 *709:58 3.89366e-05
40 *275:42 *3349:C 9.23252e-05
41 *277:10 *3356:B 0.000160338
42 *277:47 *709:71 1.07593e-05
43 *279:6 *709:71 3.97205e-05
44 *327:29 *709:58 0
45 *561:59 *709:38 0.00035163
46 *566:10 *709:38 0.000687931
47 *566:10 *709:58 0
*RES
1 *4038:X *709:8 4.395 
2 *709:8 *709:12 4.145 
3 *709:12 *3402:A 5.065 
4 *709:12 *3403:B 2.05 
5 *709:8 *709:38 12.305 
6 *709:38 *3354:B 2.74 
7 *709:38 *709:47 1.14 
8 *709:47 *3353:B 1.6 
9 *709:47 *709:58 7.16 
10 *709:58 *709:60 2 
11 *709:60 *3341:A 2.215 
12 *709:60 *709:71 5.9 
13 *709:71 *3356:B 11.265 
14 *709:71 *3347:C 4.215 
15 *709:58 *3349:C 6.51 
*END

*D_NET *710 0.00530945
*CONN
*I *3908:RESET_B I *D sky130_fd_sc_hd__dfrtp_2
*I *3936:RESET_B I *D sky130_fd_sc_hd__dfrtp_2
*I *3907:RESET_B I *D sky130_fd_sc_hd__dfrtp_2
*I *3912:RESET_B I *D sky130_fd_sc_hd__dfrtp_2
*I *3910:RESET_B I *D sky130_fd_sc_hd__dfrtp_2
*I *3911:RESET_B I *D sky130_fd_sc_hd__dfrtp_2
*I *3905:RESET_B I *D sky130_fd_sc_hd__dfrtp_2
*I *3906:RESET_B I *D sky130_fd_sc_hd__dfrtp_2
*I *4039:X O *D sky130_fd_sc_hd__clkdlybuf4s25_1
*CAP
1 *3908:RESET_B 0.0001906
2 *3936:RESET_B 0.000180471
3 *3907:RESET_B 0.000118622
4 *3912:RESET_B 0.000378144
5 *3910:RESET_B 6.302e-05
6 *3911:RESET_B 0.000193712
7 *3905:RESET_B 5.74414e-05
8 *3906:RESET_B 0.000284909
9 *4039:X 8.79645e-05
10 *710:70 0.000299093
11 *710:68 0.000375032
12 *710:16 0.0005318
13 *710:14 0.000524069
14 *710:8 0.000485605
15 *3906:RESET_B *3910:D 3.09164e-05
16 *3906:RESET_B *3911:D 0
17 *3906:RESET_B *3917:D 0
18 *3907:RESET_B *3912:D 7.23533e-05
19 *3907:RESET_B *3916:D 0
20 *3910:RESET_B *3357:B 0
21 *3910:RESET_B *3910:D 3.45117e-05
22 *3912:RESET_B *897:10 3.74308e-05
23 *3936:RESET_B *3912:D 2.92496e-05
24 *3936:RESET_B *3916:D 0
25 *710:8 *4039:A 2.0514e-05
26 *710:14 *3357:B 0
27 *710:14 *3910:D 0.000578666
28 *710:14 *3937:RESET_B 0
29 *710:14 *896:10 0
30 *710:16 *3910:D 0.000358156
31 *710:16 *3917:D 0
32 *710:16 *3937:RESET_B 0
33 empty *710:14 1.88656e-05
34 *3911:CLK *3912:RESET_B 0.000108413
35 *3912:CLK *3908:RESET_B 0.000164709
36 *4114:A *710:8 8.51862e-05
*RES
1 *4039:X *710:8 4.74 
2 *710:8 *710:14 7.8 
3 *710:14 *710:16 4.185 
4 *710:16 *3906:RESET_B 6.7775 
5 *710:16 *3905:RESET_B 2.7425 
6 *710:14 *3911:RESET_B 2 
7 *710:8 *3910:RESET_B 3.125 
8 *3911:RESET_B *3912:RESET_B 3.105 
9 *3912:RESET_B *710:68 2.5875 
10 *710:68 *710:70 2 
11 *710:70 *3907:RESET_B 3.8675 
12 *710:70 *3936:RESET_B 4.91 
13 *710:68 *3908:RESET_B 3.5175 
*END

*D_NET *711 0.00573547
*CONN
*I *3943:RESET_B I *D sky130_fd_sc_hd__dfrtp_2
*I *3913:RESET_B I *D sky130_fd_sc_hd__dfrtp_2
*I *4039:A I *D sky130_fd_sc_hd__clkdlybuf4s25_1
*I *3938:SET_B I *D sky130_fd_sc_hd__dfstp_2
*I *3937:RESET_B I *D sky130_fd_sc_hd__dfrtp_2
*I *4040:X O *D sky130_fd_sc_hd__clkdlybuf4s25_1
*CAP
1 *3943:RESET_B 8.7797e-05
2 *3913:RESET_B 0.000283312
3 *4039:A 0.000373487
4 *3938:SET_B 0.000179026
5 *3937:RESET_B 0.000254808
6 *4040:X 8.4485e-05
7 *711:16 0.000494295
8 *711:14 0.00050548
9 *711:12 0.000430946
10 *711:6 0.000248384
11 *3913:RESET_B *3910:D 3.64998e-06
12 *3913:RESET_B *3938:D 6.01338e-05
13 *3913:RESET_B *898:10 4.82919e-05
14 *3937:RESET_B *896:10 0.000242327
15 *3938:SET_B *3938:D 2.49909e-05
16 *3943:RESET_B *3357:B 0.000159964
17 *4039:A *4038:A 4.66108e-05
18 *711:6 *712:14 7.50252e-05
19 *711:6 *712:24 0.000122801
20 *711:6 *730:16 7.38927e-05
21 *711:12 *3357:B 0.000160658
22 *711:12 *712:24 8.23457e-05
23 *711:14 *3357:B 0.000175207
24 *711:14 *896:10 2.92496e-05
25 *711:16 *896:10 0.000224655
26 *3449:A *3937:RESET_B 7.06657e-05
27 *3910:CLK *3913:RESET_B 4.82919e-05
28 *4114:A *4039:A 0.000274059
29 *15:30 *3937:RESET_B 0.000221957
30 *15:30 *711:12 9.15694e-05
31 *15:30 *711:14 0.000123583
32 *15:30 *711:16 0.000134379
33 *564:16 *3937:RESET_B 1.67513e-05
34 *642:24 *711:6 0.000215865
35 *642:24 *711:12 4.60123e-05
36 *710:8 *4039:A 2.0514e-05
37 *710:14 *3937:RESET_B 0
38 *710:16 *3937:RESET_B 0
*RES
1 *4040:X *711:6 5.155 
2 *711:6 *711:12 4.685 
3 *711:12 *711:14 2.4 
4 *711:14 *711:16 2.655 
5 *711:16 *3937:RESET_B 8.2925 
6 *711:16 *3938:SET_B 4.2425 
7 *711:14 *4039:A 10.035 
8 *711:12 *3913:RESET_B 6.5825 
9 *711:6 *3943:RESET_B 5.89 
*END

*D_NET *712 0.00724077
*CONN
*I *3935:RESET_B I *D sky130_fd_sc_hd__dfrtp_2
*I *3934:RESET_B I *D sky130_fd_sc_hd__dfrtp_2
*I *4040:A I *D sky130_fd_sc_hd__clkdlybuf4s25_1
*I *3942:RESET_B I *D sky130_fd_sc_hd__dfrtp_2
*I *3904:RESET_B I *D sky130_fd_sc_hd__dfrtp_2
*I *3909:RESET_B I *D sky130_fd_sc_hd__dfrtp_2
*I *4041:X O *D sky130_fd_sc_hd__clkdlybuf4s25_1
*CAP
1 *3935:RESET_B 5.50308e-05
2 *3934:RESET_B 0.000270269
3 *4040:A 0
4 *3942:RESET_B 0
5 *3904:RESET_B 0.000342804
6 *3909:RESET_B 0.000369329
7 *4041:X 0.000213735
8 *712:24 0.00135967
9 *712:14 0.00133164
10 *3904:RESET_B *3406:B 2.54715e-05
11 *3904:RESET_B *3909:D 7.53265e-05
12 *3909:RESET_B *3942:D 0
13 *3909:RESET_B *729:46 0
14 *3909:RESET_B *729:54 0
15 *3934:RESET_B *3914:D 4.24575e-05
16 *3934:RESET_B *3934:D 0.000160266
17 *3934:RESET_B *3935:D 0
18 *3934:RESET_B *873:8 4.43211e-05
19 *3935:RESET_B *3904:D 0.000116151
20 *3935:RESET_B *3914:D 4.11729e-05
21 *712:14 *3357:B 0
22 *712:14 *730:16 4.88478e-05
23 *712:14 *895:10 0.000283791
24 *712:24 *3234:A 2.49909e-05
25 *712:24 *3405:A 7.33728e-05
26 *712:24 *3942:D 0
27 *712:24 *730:16 0.000283627
28 *175:22 *3909:RESET_B 0.000139245
29 *175:22 *712:24 0.000175207
30 *180:20 *3909:RESET_B 0
31 *336:10 *712:24 0.000123589
32 *563:10 *3909:RESET_B 0
33 *563:61 *3904:RESET_B 4.41931e-05
34 *642:24 *712:24 0.00119826
35 *681:22 *3935:RESET_B 0.000117825
36 *711:6 *712:14 7.50252e-05
37 *711:6 *712:24 0.000122801
38 *711:12 *712:24 8.23457e-05
*RES
1 *4041:X *712:14 10.265 
2 *712:14 *712:24 26.015 
3 *712:24 *3909:RESET_B 6.185 
4 *3909:RESET_B *3904:RESET_B 6.52 
5 *712:24 *3942:RESET_B 2 
6 *712:14 *4040:A 1.6 
7 *3904:RESET_B *3934:RESET_B 8.3425 
8 *3934:RESET_B *3935:RESET_B 5.7775 
*END

*D_NET *713 0.0135113
*CONN
*I *3890:RESET_B I *D sky130_fd_sc_hd__dfrtp_2
*I *3939:RESET_B I *D sky130_fd_sc_hd__dfrtp_2
*I *3940:RESET_B I *D sky130_fd_sc_hd__dfrtp_2
*I *3889:RESET_B I *D sky130_fd_sc_hd__dfrtp_2
*I *3891:RESET_B I *D sky130_fd_sc_hd__dfrtp_2
*I *3888:SET_B I *D sky130_fd_sc_hd__dfstp_2
*I *4041:A I *D sky130_fd_sc_hd__clkdlybuf4s25_1
*I *3892:RESET_B I *D sky130_fd_sc_hd__dfrtp_2
*I *4042:X O *D sky130_fd_sc_hd__clkdlybuf4s25_1
*CAP
1 *3890:RESET_B 9.15356e-05
2 *3939:RESET_B 8.76832e-05
3 *3940:RESET_B 0.000540628
4 *3889:RESET_B 0.00126
5 *3891:RESET_B 0.00196029
6 *3888:SET_B 0.00101938
7 *4041:A 0.00102991
8 *3892:RESET_B 0.000218094
9 *4042:X 4.78064e-05
10 *713:100 0.000694287
11 *713:98 0.000288527
12 *713:12 0.00162628
13 *713:8 0.000614153
14 *3888:SET_B *3903:D 0
15 *3891:RESET_B *4042:A 2.20732e-05
16 *3891:RESET_B *4054:A 7.97834e-05
17 *3940:RESET_B *3473:A1 0.000329717
18 *3940:RESET_B *3939:D 0.000341546
19 *3940:RESET_B *4023:A 0.00015017
20 *3940:RESET_B *715:12 0.000291636
21 *3940:RESET_B *729:20 5.0096e-05
22 *4041:A *3357:A 0
23 *4041:A *895:10 0
24 *713:98 *715:12 0.000101241
25 *713:100 *715:12 4.49585e-05
26 *3250:B *3940:RESET_B 0.00013694
27 *3367:A2 *3889:RESET_B 3.14077e-05
28 *3367:B1_N *3889:RESET_B 9.37846e-05
29 *3382:A *3889:RESET_B 0.000298278
30 *3382:B *3889:RESET_B 2.69217e-05
31 *3401:A1 *3889:RESET_B 8.41384e-05
32 *3401:A1 *3891:RESET_B 0.000113097
33 *3401:A2 *3891:RESET_B 9.70252e-06
34 *3888:CLK *3891:RESET_B 3.33763e-05
35 *3889:CLK *713:98 0
36 *3890:D *3890:RESET_B 4.77731e-05
37 *3891:D *3889:RESET_B 4.83032e-05
38 *3892:D *3892:RESET_B 0
39 *3892:D *713:12 8.97486e-05
40 *3901:D *3891:RESET_B 4.77769e-05
41 *3901:RESET_B *713:12 0
42 *4069:A *713:12 2.10433e-05
43 *4090:A *3888:SET_B 0.000201182
44 *4090:A *713:12 0.000139251
45 *4116:A *3888:SET_B 8.69284e-05
46 *4116:A *713:12 9.43218e-05
47 *299:14 *3889:RESET_B 0.000436834
48 *300:6 *3889:RESET_B 0.000419379
49 *565:26 *3939:RESET_B 5.00608e-05
50 *565:26 *3940:RESET_B 0
51 *565:26 *713:98 0
52 *565:26 *713:100 0
53 *675:10 *3940:RESET_B 5.49561e-05
54 *687:24 *3940:RESET_B 5.62661e-05
*RES
1 *4042:X *713:8 4.05 
2 *713:8 *713:12 8.1675 
3 *713:12 *3892:RESET_B 5.3375 
4 *713:12 *4041:A 20.6025 
5 *713:8 *3888:SET_B 5.8325 
6 *3888:SET_B *3891:RESET_B 16.42 
7 *3891:RESET_B *3889:RESET_B 23.8625 
8 *3889:RESET_B *713:98 4.91 
9 *713:98 *713:100 1.38 
10 *713:100 *3940:RESET_B 16.3325 
11 *713:100 *3939:RESET_B 3.4325 
12 *713:98 *3890:RESET_B 3.4325 
*END

*D_NET *714 0.00784503
*CONN
*I *3919:RESET_B I *D sky130_fd_sc_hd__dfrtp_2
*I *3927:RESET_B I *D sky130_fd_sc_hd__dfrtp_2
*I *3914:RESET_B I *D sky130_fd_sc_hd__dfrtp_2
*I *3915:RESET_B I *D sky130_fd_sc_hd__dfrtp_2
*I *3924:RESET_B I *D sky130_fd_sc_hd__dfrtp_2
*I *3920:RESET_B I *D sky130_fd_sc_hd__dfrtp_2
*I *3930:RESET_B I *D sky130_fd_sc_hd__dfrtp_2
*I *3931:RESET_B I *D sky130_fd_sc_hd__dfrtp_2
*I *4043:X O *D sky130_fd_sc_hd__clkdlybuf4s25_1
*CAP
1 *3919:RESET_B 0
2 *3927:RESET_B 0.000809435
3 *3914:RESET_B 0.000977576
4 *3915:RESET_B 0
5 *3924:RESET_B 0
6 *3920:RESET_B 0.000164861
7 *3930:RESET_B 4.82196e-05
8 *3931:RESET_B 0.000791904
9 *4043:X 0.000127927
10 *714:77 0.000233236
11 *714:70 0.000229625
12 *714:66 0.000208626
13 *714:52 0.000708326
14 *714:34 0.00121156
15 *3914:RESET_B *3904:D 0
16 *3930:RESET_B *3262:B1 2.91561e-06
17 *714:34 *3262:B1 0.000113972
18 *714:34 *3930:D 0
19 *714:34 *906:8 0.000124895
20 *714:52 *3920:D 0.000115151
21 *714:52 *3924:D 6.72501e-05
22 *714:66 *3920:D 9.31397e-05
23 *714:70 *3919:D 0
24 *714:70 *3920:D 0.000132755
25 *714:77 *3904:D 0
26 *714:77 *3919:D 0
27 *714:77 *3920:D 5.39718e-05
28 *3237:A *714:52 0.000184063
29 *3330:B *3931:RESET_B 0
30 *3413:A *3931:RESET_B 0.000115217
31 *3413:A *714:34 0.000153137
32 *3914:CLK *3927:RESET_B 1.83756e-05
33 *3920:CLK *3920:RESET_B 0.000119251
34 *3920:CLK *714:52 1.52776e-05
35 *3927:CLK *3927:RESET_B 0.000180216
36 *3929:CLK *3930:RESET_B 2.20732e-05
37 *3931:CLK *714:34 0.000371568
38 *184:18 *714:34 0
39 *184:18 *714:52 0
40 *185:21 *714:34 5.05521e-05
41 *185:31 *714:34 0.000127408
42 *185:31 *714:52 1.71013e-05
43 *187:8 *3931:RESET_B 0.000139245
44 *193:14 *714:52 0
45 *603:10 *714:52 4.92014e-05
46 *606:10 *3914:RESET_B 0
47 *606:10 *714:77 0
48 *606:39 *3914:RESET_B 0
49 *637:12 *714:52 6.69896e-05
*RES
1 *4043:X *3931:RESET_B 8.3225 
2 *3931:RESET_B *714:34 15.5525 
3 *714:34 *3930:RESET_B 2.7425 
4 *714:34 *714:52 9.975 
5 *714:52 *3920:RESET_B 4.2425 
6 *714:52 *714:66 1.125 
7 *714:66 *714:70 3.36 
8 *714:70 *3924:RESET_B 2 
9 *714:70 *714:77 1.38 
10 *714:77 *3915:RESET_B 2 
11 *714:77 *3914:RESET_B 4.91 
12 *3914:RESET_B *3927:RESET_B 10.59 
13 *714:66 *3919:RESET_B 2 
*END

*D_NET *715 0.00894011
*CONN
*I *3222:D I *D sky130_fd_sc_hd__nand4_2
*I *3220:D I *D sky130_fd_sc_hd__nand4_2
*I *3249:A2 I *D sky130_fd_sc_hd__a21oi_2
*I *3256:A3 I *D sky130_fd_sc_hd__a311o_2
*I *3216:C I *D sky130_fd_sc_hd__nand3b_2
*I *3224:D I *D sky130_fd_sc_hd__nand4b_2
*I *3228:C I *D sky130_fd_sc_hd__and3b_4
*I *4074:X O *D sky130_fd_sc_hd__clkdlybuf4s25_1
*CAP
1 *3222:D 0.000126171
2 *3220:D 0.000102911
3 *3249:A2 6.71428e-05
4 *3256:A3 0.000243429
5 *3216:C 0
6 *3224:D 5.38796e-05
7 *3228:C 0.000130329
8 *4074:X 0.00078931
9 *715:31 0.000112377
10 *715:29 0.000438378
11 *715:27 0.000275668
12 *715:25 0.000587327
13 *715:12 0.00120581
14 *715:12 *3939:D 0.000189284
15 *715:12 *4017:A 8.15342e-05
16 *3219:A *3249:A2 8.49205e-05
17 *3220:A *3222:D 0.000207135
18 *3220:C *3220:D 4.82919e-05
19 *3220:C *3222:D 4.66108e-05
20 *3220:C *715:27 0.000127373
21 *3222:A *3220:D 4.82919e-05
22 *3222:A *3222:D 2.61183e-06
23 *3222:B *3222:D 6.95556e-05
24 *3222:C *3222:D 4.82919e-05
25 *3224:C *3224:D 2.75538e-05
26 *3228:A_N *715:25 0.000243309
27 *3228:A_N *715:27 6.36273e-05
28 *3228:A_N *715:29 1.0183e-05
29 *3229:D *3228:C 8.35157e-05
30 *3249:A1 *3249:A2 4.80285e-05
31 *3256:A2 *3256:A3 0.000120655
32 *3256:C1 *3256:A3 0
33 *3257:B1 *3224:D 0.000207797
34 *3257:B1 *715:31 2.14129e-05
35 *3367:B1_N *715:12 0.000404563
36 *3468:S *715:25 3.49517e-05
37 *3940:RESET_B *715:12 0.000291636
38 *3941:CLK *3228:C 0.000344376
39 *3941:CLK *715:12 0.000228871
40 *4078:A *715:27 3.09233e-05
41 *4078:A *715:29 0.000180682
42 *172:6 *3222:D 4.9253e-06
43 *177:6 *3228:C 8.52972e-05
44 *192:8 *3249:A2 5.83121e-06
45 *642:30 *3224:D 0.000140912
46 *642:30 *715:31 9.50342e-06
47 *642:45 *3249:A2 0.000123225
48 *642:45 *715:29 2.23485e-05
49 *642:45 *715:31 5.99925e-05
50 *675:10 *715:25 0.000162138
51 *675:10 *715:27 1.07797e-05
52 *681:116 *715:25 0.000442604
53 *683:30 *3228:C 1.32026e-05
54 *683:30 *715:12 8.63671e-05
55 *683:38 *715:29 0
56 *683:44 *715:29 0
57 *687:12 *715:12 0
58 *687:46 *3256:A3 4.74146e-05
59 *697:8 *3256:A3 0.000150653
60 *697:19 *715:31 0
61 *713:98 *715:12 0.000101241
62 *713:100 *715:12 4.49585e-05
*RES
1 *4074:X *715:12 25.475 
2 *715:12 *3228:C 5.425 
3 *715:12 *715:25 10.775 
4 *715:25 *715:27 2.145 
5 *715:27 *715:29 2.655 
6 *715:29 *715:31 1.38 
7 *715:31 *3224:D 6 
8 *715:31 *3216:C 3.6 
9 *715:29 *3256:A3 7.08 
10 *715:27 *3249:A2 5.43 
11 *715:25 *3220:D 4.845 
12 *715:25 *3222:D 6.945 
*END

*D_NET *716 0.00538204
*CONN
*I *3917:RESET_B I *D sky130_fd_sc_hd__dfrtp_2
*I *3916:RESET_B I *D sky130_fd_sc_hd__dfrtp_2
*I *3921:RESET_B I *D sky130_fd_sc_hd__dfrtp_2
*I *3925:RESET_B I *D sky130_fd_sc_hd__dfrtp_2
*I *3928:RESET_B I *D sky130_fd_sc_hd__dfrtp_2
*I *3922:RESET_B I *D sky130_fd_sc_hd__dfrtp_2
*I *3918:RESET_B I *D sky130_fd_sc_hd__dfrtp_2
*I *3923:RESET_B I *D sky130_fd_sc_hd__dfrtp_2
*I *4044:X O *D sky130_fd_sc_hd__clkdlybuf4s25_1
*CAP
1 *3917:RESET_B 0.000163157
2 *3916:RESET_B 0.000121886
3 *3921:RESET_B 4.0651e-05
4 *3925:RESET_B 9.97236e-05
5 *3928:RESET_B 0.000122861
6 *3922:RESET_B 0.00038137
7 *3918:RESET_B 8.03939e-05
8 *3923:RESET_B 0
9 *4044:X 0.000265351
10 *716:68 0.000286257
11 *716:58 0.000268706
12 *716:56 0.000412704
13 *716:40 0.000418321
14 *716:17 0.00062715
15 *716:10 0.000521912
16 *3916:RESET_B *3917:D 0
17 *3916:RESET_B *3918:D 0.000354202
18 *3916:RESET_B *3921:D 0.000105803
19 *3917:RESET_B *3917:D 2.88357e-05
20 *3918:RESET_B *3923:D 5.83121e-06
21 *3922:RESET_B *3923:D 0
22 *3928:RESET_B *3918:D 4.11281e-05
23 *716:10 *4044:A 0.000198614
24 *716:10 *888:34 0
25 *716:17 *3923:D 0
26 *716:17 *4044:A 0
27 *716:40 *887:10 4.82919e-05
28 *716:56 *3918:D 0.000134975
29 *716:68 *3918:D 0.000242203
30 *716:68 *3921:D 2.69443e-06
31 *3415:A *3922:RESET_B 0
32 *3415:A *716:17 0
33 *3917:CLK *3925:RESET_B 8.23457e-05
34 *3917:CLK *716:58 4.77807e-05
35 *3921:CLK *3921:RESET_B 7.69078e-05
36 *3922:CLK *3922:RESET_B 0
37 *3923:CLK *3922:RESET_B 0
38 *4093:A *3928:RESET_B 0.000153522
39 *4113:A *3922:RESET_B 0
40 *604:25 *3928:RESET_B 4.84624e-05
*RES
1 *4044:X *716:10 7.845 
2 *716:10 *3923:RESET_B 2 
3 *716:10 *716:17 4.185 
4 *716:17 *3918:RESET_B 3.0875 
5 *716:17 *3922:RESET_B 6.185 
6 *3922:RESET_B *716:40 3.4325 
7 *716:40 *3928:RESET_B 4.8125 
8 *716:40 *716:56 6.29 
9 *716:56 *716:58 0.795 
10 *716:58 *3925:RESET_B 1.4325 
11 *716:58 *716:68 4.91 
12 *716:68 *3921:RESET_B 2.7425 
13 *716:68 *3916:RESET_B 6.185 
14 *716:56 *3917:RESET_B 2.4675 
*END

*D_NET *717 0.00779891
*CONN
*I *3933:RESET_B I *D sky130_fd_sc_hd__dfrtp_2
*I *4044:A I *D sky130_fd_sc_hd__clkdlybuf4s25_1
*I *3926:RESET_B I *D sky130_fd_sc_hd__dfrtp_2
*I *3932:RESET_B I *D sky130_fd_sc_hd__dfrtp_2
*I *4043:A I *D sky130_fd_sc_hd__clkdlybuf4s25_1
*I *4045:X O *D sky130_fd_sc_hd__clkdlybuf4s25_1
*CAP
1 *3933:RESET_B 0.000269789
2 *4044:A 0.000333661
3 *3926:RESET_B 0.000403923
4 *3932:RESET_B 0.000508724
5 *4043:A 2.61242e-05
6 *4045:X 0
7 *717:29 0.000954715
8 *717:14 0.00124188
9 *717:4 0.00123756
10 *3932:RESET_B *4032:A 4.77769e-05
11 *3933:RESET_B *3267:B 0
12 *3933:RESET_B *3268:A2 8.53113e-06
13 *3933:RESET_B *903:8 2.91561e-06
14 *3933:RESET_B *903:21 0
15 *4043:A *911:8 4.66108e-05
16 *4044:A *3923:D 0.000141599
17 *4044:A *4045:A 0.0003175
18 *717:14 *3413:B 0.000103185
19 *717:14 *3925:D 1.52184e-05
20 *717:29 *3925:D 0.000446786
21 *3330:B *3933:RESET_B 0
22 *3330:B *717:14 8.55971e-05
23 *3330:B *717:29 0.000767874
24 *3414:A *717:14 8.49205e-05
25 *3414:B *717:14 0.000458007
26 *3415:A *717:14 3.72916e-05
27 *3926:CLK *3926:RESET_B 1.79174e-05
28 *191:10 *3933:RESET_B 0
29 *643:16 *717:14 4.21973e-05
30 *716:10 *4044:A 0.000198614
31 *716:17 *4044:A 0
*RES
1 *4045:X *717:4 1.6 
2 *717:4 *717:14 20.29 
3 *717:14 *4043:A 2.05 
4 *717:14 *717:29 13.645 
5 *717:29 *3932:RESET_B 3.2775 
6 *717:29 *3926:RESET_B 5.0025 
7 *717:4 *4044:A 12.935 
8 *3932:RESET_B *3933:RESET_B 8.0875 
*END

*D_NET *718 0.0156906
*CONN
*I *3929:RESET_B I *D sky130_fd_sc_hd__dfrtp_2
*I *3894:RESET_B I *D sky130_fd_sc_hd__dfrtp_2
*I *3895:RESET_B I *D sky130_fd_sc_hd__dfrtp_2
*I *3896:RESET_B I *D sky130_fd_sc_hd__dfrtp_2
*I *3897:RESET_B I *D sky130_fd_sc_hd__dfrtp_2
*I *4045:A I *D sky130_fd_sc_hd__clkdlybuf4s25_1
*I *3893:RESET_B I *D sky130_fd_sc_hd__dfrtp_2
*I *4046:X O *D sky130_fd_sc_hd__clkdlybuf4s25_1
*CAP
1 *3929:RESET_B 0.00202504
2 *3894:RESET_B 0
3 *3895:RESET_B 5.45816e-05
4 *3896:RESET_B 0.00142513
5 *3897:RESET_B 0.00132117
6 *4045:A 0.000978692
7 *3893:RESET_B 0.00137723
8 *4046:X 6.17184e-05
9 *718:91 0.00216558
10 *718:81 0.00149709
11 *718:6 0.00121963
12 *3897:RESET_B *3900:D 0.000317013
13 *3897:RESET_B *4046:A 0.000273695
14 *4045:A *3923:D 2.60986e-05
15 afull *4045:A 0
16 *3294:B1 *3929:RESET_B 3.92907e-05
17 *3308:A2_N *718:81 9.03066e-05
18 *3308:B2 *718:81 2.01934e-05
19 *3309:B1 *718:81 0.000871357
20 *3326:B1 *3929:RESET_B 2.23203e-05
21 *3326:B1 *718:91 0.000111173
22 *3327:A2_N *3929:RESET_B 1.96072e-05
23 *3327:A2_N *718:91 0.00013015
24 *3897:D *3896:RESET_B 6.29313e-05
25 *3898:D *3897:RESET_B 4.77807e-05
26 *3898:RESET_B *3897:RESET_B 7.91957e-05
27 *3900:RESET_B *3897:RESET_B 4.98012e-05
28 *3923:CLK *4045:A 0.000187759
29 *4044:A *4045:A 0.0003175
30 *4091:A *4045:A 8.72302e-05
31 *4091:A *718:6 4.88478e-05
32 *4115:A *3893:RESET_B 4.18603e-06
33 *4115:A *4045:A 0
34 *195:10 *3929:RESET_B 4.22522e-05
35 *218:39 *3929:RESET_B 0.000186479
36 *226:12 *3929:RESET_B 0.000302773
37 *558:10 *718:81 4.89395e-05
38 *558:10 *718:91 7.58309e-05
39 *596:62 *3897:RESET_B 8.73376e-05
40 *639:10 *3897:RESET_B 1.46781e-05
*RES
1 *4046:X *718:6 2.395 
2 *718:6 *3893:RESET_B 6.91 
3 *718:6 *4045:A 23.45 
4 *3893:RESET_B *3897:RESET_B 22.75 
5 *3897:RESET_B *3896:RESET_B 6.1225 
6 *3896:RESET_B *718:81 17.5425 
7 *718:81 *3895:RESET_B 0.7425 
8 *718:81 *718:91 6.185 
9 *718:91 *3894:RESET_B 2 
10 *718:91 *3929:RESET_B 11.8113 
*END

*D_NET *719 0.00852735
*CONN
*I *3672:A1 I *D sky130_fd_sc_hd__mux2_2
*I *3689:A1 I *D sky130_fd_sc_hd__mux2_2
*I *3723:A0 I *D sky130_fd_sc_hd__mux2_2
*I *3706:A1 I *D sky130_fd_sc_hd__mux2_2
*I *3620:A1 I *D sky130_fd_sc_hd__mux2_2
*I *3498:A1 I *D sky130_fd_sc_hd__mux2_2
*I *3654:A1 I *D sky130_fd_sc_hd__mux2_2
*I *3637:A1 I *D sky130_fd_sc_hd__mux2_2
*I *4047:X O *D sky130_fd_sc_hd__clkdlybuf4s25_1
*CAP
1 *3672:A1 0.000174414
2 *3689:A1 0
3 *3723:A0 0
4 *3706:A1 0
5 *3620:A1 0.000240682
6 *3498:A1 0
7 *3654:A1 0.00041808
8 *3637:A1 4.31889e-05
9 *4047:X 2.92437e-05
10 *719:82 0.000377954
11 *719:75 0.000419599
12 *719:68 0.000586334
13 *719:18 0.000685167
14 *719:12 0.000525808
15 *719:10 0.000662003
16 *719:6 0.00051893
17 *3620:A1 *3620:A0 0
18 *3637:A1 *3637:A0 8.52845e-05
19 *3654:A1 *3479:A2 2.01779e-05
20 *3654:A1 *3479:A3 0.000151706
21 *3654:A1 *3654:A0 0.000247616
22 *3654:A1 *811:8 0.000134373
23 *3672:A1 *3689:A0 7.20899e-05
24 *719:10 *3479:A1 0.000120655
25 *719:12 *3479:A0 7.06865e-05
26 *719:12 *3479:A2 0
27 *719:12 *3479:A3 0
28 *719:12 *3498:A0 0.000281654
29 *719:18 *3637:A0 3.57349e-05
30 *719:68 *3479:A0 4.77757e-05
31 *719:68 *3479:A1 0.000268973
32 *719:82 *3689:A0 8.64421e-05
33 *719:82 *3723:A1 4.99619e-05
34 *3478:S0 *3672:A1 2.66148e-05
35 *3478:S1 *3672:A1 0.000344325
36 *3478:S1 *719:82 0.000385884
37 *3479:S0 *3620:A1 9.86532e-05
38 *3479:S0 *719:12 9.68709e-05
39 *3479:S1 *719:68 0.00019558
40 *3480:A1 *719:68 5.30057e-05
41 *3499:A *719:68 7.3664e-05
42 *3620:S *3620:A1 7.22354e-05
43 *3637:S *3654:A1 3.50033e-05
44 *3637:S *719:18 3.83194e-05
45 *3654:S *3654:A1 4.76093e-05
46 *3679:S *719:82 0.000102479
47 *3724:A *719:75 1.79098e-05
48 *4047:A *3620:A1 4.49498e-05
49 *507:65 *3672:A1 0.00015401
50 *525:60 *3672:A1 2.75092e-05
51 *605:6 *719:6 2.68526e-05
52 *605:6 *719:10 1.91597e-05
53 *684:48 *719:68 0.000312182
*RES
1 *4047:X *719:6 2.05 
2 *719:6 *719:10 3.485 
3 *719:10 *719:12 6.225 
4 *719:12 *719:18 5.3 
5 *719:18 *3637:A1 2.395 
6 *719:18 *3654:A1 14.195 
7 *719:12 *3498:A1 3.6 
8 *719:10 *3620:A1 7.575 
9 *719:6 *719:68 12.1 
10 *719:68 *3706:A1 1.6 
11 *719:68 *719:75 2.865 
12 *719:75 *3723:A0 1.6 
13 *719:75 *719:82 5.28 
14 *719:82 *3689:A1 1.6 
15 *719:82 *3672:A1 10.385 
*END

*D_NET *720 0.00877802
*CONN
*I *3550:A1 I *D sky130_fd_sc_hd__mux2_2
*I *3568:A1 I *D sky130_fd_sc_hd__mux2_2
*I *3532:A0 I *D sky130_fd_sc_hd__mux2_2
*I *3741:A1 I *D sky130_fd_sc_hd__mux2_2
*I *3603:A0 I *D sky130_fd_sc_hd__mux2_2
*I *3586:A1 I *D sky130_fd_sc_hd__mux2_2
*I *3758:A1 I *D sky130_fd_sc_hd__mux2_2
*I *3515:A1 I *D sky130_fd_sc_hd__mux2_2
*I *4048:X O *D sky130_fd_sc_hd__clkdlybuf4s25_1
*CAP
1 *3550:A1 0.000411009
2 *3568:A1 6.63281e-05
3 *3532:A0 0
4 *3741:A1 0
5 *3603:A0 0.000482811
6 *3586:A1 0.000192953
7 *3758:A1 0
8 *3515:A1 0
9 *4048:X 0.000452222
10 *720:81 0.000914592
11 *720:40 0.00055616
12 *720:36 0.000968683
13 *720:23 0.000921281
14 *720:16 0.000456237
15 *720:10 0.00063821
16 *3568:A1 *3568:A0 0.000111547
17 *3586:A1 *3586:A0 4.6368e-06
18 *720:16 *3515:A0 4.36422e-06
19 *720:23 *3515:A0 4.6668e-05
20 *720:23 *3758:A0 4.41506e-05
21 *720:36 *3758:A0 0.000177448
22 *3452:S0 *3586:A1 9.08126e-05
23 *3474:S0 *720:36 3.86529e-05
24 *3474:S1 *3603:A0 7.32549e-05
25 *3474:S1 *720:40 0.000362348
26 *3474:S1 *720:81 1.35273e-05
27 *3477:A2 *3568:A1 1.73074e-05
28 *3509:S *720:16 0
29 *3515:S *720:23 6.92853e-05
30 *3516:A *720:16 5.37518e-05
31 *3533:A *720:16 0
32 *3544:S *3550:A1 5.23362e-05
33 *3580:S *720:36 7.23533e-05
34 *3603:S *720:81 0.000161221
35 *3604:A *720:40 8.57024e-05
36 *3815:CLK *720:36 0.000188925
37 *4047:A *720:10 4.21973e-05
38 *4095:A *3550:A1 0
39 *413:112 *720:10 0
40 *413:112 *720:16 0
41 *432:34 *3550:A1 2.49909e-05
42 *432:47 *3550:A1 0.000139245
43 *452:48 *3586:A1 4.77757e-05
44 *461:57 *3550:A1 0.000140898
45 *461:57 *720:81 5.78185e-05
46 *544:61 *720:36 2.19562e-06
47 *562:106 *3586:A1 0.000200653
48 *611:47 *3550:A1 8.53113e-06
49 *636:6 *720:10 0.000110662
50 *666:24 *3568:A1 9.50342e-06
51 *666:49 *3568:A1 8.23691e-05
52 *668:51 *720:10 0.000118527
53 *695:44 *3586:A1 6.38762e-05
*RES
1 *4048:X *720:10 9.48 
2 *720:10 *720:16 5.105 
3 *720:16 *3515:A1 1.6 
4 *720:16 *720:23 3.21 
5 *720:23 *3758:A1 1.6 
6 *720:23 *720:36 12.565 
7 *720:36 *720:40 5.64 
8 *720:40 *3586:A1 10.235 
9 *720:40 *3603:A0 2.395 
10 *720:36 *3741:A1 1.6 
11 *720:10 *3532:A0 3.6 
12 *3603:A0 *720:81 7.15 
13 *720:81 *3568:A1 7.49 
14 *720:81 *3550:A1 11.645 
*END

*D_NET *721 0.0123116
*CONN
*I *3670:A1 I *D sky130_fd_sc_hd__mux2_2
*I *3496:A1 I *D sky130_fd_sc_hd__mux2_2
*I *3618:A1 I *D sky130_fd_sc_hd__mux2_2
*I *3721:A0 I *D sky130_fd_sc_hd__mux2_2
*I *3704:A1 I *D sky130_fd_sc_hd__mux2_2
*I *3687:A1 I *D sky130_fd_sc_hd__mux2_2
*I *3652:A1 I *D sky130_fd_sc_hd__mux2_2
*I *3635:A1 I *D sky130_fd_sc_hd__mux2_2
*I *4049:X O *D sky130_fd_sc_hd__clkdlybuf4s25_1
*CAP
1 *3670:A1 6.42285e-05
2 *3496:A1 0.000226676
3 *3618:A1 0
4 *3721:A0 9.34163e-05
5 *3704:A1 9.80248e-06
6 *3687:A1 0.00018263
7 *3652:A1 0
8 *3635:A1 0.000286006
9 *4049:X 0.000265025
10 *721:79 0.000283107
11 *721:64 0.000603477
12 *721:51 0.000474468
13 *721:26 0.00100748
14 *721:18 0.000679514
15 *721:12 0.000697852
16 *721:10 0.000608878
17 *3496:A1 *3496:A0 0.000491778
18 *3635:A1 *3635:A0 5.21533e-05
19 *3721:A0 *3721:A1 0.000150623
20 *721:10 *726:31 2.47313e-05
21 *721:26 *3618:A0 4.80058e-05
22 *721:51 *3635:A0 0.000118527
23 *721:79 *3704:A0 4.58262e-06
24 *721:79 *3721:A1 6.19082e-05
25 *721:79 *842:8 8.69208e-05
26 *3464:A1 *3635:A1 0.000220269
27 *3464:A1 *3721:A0 0.000355129
28 *3464:A1 *721:79 0.000137922
29 *3471:A2 *721:10 0.000234988
30 *3471:A2 *721:12 0.000236155
31 *3622:D_N *721:12 0.000138196
32 *3635:S *721:26 0.000196699
33 *3715:S *721:12 1.52776e-05
34 *3721:S *721:64 0
35 *3766:D *3496:A1 1.43717e-05
36 *3846:D *721:10 8.96091e-05
37 *3877:CLK *3721:A0 9.54399e-05
38 *3983:A *3670:A1 4.71087e-05
39 *202:54 *721:10 1.97429e-05
40 *202:56 *721:10 0.000116434
41 *202:65 *721:10 0.000276725
42 *202:104 *721:10 5.75586e-05
43 *202:104 *721:12 0.000223492
44 *404:14 *3496:A1 0.00019017
45 *470:25 *721:12 0.000281853
46 *470:25 *721:18 0.000205376
47 *479:8 *721:12 4.94404e-05
48 *479:8 *721:18 0.000140617
49 *507:30 *3687:A1 3.63576e-05
50 *507:42 *3687:A1 0.000233604
51 *516:109 *3704:A1 4.77807e-05
52 *525:29 *721:64 0
53 *562:214 *3635:A1 3.33337e-05
54 *634:31 *3635:A1 0.000221428
55 *665:12 *721:51 0.000352349
56 *665:12 *721:64 6.47516e-05
57 *665:14 *3635:A1 0.000153816
58 *665:14 *721:26 7.14699e-05
59 *672:14 *721:18 0.000116165
60 *685:18 *721:64 0
61 *691:16 *3704:A1 4.82919e-05
62 *692:30 *721:51 0.000508345
63 *692:30 *721:64 0.000348338
64 *692:30 *721:79 0.000211209
*RES
1 *4049:X *721:10 10.62 
2 *721:10 *721:12 9.285 
3 *721:12 *721:18 7.325 
4 *721:18 *721:26 8.085 
5 *721:26 *3635:A1 12.05 
6 *721:26 *721:51 10.52 
7 *721:51 *3652:A1 3.6 
8 *721:51 *721:64 5.76 
9 *721:64 *3687:A1 6.12 
10 *721:64 *721:79 4.995 
11 *721:79 *3704:A1 4.05 
12 *721:79 *3721:A0 7.785 
13 *721:18 *3618:A1 1.6 
14 *721:12 *3496:A1 9.705 
15 *721:10 *3670:A1 4.395 
*END

*D_NET *722 0.00782447
*CONN
*I *3548:A1 I *D sky130_fd_sc_hd__mux2_2
*I *3566:A1 I *D sky130_fd_sc_hd__mux2_2
*I *3756:A1 I *D sky130_fd_sc_hd__mux2_2
*I *3739:A1 I *D sky130_fd_sc_hd__mux2_2
*I *3530:A0 I *D sky130_fd_sc_hd__mux2_2
*I *3601:A0 I *D sky130_fd_sc_hd__mux2_2
*I *3584:A1 I *D sky130_fd_sc_hd__mux2_2
*I *3513:A1 I *D sky130_fd_sc_hd__mux2_2
*I *4050:X O *D sky130_fd_sc_hd__clkdlybuf4s25_1
*CAP
1 *3548:A1 9.7111e-05
2 *3566:A1 0
3 *3756:A1 0
4 *3739:A1 0
5 *3530:A0 0
6 *3601:A0 4.92187e-05
7 *3584:A1 0.000236252
8 *3513:A1 0.000204969
9 *4050:X 0.000203079
10 *722:76 0.00033784
11 *722:33 0.000705968
12 *722:20 0.000625466
13 *722:18 0.000404544
14 *722:16 0.00070261
15 *722:8 0.000329952
16 *722:6 0.000475694
17 *3513:A1 *3466:A2 0.000111088
18 *3513:A1 *754:10 4.13171e-05
19 *3548:A1 *3467:A0 7.3877e-05
20 *3548:A1 *3548:A0 0.000122801
21 *3584:A1 *3584:A0 1.63105e-05
22 *722:16 *3466:A0 8.45475e-05
23 *722:16 *858:10 8.53113e-06
24 *722:18 *3530:A1 0.000201508
25 *722:33 *3466:A2 6.55406e-05
26 *722:33 *762:8 0
27 *722:33 *786:10 0.000174602
28 *722:76 *3467:A0 0.000344361
29 *3466:S0 *722:16 0
30 *3467:S1 *722:16 0
31 *3468:A0 *722:18 0.000275553
32 *3468:A1 *722:18 0.000199833
33 *3468:A1 *722:76 0.00026898
34 *3567:A *722:76 0.000151215
35 *3574:S *722:33 0
36 *3798:D *722:76 4.49465e-05
37 *3814:CLK *3584:A1 6.81239e-05
38 *3814:D *3584:A1 7.70553e-06
39 *3814:D *3601:A0 8.41575e-05
40 *3814:D *722:33 5.05981e-05
41 *3886:D *722:6 9.51622e-05
42 *3886:D *722:8 8.73389e-06
43 *3886:D *722:16 4.21991e-05
44 *4050:A *722:6 8.65961e-05
45 *4100:A *722:33 0
46 *413:85 *3513:A1 8.49205e-05
47 *442:37 *722:16 0.000146091
48 *452:117 *3513:A1 0
49 *452:117 *722:33 0
50 *635:10 *722:76 0.00035192
51 *688:51 *722:18 0.000240548
*RES
1 *4050:X *722:6 5.155 
2 *722:6 *722:8 0.45 
3 *722:8 *722:16 9.67 
4 *722:16 *722:18 9.075 
5 *722:18 *722:20 2 
6 *722:20 *3513:A1 7.56 
7 *722:20 *722:33 8.52 
8 *722:33 *3584:A1 6.48 
9 *722:33 *3601:A0 4.725 
10 *722:18 *3530:A0 1.6 
11 *722:16 *3739:A1 1.6 
12 *722:8 *3756:A1 1.6 
13 *722:6 *722:76 11.395 
14 *722:76 *3566:A1 1.6 
15 *722:76 *3548:A1 3.43 
*END

*D_NET *723 0.00812864
*CONN
*I *3633:A1 I *D sky130_fd_sc_hd__mux2_2
*I *3719:A0 I *D sky130_fd_sc_hd__mux2_2
*I *3702:A1 I *D sky130_fd_sc_hd__mux2_2
*I *3668:A1 I *D sky130_fd_sc_hd__mux2_2
*I *3685:A1 I *D sky130_fd_sc_hd__mux2_2
*I *3616:A1 I *D sky130_fd_sc_hd__mux2_2
*I *3650:A1 I *D sky130_fd_sc_hd__mux2_2
*I *3494:A1 I *D sky130_fd_sc_hd__mux2_2
*I *4051:X O *D sky130_fd_sc_hd__clkdlybuf4s25_1
*CAP
1 *3633:A1 0
2 *3719:A0 0.000181426
3 *3702:A1 6.56796e-05
4 *3668:A1 0.000409426
5 *3685:A1 0
6 *3616:A1 0
7 *3650:A1 0
8 *3494:A1 0.000246628
9 *4051:X 0.000297797
10 *723:90 0.000527968
11 *723:66 0.00047472
12 *723:62 0.000534404
13 *723:47 0.00048545
14 *723:38 0.000943315
15 *723:24 0.000697282
16 *3494:A1 *3633:A0 4.89395e-05
17 *723:24 *3633:A0 0.000122191
18 *723:38 *3633:A0 4.40028e-05
19 *723:38 *3650:A0 0.000335897
20 *723:62 *3616:A0 9.50342e-06
21 *3617:A *723:38 0
22 *3634:A *723:38 7.0055e-05
23 *3648:S *723:38 0.000260577
24 *3648:S *723:47 2.86975e-05
25 *3702:S *3719:A0 2.97802e-05
26 *3719:S *3719:A0 1.9872e-05
27 *3829:D *723:38 0.000178952
28 *3845:CLK *3719:A0 0.000141599
29 *3845:D *723:62 0.000185398
30 *3845:D *723:90 0.000272263
31 *3853:D *3719:A0 3.57924e-05
32 *4051:A *3494:A1 4.66108e-05
33 *488:88 *723:47 0.000133496
34 *488:88 *723:62 3.26526e-05
35 *516:41 *3668:A1 0.000525104
36 *516:41 *723:66 8.23457e-05
37 *598:14 *3668:A1 2.67022e-05
38 *633:25 *723:38 0
39 *634:31 *723:62 1.73877e-05
40 *663:43 *3702:A1 4.60061e-05
41 *663:43 *723:90 8.14518e-05
42 *664:18 *3494:A1 0.000377856
43 *664:18 *723:24 8.52951e-05
44 *664:34 *723:38 1.52352e-05
45 *670:44 *723:62 1.08758e-05
*RES
1 *4051:X *3494:A1 8.855 
2 *4051:X *723:24 3.1 
3 *723:24 *723:38 16.555 
4 *723:38 *3650:A1 1.6 
5 *723:38 *723:47 3.915 
6 *723:47 *3616:A1 1.6 
7 *723:47 *723:62 5.825 
8 *723:62 *723:66 2.795 
9 *723:66 *3685:A1 1.6 
10 *723:66 *3668:A1 11.405 
11 *723:62 *723:90 6.08 
12 *723:90 *3702:A1 2.395 
13 *723:90 *3719:A0 9.155 
14 *723:24 *3633:A1 1.6 
*END

*D_NET *724 0.0105732
*CONN
*I *3564:A1 I *D sky130_fd_sc_hd__mux2_2
*I *3546:A1 I *D sky130_fd_sc_hd__mux2_2
*I *3511:A1 I *D sky130_fd_sc_hd__mux2_2
*I *3754:A1 I *D sky130_fd_sc_hd__mux2_2
*I *3599:A0 I *D sky130_fd_sc_hd__mux2_2
*I *3582:A1 I *D sky130_fd_sc_hd__mux2_2
*I *3528:A0 I *D sky130_fd_sc_hd__mux2_2
*I *3737:A1 I *D sky130_fd_sc_hd__mux2_2
*I *4052:X O *D sky130_fd_sc_hd__clkdlybuf4s25_1
*CAP
1 *3564:A1 0.000311132
2 *3546:A1 0
3 *3511:A1 0
4 *3754:A1 0.000334505
5 *3599:A0 0.000309495
6 *3582:A1 4.2996e-05
7 *3528:A0 6.44695e-05
8 *3737:A1 0.000395175
9 *4052:X 0.00075288
10 *724:115 0.000836567
11 *724:73 0.000619873
12 *724:49 0.000451485
13 *724:36 0.000203479
14 *724:32 0.0005994
15 *724:26 0.00115716
16 *3528:A0 *3458:A3 2.85623e-05
17 *3528:A0 *3528:A1 4.77769e-05
18 *3528:A0 *761:10 8.27307e-05
19 *3564:A1 *3546:A0 0.000181869
20 *3582:A1 *729:80 5.36384e-06
21 *3599:A0 *3433:A1 9.87901e-05
22 *3599:A0 *3582:A0 7.23602e-05
23 *3599:A0 *3599:A1 4.61744e-05
24 *3737:A1 *3737:A0 9.50342e-06
25 *3737:A1 *729:80 3.64998e-06
26 *724:36 *761:10 2.49909e-05
27 *724:49 *3582:A0 7.70758e-05
28 *724:73 *3458:A3 0.00034906
29 *724:73 *3511:A0 8.35213e-05
30 *724:73 *761:10 9.10613e-05
31 *724:115 *3459:A2 0
32 *724:115 *3546:A0 8.64421e-05
33 *3432:A2 *3754:A1 4.82863e-05
34 *3458:S0 *3599:A0 0
35 *3458:S0 *724:49 0
36 *3459:S1 *724:115 0
37 *3465:A *724:32 1.56428e-05
38 *3465:A *724:36 3.112e-05
39 *3511:S *3754:A1 0.00016031
40 *3565:A *724:115 9.8816e-05
41 *3754:S *3754:A1 9.03138e-05
42 *3755:A *724:26 0.000122801
43 *3781:CLK *724:32 4.77719e-05
44 *3781:D *724:32 0.000126471
45 *3789:D *724:115 8.53113e-06
46 *3994:A *3528:A0 8.54612e-05
47 *3994:A *3599:A0 0.000169549
48 *3994:A *724:49 0.000135154
49 *26:22 *3737:A1 0.000194847
50 *388:16 *3754:A1 3.31282e-05
51 *388:16 *724:49 2.47547e-05
52 *388:16 *724:73 0.000742825
53 *452:14 *3737:A1 4.99619e-05
54 *452:27 *724:115 0.000238764
55 *461:53 *3754:A1 0
56 *461:53 *724:73 0
57 *461:143 *3599:A0 5.02217e-05
58 *630:16 *3599:A0 0
59 *630:16 *3754:A1 0
60 *630:16 *724:115 0
61 *662:34 *3737:A1 0.00028447
62 *666:16 *3564:A1 7.23602e-05
63 *668:12 *3528:A0 2.01737e-05
64 *681:44 *3754:A1 0.000283891
65 *681:58 *3754:A1 2.16917e-05
66 *687:78 *3737:A1 4.82919e-05
*RES
1 *4052:X *3737:A1 14.445 
2 *4052:X *724:26 7.225 
3 *724:26 *724:32 4.71 
4 *724:32 *724:36 2.795 
5 *724:36 *3528:A0 5.94 
6 *724:36 *724:49 2.91 
7 *724:49 *3582:A1 4.05 
8 *724:49 *3599:A0 11.1 
9 *724:32 *724:73 11.225 
10 *724:73 *3754:A1 13.96 
11 *724:73 *3511:A1 3.6 
12 *724:26 *724:115 13.225 
13 *724:115 *3546:A1 1.6 
14 *724:115 *3564:A1 9.68 
*END

*D_NET *725 0.00989188
*CONN
*I *3614:A1 I *D sky130_fd_sc_hd__mux2_2
*I *3648:A1 I *D sky130_fd_sc_hd__mux2_2
*I *3683:A1 I *D sky130_fd_sc_hd__mux2_2
*I *3717:A0 I *D sky130_fd_sc_hd__mux2_2
*I *3666:A1 I *D sky130_fd_sc_hd__mux2_2
*I *3700:A1 I *D sky130_fd_sc_hd__mux2_2
*I *3631:A1 I *D sky130_fd_sc_hd__mux2_2
*I *3492:A1 I *D sky130_fd_sc_hd__mux2_2
*I *4053:X O *D sky130_fd_sc_hd__clkdlybuf4s25_1
*CAP
1 *3614:A1 0.000255199
2 *3648:A1 0
3 *3683:A1 0.000508635
4 *3717:A0 0
5 *3666:A1 0.000430465
6 *3700:A1 0
7 *3631:A1 0
8 *3492:A1 9.36711e-05
9 *4053:X 0.000552169
10 *725:85 0.000287378
11 *725:59 0.000870492
12 *725:41 0.000430465
13 *725:39 0.000564635
14 *725:35 0.000636279
15 *725:22 0.000859819
16 *3683:A1 *3683:A0 3.71228e-05
17 *725:39 *3648:A0 7.47284e-05
18 *725:59 *3454:A2 3.50033e-05
19 *725:59 *3700:A0 0.000127416
20 *725:59 *3717:A1 0.000245391
21 *3454:S1 *725:39 7.24779e-05
22 *3454:S1 *725:59 3.78024e-05
23 *3455:S1 *725:39 3.98865e-05
24 *3488:S *3492:A1 0.000662314
25 *3493:A *3492:A1 0.000241483
26 *3610:S *3614:A1 2.0514e-05
27 *3610:S *725:35 0.000262716
28 *3610:S *725:85 2.49909e-05
29 *3632:A *725:22 0.000129899
30 *3648:S *3614:A1 0.000348699
31 *3649:A *725:22 0
32 *3649:A *725:35 0
33 *3684:A *3683:A1 0.000353064
34 *3684:A *725:59 6.6041e-05
35 *350:30 *3683:A1 7.94515e-05
36 *350:30 *725:59 4.28112e-06
37 *516:51 *3666:A1 0.000602601
38 *516:57 *3666:A1 4.82919e-05
39 *525:86 *3683:A1 4.12775e-05
40 *594:10 *725:39 0
41 *594:10 *725:59 0.000123025
42 *633:6 *725:22 7.00889e-06
43 *633:21 *3492:A1 0.000204154
44 *633:21 *725:22 0.000162404
45 *664:34 *725:22 0.000350631
*RES
1 *4053:X *3492:A1 9.17 
2 *4053:X *725:22 12.09 
3 *725:22 *3631:A1 3.6 
4 *725:22 *725:35 7.37 
5 *725:35 *725:39 6.185 
6 *725:39 *725:41 2 
7 *725:41 *3700:A1 1.6 
8 *725:41 *3666:A1 7.57 
9 *725:39 *725:59 9.075 
10 *725:59 *3717:A0 3.6 
11 *725:59 *3683:A1 11.76 
12 *725:35 *725:85 0.45 
13 *725:85 *3648:A1 1.6 
14 *725:85 *3614:A1 5.155 
*END

*D_NET *726 0.0122888
*CONN
*I *4025:A I *D sky130_fd_sc_hd__clkdlybuf4s25_1
*I *3470:S0 I *D sky130_fd_sc_hd__mux4_2
*I *4029:A I *D sky130_fd_sc_hd__clkdlybuf4s25_1
*I *3939:Q O *D sky130_fd_sc_hd__dfrtp_2
*CAP
1 *4025:A 2.08101e-05
2 *3470:S0 0.000721762
3 *4029:A 0
4 *3939:Q 0.000789501
5 *726:31 0.00286384
6 *726:12 0.00291077
7 *3470:S0 *3470:S1 0
8 *3470:S0 *3670:A0 3.65143e-05
9 *3470:S0 *826:8 9.12857e-06
10 *726:12 *727:22 0.000132827
11 *726:31 *3904:D 0
12 *726:31 *3915:D 0
13 *726:31 *3919:D 0
14 *726:31 *727:22 0
15 *3222:B *726:31 0.000118769
16 *3250:A *726:12 0
17 *3256:A1 *726:31 0.000134509
18 *3257:B1 *726:31 0
19 *3258:A *726:31 0.000113623
20 *3258:B *726:31 0.000141592
21 *3259:A *726:31 0
22 *3423:A *726:31 0.000138106
23 *3443:S0 *726:12 8.23457e-05
24 *3443:S0 *726:31 1.08758e-05
25 *3468:S *726:12 0
26 *3472:A2 *3470:S0 0.000185218
27 *3534:A *726:31 9.53428e-06
28 *3552:B *726:31 0.000106976
29 *3553:A *726:31 0.000269292
30 *3688:A *3470:S0 0.000109207
31 *3862:CLK *3470:S0 1.0397e-05
32 *3941:CLK *726:12 4.05127e-05
33 *3982:A *3470:S0 4.66108e-05
34 *3983:A *3470:S0 0.000549563
35 *4031:A *726:31 6.12863e-05
36 *170:39 *726:31 0.000117825
37 *173:60 *726:31 0
38 *173:71 *726:31 0
39 *177:10 *726:12 0
40 *488:65 *3470:S0 7.05574e-05
41 *507:30 *3470:S0 7.94942e-05
42 *562:204 *3470:S0 0
43 *570:10 *3470:S0 2.07184e-05
44 *632:25 *726:31 0.00101879
45 *667:27 *726:12 0
46 *681:22 *726:31 0
47 *683:38 *726:31 0.000312603
48 *683:44 *726:31 0.000121045
49 *683:59 *726:31 0.000189782
50 *698:10 *726:12 0.000108082
51 *699:34 *726:12 0.00014529
52 *699:34 *726:31 4.29365e-05
53 *703:61 *726:31 4.18398e-05
54 *703:98 *726:31 0.000381544
55 *721:10 *726:31 2.47313e-05
*RES
1 *3939:Q *726:12 20.27 
2 *726:12 *4029:A 1.6 
3 *726:12 *726:31 48.07 
4 *726:31 *3470:S0 19.78 
5 *726:31 *4025:A 1.96 
*END

*D_NET *727 0.0126066
*CONN
*I *4023:A I *D sky130_fd_sc_hd__clkdlybuf4s25_1
*I *4020:A I *D sky130_fd_sc_hd__clkdlybuf4s25_1
*I *3470:S1 I *D sky130_fd_sc_hd__mux4_2
*I *3940:Q O *D sky130_fd_sc_hd__dfrtp_2
*CAP
1 *4023:A 0.000662252
2 *4020:A 0
3 *3470:S1 0.000608416
4 *3940:Q 0.00211211
5 *727:28 0.000767832
6 *727:22 0.00160928
7 *3470:S1 *3670:A0 0.000113763
8 *3470:S1 *826:8 4.65246e-05
9 *4023:A *732:27 3.70912e-05
10 *3217:A *727:22 7.63282e-05
11 *3221:A *727:22 0.000540634
12 *3222:B *727:22 0.000353285
13 *3258:A *727:22 0.0002954
14 *3448:A1 *727:22 2.51154e-05
15 *3449:A *727:22 0.000233368
16 *3470:S0 *3470:S1 0
17 *3472:A2 *3470:S1 9.98035e-05
18 *3472:A2 *727:28 4.52787e-05
19 *3472:B1 *727:28 0.000281844
20 *3511:S *727:22 0.000178465
21 *3940:CLK *4023:A 1.79174e-05
22 *3940:RESET_B *4023:A 0.00015017
23 *3953:A *727:22 2.05747e-05
24 *170:39 *727:22 4.61658e-05
25 *352:14 *727:22 0.000178025
26 *352:34 *727:22 4.03577e-05
27 *352:44 *3470:S1 8.65961e-05
28 *352:44 *727:28 0.000112349
29 *442:14 *727:22 0.000493244
30 *461:26 *727:22 2.50702e-05
31 *488:65 *3470:S1 0
32 *507:30 *3470:S1 1.38283e-05
33 *570:10 *727:22 0.000237243
34 *570:10 *727:28 0.000347944
35 *674:8 *3470:S1 0.00140635
36 *683:59 *727:22 0.000986809
37 *691:12 *3470:S1 0.000141606
38 *698:10 *727:22 8.27307e-05
39 *726:12 *727:22 0.000132827
40 *726:31 *727:22 0
*RES
1 *3940:Q *727:22 46.315 
2 *727:22 *727:28 7.325 
3 *727:28 *3470:S1 22.82 
4 *727:28 *4020:A 1.6 
5 *3940:Q *4023:A 10.82 
*END

*D_NET *728 0.00158979
*CONN
*I *4017:A I *D sky130_fd_sc_hd__clkdlybuf4s25_1
*I *4018:A I *D sky130_fd_sc_hd__clkdlybuf4s25_1
*I *3941:Q O *D sky130_fd_sc_hd__dfrtp_2
*CAP
1 *4017:A 0.000424923
2 *4018:A 0
3 *3941:Q 3.72843e-05
4 *728:8 0.000462207
5 *4017:A *3941:D 2.8185e-05
6 *728:8 *3941:D 5.20339e-05
7 *3941:RESET_B *4017:A 8.49205e-05
8 *3941:RESET_B *728:8 7.6506e-05
9 *687:12 *4017:A 7.76301e-05
10 *687:24 *4017:A 0.000264569
11 *715:12 *4017:A 8.15342e-05
*RES
1 *3941:Q *728:8 2.755 
2 *728:8 *4018:A 1.6 
3 *728:8 *4017:A 14.66 
*END

*D_NET *729 0.0217594
*CONN
*I *3260:A I *D sky130_fd_sc_hd__xor2_2
*I *3230:A I *D sky130_fd_sc_hd__inv_2
*I *3433:A1 I *D sky130_fd_sc_hd__a21bo_2
*I *3477:B1 I *D sky130_fd_sc_hd__o21a_2
*I *3453:B1 I *D sky130_fd_sc_hd__o21a_2
*I *3473:A1 I *D sky130_fd_sc_hd__a21bo_2
*I *3229:C I *D sky130_fd_sc_hd__nand4_4
*I *3942:Q O *D sky130_fd_sc_hd__dfrtp_2
*CAP
1 *3260:A 3.07736e-05
2 *3230:A 0
3 *3433:A1 0.000284162
4 *3477:B1 0
5 *3453:B1 0.000367143
6 *3473:A1 0.00135643
7 *3229:C 0
8 *3942:Q 6.27092e-05
9 *729:86 0.00130111
10 *729:80 0.00366824
11 *729:54 0.00312089
12 *729:46 0.00077722
13 *729:20 0.0025258
14 *729:6 0.00130774
15 *3260:A *874:21 1.56428e-05
16 *3453:B1 *3544:A0 0.000387122
17 *3453:B1 *3562:A0 0.000187424
18 *3453:B1 *768:10 0.000184717
19 *3453:B1 *776:8 7.61468e-05
20 *3473:A1 *858:10 3.72916e-05
21 *729:20 *873:8 0.000231564
22 *729:46 *873:8 0.000128639
23 *729:54 *873:8 0.000113082
24 *729:80 *3442:A0 0.000113007
25 *729:80 *3442:A2 0.000144591
26 *729:86 *3544:A0 3.12855e-05
27 *3229:A *729:20 4.42148e-05
28 *3231:A1 *729:54 4.60814e-05
29 *3231:A2 *729:54 4.90227e-05
30 *3231:B1 *729:54 2.89299e-05
31 *3231:B1 *729:80 4.89395e-05
32 *3255:B *729:20 0
33 *3366:A1_N *3473:A1 0.000132406
34 *3369:A1 *729:20 0.000175081
35 *3372:A1 *729:20 0.00024886
36 *3423:A *729:80 8.53011e-05
37 *3433:A2 *3433:A1 8.57024e-05
38 *3444:A0 *729:80 5.03424e-05
39 *3453:A2 *3453:B1 0.000143443
40 *3473:B1_N *3473:A1 4.82863e-05
41 *3477:A2 *729:86 3.18192e-05
42 *3544:A1 *3453:B1 2.88689e-05
43 *3582:A1 *729:80 5.36384e-06
44 *3582:S *729:80 0.000209134
45 *3583:A *3433:A1 5.7344e-05
46 *3583:A *729:86 1.83756e-05
47 *3597:S *3453:B1 4.82919e-05
48 *3599:A0 *3433:A1 9.87901e-05
49 *3600:A *3433:A1 4.66826e-05
50 *3737:A1 *729:80 3.64998e-06
51 *3751:A *729:80 8.52972e-05
52 *3878:CLK *3473:A1 8.6076e-05
53 *3878:D *3473:A1 5.14454e-05
54 *3883:D *729:80 2.69217e-05
55 *3904:CLK *729:54 0.000145288
56 *3909:RESET_B *729:46 0
57 *3909:RESET_B *729:54 0
58 *3940:RESET_B *3473:A1 0.000329717
59 *3940:RESET_B *729:20 5.0096e-05
60 *3941:CLK *729:20 3.06569e-06
61 *3942:CLK *729:6 4.9253e-06
62 *3942:CLK *729:20 0
63 *3994:A *3433:A1 0.000427496
64 *26:22 *729:80 6.77667e-05
65 *169:10 *729:20 0
66 *169:35 *729:20 0.000250609
67 *169:48 *729:20 6.85516e-05
68 *174:10 *729:20 0
69 *175:22 *729:46 0
70 *178:6 *729:20 1.34618e-05
71 *352:58 *3453:B1 3.45213e-05
72 *413:75 *3473:A1 6.1357e-05
73 *452:14 *729:80 0.000243716
74 *452:37 *3433:A1 4.10196e-05
75 *461:53 *3433:A1 0.000425829
76 *461:143 *3433:A1 0.000327698
77 *563:61 *729:54 2.69217e-05
78 *642:24 *729:6 8.88523e-06
79 *642:24 *729:20 7.27298e-06
80 *662:34 *729:80 0.000115482
81 *675:10 *3473:A1 0.000322953
82 *675:10 *729:20 5.13924e-05
83 *683:30 *729:20 9.78714e-05
84 *687:24 *729:20 0.000196084
*RES
1 *3942:Q *729:6 2.395 
2 *729:6 *729:20 28.08 
3 *729:20 *3229:C 3.6 
4 *729:20 *3473:A1 26.04 
5 *729:6 *729:46 3.635 
6 *729:46 *729:54 11.255 
7 *729:54 *729:80 38.8 
8 *729:80 *729:86 12.71 
9 *729:86 *3453:B1 14.205 
10 *729:86 *3477:B1 3.6 
11 *729:80 *3433:A1 15.86 
12 *729:54 *3230:A 1.6 
13 *729:46 *3260:A 4.05 
*END

*D_NET *730 0.00844248
*CONN
*I *3261:A I *D sky130_fd_sc_hd__xor2_2
*I *3918:D I *D sky130_fd_sc_hd__dfrtp_2
*I *3234:A I *D sky130_fd_sc_hd__xnor2_4
*I *3943:Q O *D sky130_fd_sc_hd__dfrtp_2
*CAP
1 *3261:A 0
2 *3918:D 0.000924216
3 *3234:A 2.56003e-05
4 *3943:Q 0.000848307
5 *730:31 0.0012477
6 *730:16 0.0011974
7 *3918:D *3905:D 0.000979911
8 *3918:D *3916:D 0
9 *3918:D *3917:D 0
10 *3918:D *3937:D 0
11 *3918:D *886:10 2.36269e-05
12 *3918:D *887:10 2.42236e-05
13 *3918:D *897:10 2.60288e-05
14 *730:16 *895:10 0
15 *730:31 *3938:D 0.000176096
16 *730:31 *897:10 6.78126e-05
17 *730:31 *897:19 0.000324825
18 *730:31 *898:10 7.36562e-05
19 *3414:D *3918:D 4.99619e-05
20 *3415:A *3918:D 0
21 *3906:CLK *3918:D 0.000170343
22 *3916:RESET_B *3918:D 0.000354202
23 *3917:CLK *3918:D 0.000133535
24 *3918:CLK *3918:D 0.000123862
25 *3928:RESET_B *3918:D 4.11281e-05
26 *3943:CLK *730:31 4.47504e-06
27 *564:10 *3918:D 7.32933e-05
28 *564:10 *730:31 6.78126e-05
29 *564:16 *3918:D 0.000119022
30 *564:18 *3918:D 4.19797e-05
31 *564:71 *730:31 2.96383e-05
32 *604:8 *3918:D 0.000452923
33 *642:24 *730:16 3.23698e-05
34 *711:6 *730:16 7.38927e-05
35 *712:14 *730:16 4.88478e-05
36 *712:24 *3234:A 2.49909e-05
37 *712:24 *730:16 0.000283627
38 *716:56 *3918:D 0.000134975
39 *716:68 *3918:D 0.000242203
*RES
1 *3943:Q *730:16 16.265 
2 *730:16 *3234:A 2.05 
3 *730:16 *730:31 11.42 
4 *730:31 *3918:D 31.485 
5 *730:31 *3261:A 3.6 
*END

*D_NET *731 0.00244206
*CONN
*I *3362:B I *D sky130_fd_sc_hd__nand3_2
*I *3371:D I *D sky130_fd_sc_hd__nand4_2
*I *3361:A1 I *D sky130_fd_sc_hd__a32o_2
*I *3365:B I *D sky130_fd_sc_hd__nand2_2
*I *3939:D I *D sky130_fd_sc_hd__dfrtp_2
*I *3250:Y O *D sky130_fd_sc_hd__nor2_8
*CAP
1 *3362:B 0.000179047
2 *3371:D 3.74961e-05
3 *3361:A1 0.00014402
4 *3365:B 0
5 *3939:D 0.000307675
6 *3250:Y 0
7 *731:28 0.000310258
8 *731:19 0.000204057
9 *731:4 0.000203944
10 *3361:A3 *3361:A1 8.40213e-05
11 *3361:B1 *3361:A1 4.00541e-06
12 *3362:A *3362:B 0
13 *3362:C *3361:A1 1.46828e-05
14 *3365:A *3371:D 2.15986e-05
15 *3365:A *731:28 2.23901e-05
16 *3940:RESET_B *3939:D 0.000341546
17 *4022:A *3361:A1 4.66108e-05
18 *294:10 *3362:B 4.00541e-06
19 *297:12 *3361:A1 0.00011686
20 *565:18 *3362:B 6.12863e-05
21 *565:26 *3362:B 3.24154e-05
22 *687:12 *3361:A1 0.00011686
23 *715:12 *3939:D 0.000189284
*RES
1 *3250:Y *731:4 1.6 
2 *731:4 *3939:D 9.98 
3 *731:4 *731:19 1.14 
4 *731:19 *3365:B 1.6 
5 *731:19 *731:28 1.845 
6 *731:28 *3361:A1 8.825 
7 *731:28 *3371:D 2.41 
8 *3939:D *3362:B 6.08 
*END

*D_NET *732 0.00349441
*CONN
*I *3360:B1 I *D sky130_fd_sc_hd__a21o_4
*I *3359:A I *D sky130_fd_sc_hd__nand3_2
*I *3940:D I *D sky130_fd_sc_hd__dfrtp_2
*I *3221:Y O *D sky130_fd_sc_hd__nand2_4
*CAP
1 *3360:B1 6.11904e-05
2 *3359:A 8.30188e-05
3 *3940:D 0
4 *3221:Y 0.000250145
5 *732:27 0.000721795
6 *732:12 0.000827732
7 *3352:A *3359:A 9.09788e-06
8 *3352:C *3359:A 0.000134878
9 *3940:CLK *732:27 0.000418265
10 *4023:A *732:27 3.70912e-05
11 *4027:A *732:12 8.70018e-05
12 *178:27 *3359:A 1.18308e-05
13 *292:10 *732:27 0.000272272
14 *675:10 *732:12 8.52902e-05
15 *681:10 *732:12 0.000119756
16 *687:24 *732:12 0.000375041
*RES
1 *3221:Y *732:12 12.215 
2 *732:12 *3940:D 1.6 
3 *732:12 *732:27 10.605 
4 *732:27 *3359:A 7.49 
5 *732:27 *3360:B1 2.395 
*END

*D_NET *733 0.00576919
*CONN
*I *3374:A I *D sky130_fd_sc_hd__and3_2
*I *3386:B1 I *D sky130_fd_sc_hd__a21o_2
*I *3941:D I *D sky130_fd_sc_hd__dfrtp_2
*I *3227:Y O *D sky130_fd_sc_hd__inv_2
*CAP
1 *3374:A 4.42218e-05
2 *3386:B1 0.000104321
3 *3941:D 0.000903178
4 *3227:Y 0.000229051
5 *733:37 0.000310376
6 *733:12 0.00129406
7 *3370:C *733:37 8.41307e-05
8 *3372:A2 *3941:D 0.000202848
9 *3372:A2 *733:37 3.77879e-05
10 *3372:C1 *733:12 0.000149741
11 *3374:B *3374:A 0.000118527
12 *3376:A1 *3374:A 0.000139245
13 *3386:A1 *3386:B1 7.73858e-05
14 *3386:A1 *733:37 4.66108e-05
15 *3386:A2 *3386:B1 8.65905e-05
16 *3941:RESET_B *3941:D 0.000757635
17 *3941:RESET_B *733:12 0
18 *3941:RESET_B *733:37 0.000156217
19 *4017:A *3941:D 2.8185e-05
20 *176:27 *733:37 0.000308582
21 *281:38 *3374:A 2.92496e-05
22 *282:14 *3386:B1 0.00023468
23 *282:14 *733:37 5.30022e-05
24 *282:31 *3386:B1 4.00541e-06
25 *282:31 *733:37 0.000271694
26 *304:22 *733:37 4.58296e-05
27 *318:8 *3386:B1 0
28 *728:8 *3941:D 5.20339e-05
*RES
1 *3227:Y *733:12 9.56 
2 *733:12 *3941:D 17.32 
3 *733:12 *733:37 6.09 
4 *733:37 *3386:B1 4.84 
5 *733:37 *3374:A 7.235 
*END

*D_NET *734 0.00121818
*CONN
*I *3942:D I *D sky130_fd_sc_hd__dfrtp_2
*I *3233:Y O *D sky130_fd_sc_hd__inv_2
*CAP
1 *3942:D 0.000377082
2 *3233:Y 0.000377082
3 *3232:B *3942:D 4.77719e-05
4 *3233:A *3942:D 3.04704e-05
5 *3909:RESET_B *3942:D 0
6 *3942:CLK *3942:D 6.5172e-05
7 *175:22 *3942:D 0
8 *180:20 *3942:D 0.000320601
9 *712:24 *3942:D 0
*RES
1 *3233:Y *3942:D 13.755 
*END

*D_NET *735 0.00129817
*CONN
*I *3395:B I *D sky130_fd_sc_hd__xor2_2
*I *3943:D I *D sky130_fd_sc_hd__dfrtp_2
*I *3234:Y O *D sky130_fd_sc_hd__xnor2_4
*CAP
1 *3395:B 0.000129635
2 *3943:D 5.65414e-05
3 *3234:Y 0.000186176
4 *3395:B *3357:B 0.000339879
5 *3395:B *3395:A 0.000161523
6 *3395:B *898:10 0
7 *3943:D *898:10 0.000100544
8 *3943:CLK *3943:D 0.00018471
9 *15:30 *3395:B 0.000139163
*RES
1 *3234:Y *3943:D 9.345 
2 *3234:Y *3395:B 10.2725 
*END

*D_NET *736 0.00156088
*CONN
*I *3914:D I *D sky130_fd_sc_hd__dfrtp_2
*I *3934:Q O *D sky130_fd_sc_hd__dfrtp_2
*CAP
1 *3914:D 0.000720195
2 *3934:Q 0.000720195
3 *3914:D *3904:D 0
4 *3914:D *3935:D 3.68596e-05
5 *3934:RESET_B *3914:D 4.24575e-05
6 *3935:RESET_B *3914:D 4.11729e-05
*RES
1 *3934:Q *3914:D 16.65 
*END

*D_NET *737 0.00162033
*CONN
*I *3915:D I *D sky130_fd_sc_hd__dfrtp_2
*I *3935:Q O *D sky130_fd_sc_hd__dfrtp_2
*CAP
1 *3915:D 0.000446219
2 *3935:Q 0.000446219
3 *3915:D *3904:D 0.000473635
4 *3915:D *3919:D 6.5525e-05
5 *681:22 *3915:D 0.000188727
6 *726:31 *3915:D 0
*RES
1 *3935:Q *3915:D 15.87 
*END

*D_NET *738 0.00201453
*CONN
*I *3916:D I *D sky130_fd_sc_hd__dfrtp_2
*I *3936:Q O *D sky130_fd_sc_hd__dfrtp_2
*CAP
1 *3916:D 0.000730054
2 *3936:Q 0.000730054
3 *3916:D *3905:D 0
4 *3916:D *3912:D 0
5 *3916:D *3937:D 0.000149722
6 *3449:A *3916:D 0.000114492
7 *3907:RESET_B *3916:D 0
8 *3918:D *3916:D 0
9 *3936:RESET_B *3916:D 0
10 *191:10 *3916:D 0
11 *607:10 *3916:D 0.000141592
12 *607:18 *3916:D 0.000148615
13 *607:22 *3916:D 0
*RES
1 *3936:Q *3916:D 20.625 
*END

*D_NET *739 0.00213228
*CONN
*I *3917:D I *D sky130_fd_sc_hd__dfrtp_2
*I *3937:Q O *D sky130_fd_sc_hd__dfrtp_2
*CAP
1 *3917:D 0.000812961
2 *3937:Q 0.000812961
3 *3917:D *3906:D 0.000273001
4 *3917:D *3921:D 0.000149478
5 *3449:A *3917:D 2.75145e-05
6 *3906:CLK *3917:D 2.75254e-05
7 *3906:RESET_B *3917:D 0
8 *3916:RESET_B *3917:D 0
9 *3917:RESET_B *3917:D 2.88357e-05
10 *3918:D *3917:D 0
11 *564:18 *3917:D 0
12 *710:16 *3917:D 0
*RES
1 *3937:Q *3917:D 22.275 
*END

*D_NET *740 0.0015643
*CONN
*I *3420:A0 I *D sky130_fd_sc_hd__mux4_2
*I *3484:A0 I *D sky130_fd_sc_hd__mux2_2
*I *3760:Q O *D sky130_fd_sc_hd__dfxtp_2
*CAP
1 *3420:A0 0.000214822
2 *3484:A0 0.000109314
3 *3760:Q 0
4 *740:6 0.000324136
5 *3420:S1 *3420:A0 1.08758e-05
6 *3422:A1 *3420:A0 0.000311282
7 *3440:A1 *3420:A0 9.24049e-05
8 *3440:A1 *3484:A0 0.000129226
9 *3484:A1 *3484:A0 9.14049e-05
10 *3485:A *3484:A0 0
11 *3498:S *3484:A0 9.50342e-06
12 *625:50 *3420:A0 0.000154481
13 *625:50 *3484:A0 0.000116853
*RES
1 *3760:Q *740:6 3.6 
2 *740:6 *3484:A0 6.51 
3 *740:6 *3420:A0 9.045 
*END

*D_NET *741 0.00131348
*CONN
*I *3430:A0 I *D sky130_fd_sc_hd__mux4_2
*I *3486:A0 I *D sky130_fd_sc_hd__mux2_2
*I *3761:Q O *D sky130_fd_sc_hd__dfxtp_2
*CAP
1 *3430:A0 7.51361e-05
2 *3486:A0 0.000117747
3 *3761:Q 0.000137709
4 *741:6 0.000330592
5 *3430:A0 *3608:A0 1.15688e-05
6 *3430:A0 *797:10 4.43871e-06
7 *3430:S0 *3430:A0 0.000231564
8 *3431:A2 *3430:A0 0.000183043
9 *3487:A *3430:A0 2.84224e-05
10 *3976:A *3430:A0 1.74867e-05
11 *488:27 *3486:A0 6.58339e-05
12 *488:27 *741:6 0.000109939
*RES
1 *3761:Q *741:6 3.43 
2 *741:6 *3486:A0 3.1 
3 *741:6 *3430:A0 8.6675 
*END

*D_NET *742 0.00192929
*CONN
*I *3438:A0 I *D sky130_fd_sc_hd__mux4_2
*I *3488:A0 I *D sky130_fd_sc_hd__mux2_2
*I *3762:Q O *D sky130_fd_sc_hd__dfxtp_2
*CAP
1 *3438:A0 0.00013876
2 *3488:A0 0.000165653
3 *3762:Q 0.00020744
4 *742:8 0.000511854
5 *3438:A0 *3438:A1 0.000122325
6 *3438:A0 *798:8 1.1561e-05
7 *3439:A1 *3438:A0 7.19352e-05
8 *3488:A1 *3488:A0 0
9 *3489:A *3438:A0 0.000244274
10 *3489:A *3488:A0 0.000243165
11 *3644:A1 *742:8 8.52972e-05
12 *4061:A *3488:A0 0
13 *664:48 *3438:A0 0.000104309
14 *664:48 *742:8 2.27133e-05
*RES
1 *3762:Q *742:8 6.12 
2 *742:8 *3488:A0 7.275 
3 *742:8 *3438:A0 7.905 
*END

*D_NET *743 0.00255329
*CONN
*I *3446:A0 I *D sky130_fd_sc_hd__mux4_2
*I *3490:A0 I *D sky130_fd_sc_hd__mux2_2
*I *3763:Q O *D sky130_fd_sc_hd__dfxtp_2
*CAP
1 *3446:A0 0.000272852
2 *3490:A0 0.000258049
3 *3763:Q 0.000202641
4 *743:8 0.000733543
5 *3446:A0 *799:12 0.000312512
6 *3447:A1 *3446:A0 0
7 *3490:A1 *3490:A0 0.000201503
8 *3763:CLK *3490:A0 0.000138808
9 *3763:D *3446:A0 0
10 *3763:D *3490:A0 7.79249e-05
11 *619:21 *3446:A0 0
12 *619:94 *3446:A0 0.000355453
*RES
1 *3763:Q *743:8 4.48 
2 *743:8 *3490:A0 6.535 
3 *743:8 *3446:A0 12.59 
*END

*D_NET *744 0.00153523
*CONN
*I *3455:A0 I *D sky130_fd_sc_hd__mux4_2
*I *3492:A0 I *D sky130_fd_sc_hd__mux2_2
*I *3764:Q O *D sky130_fd_sc_hd__dfxtp_2
*CAP
1 *3455:A0 0.000106135
2 *3492:A0 0.000261201
3 *3764:Q 0.000265169
4 *744:8 0.000632504
5 *3455:A0 *3455:A1 4.82863e-05
6 *3455:A0 *800:8 4.4796e-05
7 *3492:A0 *800:8 0.00010163
8 *3455:S0 *3455:A0 0
9 *3456:A1 *3455:A0 7.55105e-05
10 *3615:A *3455:A0 0
11 *3764:D *3492:A0 0
*RES
1 *3764:Q *744:8 6.465 
2 *744:8 *3492:A0 8.295 
3 *744:8 *3455:A0 5.94 
*END

*D_NET *745 0.000986896
*CONN
*I *3462:A0 I *D sky130_fd_sc_hd__mux4_2
*I *3494:A0 I *D sky130_fd_sc_hd__mux2_2
*I *3765:Q O *D sky130_fd_sc_hd__dfxtp_2
*CAP
1 *3462:A0 6.39649e-05
2 *3494:A0 0.000165372
3 *3765:Q 9.77026e-05
4 *745:8 0.00032704
5 *3446:S0 *3462:A0 0.000113222
6 *3446:S0 *3494:A0 7.41798e-05
7 *3446:S0 *745:8 3.33839e-05
8 *634:31 *3462:A0 6.37427e-05
9 *672:32 *3494:A0 5.31158e-06
10 *692:38 *3462:A0 4.29758e-05
*RES
1 *3765:Q *745:8 4.74 
2 *745:8 *3494:A0 6.51 
3 *745:8 *3462:A0 5.49 
*END

*D_NET *746 0.00211175
*CONN
*I *3496:A0 I *D sky130_fd_sc_hd__mux2_2
*I *3470:A0 I *D sky130_fd_sc_hd__mux4_2
*I *3766:Q O *D sky130_fd_sc_hd__dfxtp_2
*CAP
1 *3496:A0 0.00056171
2 *3470:A0 7.01168e-05
3 *3766:Q 8.14688e-05
4 *746:6 0.000713296
5 *3470:A0 *3470:A1 9.37731e-05
6 *3496:A1 *3496:A0 0.000491778
7 *3619:A *746:6 5.83121e-06
8 *488:65 *3470:A0 9.37731e-05
*RES
1 *3766:Q *746:6 2.395 
2 *746:6 *3470:A0 7.175 
3 *746:6 *3496:A0 8.62 
*END

*D_NET *747 0.0016789
*CONN
*I *3498:A0 I *D sky130_fd_sc_hd__mux2_2
*I *3479:A0 I *D sky130_fd_sc_hd__mux4_2
*I *3767:Q O *D sky130_fd_sc_hd__dfxtp_2
*CAP
1 *3498:A0 0.000148709
2 *3479:A0 0.000284383
3 *3767:Q 0
4 *747:4 0.000433093
5 *3479:A0 *3479:A1 8.23457e-05
6 *3479:S0 *3498:A0 0.000133862
7 *3479:S1 *3479:A0 7.76351e-05
8 *3498:S *3498:A0 1.14192e-05
9 *3499:A *3498:A0 2.49909e-05
10 *3767:D *3479:A0 8.23457e-05
11 *719:12 *3479:A0 7.06865e-05
12 *719:12 *3498:A0 0.000281654
13 *719:68 *3479:A0 4.77757e-05
*RES
1 *3767:Q *747:4 1.6 
2 *747:4 *3479:A0 9.44 
3 *747:4 *3498:A0 9.47 
*END

*D_NET *748 0.00116941
*CONN
*I *3416:A2 I *D sky130_fd_sc_hd__mux4_2
*I *3501:A0 I *D sky130_fd_sc_hd__mux2_2
*I *3768:Q O *D sky130_fd_sc_hd__dfxtp_2
*CAP
1 *3416:A2 8.41791e-05
2 *3501:A0 0.000234068
3 *3768:Q 2.88696e-05
4 *748:8 0.000347116
5 *3501:A1 *3501:A0 8.52883e-05
6 *3518:A0 *3416:A2 0
7 *3518:S *3501:A0 0
8 *3744:S *3416:A2 0.000187766
9 *3744:S *3501:A0 0.000183745
10 *626:18 *748:8 1.83756e-05
*RES
1 *3768:Q *748:8 4.05 
2 *748:8 *3501:A0 7.92 
3 *748:8 *3416:A2 5.745 
*END

*D_NET *749 0.00258941
*CONN
*I *3503:A0 I *D sky130_fd_sc_hd__mux2_2
*I *3426:A2 I *D sky130_fd_sc_hd__mux4_2
*I *3769:Q O *D sky130_fd_sc_hd__dfxtp_2
*CAP
1 *3503:A0 0.000161429
2 *3426:A2 0
3 *3769:Q 0.000198833
4 *749:10 0.000360262
5 *3433:A2 *749:10 0.000142076
6 *3476:S0 *749:10 0.000105175
7 *3747:A *3503:A0 0.000424356
8 *3747:A *749:10 0.000235915
9 *3881:D *3503:A0 0.000414729
10 *3881:D *749:10 0.000299041
11 *4026:A *3503:A0 6.33103e-05
12 *413:85 *3503:A0 0.000118081
13 *413:91 *3503:A0 4.82863e-05
14 *562:162 *749:10 1.79174e-05
*RES
1 *3769:Q *749:10 10.02 
2 *749:10 *3426:A2 3.6 
3 *749:10 *3503:A0 10.035 
*END

*D_NET *750 0.00164341
*CONN
*I *3434:A2 I *D sky130_fd_sc_hd__mux4_2
*I *3505:A0 I *D sky130_fd_sc_hd__mux2_2
*I *3770:Q O *D sky130_fd_sc_hd__dfxtp_2
*CAP
1 *3434:A2 0.000354329
2 *3505:A0 0
3 *3770:Q 0.000273816
4 *750:12 0.000628144
5 *3505:S *3434:A2 0.000196045
6 *3506:A *750:12 0.000100766
7 *668:51 *750:12 9.03081e-05
*RES
1 *3770:Q *750:12 9.245 
2 *750:12 *3505:A0 1.6 
3 *750:12 *3434:A2 5.86 
*END

*D_NET *751 0.00196433
*CONN
*I *3507:A0 I *D sky130_fd_sc_hd__mux2_2
*I *3442:A2 I *D sky130_fd_sc_hd__mux4_2
*I *3771:Q O *D sky130_fd_sc_hd__dfxtp_2
*CAP
1 *3507:A0 1.46925e-05
2 *3442:A2 0.000276287
3 *3771:Q 0.000156812
4 *751:10 0.000447791
5 *3473:B1_N *3442:A2 0
6 *3473:B1_N *751:10 0
7 *3507:A1 *3507:A0 1.47256e-05
8 *3507:S *3507:A0 5.83121e-06
9 *3734:A *3442:A2 3.12855e-05
10 *3751:A *3442:A2 2.93439e-05
11 *3771:CLK *751:10 8.23457e-05
12 *3883:D *3442:A2 0.000136749
13 *413:54 *3442:A2 0.000297332
14 *413:75 *3507:A0 2.75145e-05
15 *413:75 *751:10 9.17274e-05
16 *620:33 *3442:A2 7.30547e-05
17 *620:33 *751:10 0.000134245
18 *729:80 *3442:A2 0.000144591
*RES
1 *3771:Q *751:10 6.72 
2 *751:10 *3442:A2 10.335 
3 *751:10 *3507:A0 4.05 
*END

*D_NET *752 0.00148357
*CONN
*I *3450:A2 I *D sky130_fd_sc_hd__mux4_2
*I *3509:A0 I *D sky130_fd_sc_hd__mux2_2
*I *3772:Q O *D sky130_fd_sc_hd__dfxtp_2
*CAP
1 *3450:A2 0.000363724
2 *3509:A0 0.000100079
3 *3772:Q 0
4 *752:4 0.000463804
5 *3450:S0 *3450:A2 2.58393e-05
6 *3856:CLK *3450:A2 0.000152884
7 *3876:D *3450:A2 8.73389e-06
8 *4047:A *3509:A0 6.30072e-05
9 *4098:A *3450:A2 0.000203876
10 *609:25 *3450:A2 8.42359e-05
11 *609:25 *3509:A0 1.7386e-05
*RES
1 *3772:Q *752:4 1.6 
2 *752:4 *3509:A0 7.43 
3 *752:4 *3450:A2 11.555 
*END

*D_NET *753 0.00189139
*CONN
*I *3458:A2 I *D sky130_fd_sc_hd__mux4_2
*I *3511:A0 I *D sky130_fd_sc_hd__mux2_2
*I *3773:Q O *D sky130_fd_sc_hd__dfxtp_2
*CAP
1 *3458:A2 0.000297584
2 *3511:A0 0.000125853
3 *3773:Q 0
4 *753:4 0.000423437
5 *3511:A0 *3458:A3 1.26548e-05
6 *3995:A *3458:A2 8.65905e-05
7 *461:53 *3511:A0 1.26548e-05
8 *562:37 *3511:A0 3.74939e-05
9 *576:12 *3511:A0 0.000273008
10 *612:16 *3458:A2 0.000451957
11 *612:16 *3511:A0 7.23602e-05
12 *612:51 *3458:A2 1.42807e-05
13 *630:16 *3458:A2 0
14 *724:73 *3511:A0 8.35213e-05
*RES
1 *3773:Q *753:4 1.6 
2 *753:4 *3511:A0 9.47 
3 *753:4 *3458:A2 11.675 
*END

*D_NET *754 0.00211398
*CONN
*I *3466:A2 I *D sky130_fd_sc_hd__mux4_2
*I *3513:A0 I *D sky130_fd_sc_hd__mux2_2
*I *3774:Q O *D sky130_fd_sc_hd__dfxtp_2
*CAP
1 *3466:A2 0.000497875
2 *3513:A0 0
3 *3774:Q 0.000117535
4 *754:10 0.00061541
5 *3466:A2 *3466:A3 0.000311288
6 *3466:A2 *3530:A1 0
7 *3513:A1 *3466:A2 0.000111088
8 *3513:A1 *754:10 4.13171e-05
9 *3530:S *3466:A2 0.000163985
10 *3530:S *754:10 0.000136877
11 *3970:A *754:10 5.30673e-05
12 *4100:A *3466:A2 0
13 *452:117 *754:10 0
14 *722:33 *3466:A2 6.55406e-05
*RES
1 *3774:Q *754:10 6.03 
2 *754:10 *3513:A0 3.6 
3 *754:10 *3466:A2 12.33 
*END

*D_NET *755 0.00180855
*CONN
*I *3515:A0 I *D sky130_fd_sc_hd__mux2_2
*I *3474:A2 I *D sky130_fd_sc_hd__mux4_2
*I *3775:Q O *D sky130_fd_sc_hd__dfxtp_2
*CAP
1 *3515:A0 0.000163487
2 *3474:A2 3.69588e-05
3 *3775:Q 0.000144617
4 *755:10 0.000345062
5 *3474:A2 *3474:A3 4.66108e-05
6 *3515:A0 *3758:A0 4.66108e-05
7 *3515:S *3515:A0 0.000122797
8 *3759:A *3515:A0 0.000289026
9 *3759:A *755:10 0.000183731
10 *613:12 *755:10 6.58423e-05
11 *668:41 *3515:A0 0.000127373
12 *668:41 *755:10 0.000185405
13 *720:16 *3515:A0 4.36422e-06
14 *720:23 *3515:A0 4.6668e-05
*RES
1 *3775:Q *755:10 6.885 
2 *755:10 *3474:A2 4.05 
3 *755:10 *3515:A0 8.1 
*END

*D_NET *756 0.00101672
*CONN
*I *3518:A1 I *D sky130_fd_sc_hd__mux2_2
*I *3416:A3 I *D sky130_fd_sc_hd__mux4_2
*I *3776:Q O *D sky130_fd_sc_hd__dfxtp_2
*CAP
1 *3518:A1 0.000287824
2 *3416:A3 0
3 *3776:Q 0.000116387
4 *756:12 0.000404211
5 *3416:S1 *756:12 9.30717e-05
6 *3518:S *3518:A1 1.77665e-05
7 *3744:S *756:12 4.94326e-05
8 *584:16 *756:12 4.80285e-05
*RES
1 *3776:Q *756:12 7.52 
2 *756:12 *3416:A3 1.6 
3 *756:12 *3518:A1 4.825 
*END

*D_NET *757 0.000982539
*CONN
*I *3426:A3 I *D sky130_fd_sc_hd__mux4_2
*I *3520:A1 I *D sky130_fd_sc_hd__mux2_2
*I *3777:Q O *D sky130_fd_sc_hd__dfxtp_2
*CAP
1 *3426:A3 0
2 *3520:A1 0.000299805
3 *3777:Q 3.80338e-05
4 *757:10 0.000337839
5 *3433:A2 *757:10 0.000137642
6 *3435:S0 *3520:A1 2.99026e-05
7 *686:10 *757:10 0.000139316
*RES
1 *3777:Q *757:10 7.235 
2 *757:10 *3520:A1 5.29 
3 *757:10 *3426:A3 1.6 
*END

*D_NET *758 0.00165257
*CONN
*I *3522:A1 I *D sky130_fd_sc_hd__mux2_2
*I *3434:A3 I *D sky130_fd_sc_hd__mux4_2
*I *3778:Q O *D sky130_fd_sc_hd__dfxtp_2
*CAP
1 *3522:A1 0.000168967
2 *3434:A3 0.000284719
3 *3778:Q 0.000453686
4 *3434:S1 *3434:A3 0.000263731
5 *3778:CLK *3434:A3 3.61751e-05
6 *4015:A *3434:A3 0.000263731
7 *413:108 *3522:A1 7.1624e-05
8 *614:6 *3434:A3 3.92228e-05
9 *622:23 *3522:A1 7.07148e-05
*RES
1 *3778:Q *3434:A3 12.885 
2 *3778:Q *3522:A1 9.66 
*END

*D_NET *759 0.00239816
*CONN
*I *3524:A1 I *D sky130_fd_sc_hd__mux2_2
*I *3442:A3 I *D sky130_fd_sc_hd__mux4_2
*I *3779:Q O *D sky130_fd_sc_hd__dfxtp_2
*CAP
1 *3524:A1 0.00025524
2 *3442:A3 0.000184924
3 *3779:Q 0
4 *759:6 0.000440164
5 *3444:A1 *3524:A1 0
6 *3875:CLK *3442:A3 0.000223825
7 *4049:A *3442:A3 0.000124806
8 *422:29 *3442:A3 0.000144227
9 *422:29 *3524:A1 0.000144558
10 *422:39 *3524:A1 4.82863e-05
11 *442:24 *3524:A1 1.22676e-05
12 *601:52 *3442:A3 9.54469e-05
13 *666:10 *3524:A1 4.43682e-05
14 *687:54 *3442:A3 0.000670544
15 *687:54 *3524:A1 9.50342e-06
*RES
1 *3779:Q *759:6 3.6 
2 *759:6 *3442:A3 11.355 
3 *759:6 *3524:A1 8.595 
*END

*D_NET *760 0.00319812
*CONN
*I *3450:A3 I *D sky130_fd_sc_hd__mux4_2
*I *3526:A1 I *D sky130_fd_sc_hd__mux2_2
*I *3780:Q O *D sky130_fd_sc_hd__dfxtp_2
*CAP
1 *3450:A3 8.28202e-05
2 *3526:A1 0.000491468
3 *3780:Q 0.00050341
4 *760:8 0.0010777
5 *3441:A *3526:A1 0
6 *3526:A0 *3450:A3 7.23602e-05
7 *3526:A0 *3526:A1 0.00039023
8 *3526:S *3526:A1 5.05521e-05
9 *3856:CLK *3526:A1 0
10 *4098:A *3450:A3 0.000174065
11 *4098:A *3526:A1 5.55344e-05
12 *4098:A *760:8 2.47313e-05
13 *544:38 *3526:A1 2.60908e-05
14 *618:25 *3450:A3 0.000249161
*RES
1 *3780:Q *760:8 8.88 
2 *760:8 *3526:A1 11.61 
3 *760:8 *3450:A3 7.275 
*END

*D_NET *761 0.00236867
*CONN
*I *3528:A1 I *D sky130_fd_sc_hd__mux2_2
*I *3458:A3 I *D sky130_fd_sc_hd__mux4_2
*I *3781:Q O *D sky130_fd_sc_hd__dfxtp_2
*CAP
1 *3528:A1 0.000101127
2 *3458:A3 0.000477895
3 *3781:Q 0.000133078
4 *761:10 0.0007121
5 *3458:S0 *3458:A3 0.000109696
6 *3465:A *761:10 7.5687e-06
7 *3511:A0 *3458:A3 1.26548e-05
8 *3528:A0 *3458:A3 2.85623e-05
9 *3528:A0 *3528:A1 4.77769e-05
10 *3528:A0 *761:10 8.27307e-05
11 *3994:A *3458:A3 7.30127e-05
12 *576:12 *3458:A3 1.82476e-05
13 *612:16 *3458:A3 7.06865e-05
14 *668:12 *3528:A1 2.84192e-05
15 *724:36 *761:10 2.49909e-05
16 *724:73 *3458:A3 0.00034906
17 *724:73 *761:10 9.10613e-05
*RES
1 *3781:Q *761:10 5.865 
2 *761:10 *3458:A3 12.72 
3 *761:10 *3528:A1 5.085 
*END

*D_NET *762 0.00169262
*CONN
*I *3466:A3 I *D sky130_fd_sc_hd__mux4_2
*I *3530:A1 I *D sky130_fd_sc_hd__mux2_2
*I *3782:Q O *D sky130_fd_sc_hd__dfxtp_2
*CAP
1 *3466:A3 0.000204076
2 *3530:A1 0.000185493
3 *3782:Q 7.22988e-05
4 *762:8 0.000461867
5 *762:8 *786:10 0
6 *3466:A2 *3466:A3 0.000311288
7 *3466:A2 *3530:A1 0
8 *4100:A *3530:A1 9.14049e-05
9 *4100:A *762:8 0.000164686
10 *722:18 *3530:A1 0.000201508
11 *722:33 *762:8 0
*RES
1 *3782:Q *762:8 5.49 
2 *762:8 *3530:A1 6.555 
3 *762:8 *3466:A3 7.5 
*END

*D_NET *763 0.0018825
*CONN
*I *3532:A1 I *D sky130_fd_sc_hd__mux2_2
*I *3474:A3 I *D sky130_fd_sc_hd__mux4_2
*I *3783:Q O *D sky130_fd_sc_hd__dfxtp_2
*CAP
1 *3532:A1 0.000193401
2 *3474:A3 0.00022263
3 *3783:Q 0
4 *763:4 0.000416031
5 *3532:A1 *862:10 8.35068e-05
6 *3474:A2 *3474:A3 4.66108e-05
7 *3509:S *3532:A1 0.000116158
8 *4047:A *3532:A1 0.000335163
9 *413:112 *3532:A1 0.000225175
10 *668:41 *3532:A1 0.000196045
11 *668:51 *3532:A1 4.77757e-05
*RES
1 *3783:Q *763:4 1.6 
2 *763:4 *3474:A3 4.48 
3 *763:4 *3532:A1 11.705 
*END

*D_NET *764 0.000817096
*CONN
*I *3417:A0 I *D sky130_fd_sc_hd__mux4_2
*I *3536:A0 I *D sky130_fd_sc_hd__mux2_2
*I *3784:Q O *D sky130_fd_sc_hd__dfxtp_2
*CAP
1 *3417:A0 9.74481e-05
2 *3536:A0 0.000200538
3 *3784:Q 0.00010309
4 *3536:A0 *772:10 0
5 *3417:S0 *3417:A0 0.000298981
6 *3418:A1 *3417:A0 7.54986e-05
7 *3537:A *3417:A0 4.15401e-05
*RES
1 *3784:Q *3536:A0 8.58 
2 *3536:A0 *3417:A0 5.975 
*END

*D_NET *765 0.00267626
*CONN
*I *3427:A0 I *D sky130_fd_sc_hd__mux4_2
*I *3538:A0 I *D sky130_fd_sc_hd__mux2_2
*I *3785:Q O *D sky130_fd_sc_hd__dfxtp_2
*CAP
1 *3427:A0 0.000180188
2 *3538:A0 0.000134925
3 *3785:Q 0.00035152
4 *765:10 0.000666632
5 *3536:S *3427:A0 9.37289e-05
6 *3538:A1 *3538:A0 4.82863e-05
7 *3539:A *3538:A0 1.1561e-05
8 *3539:A *765:10 0.000123985
9 *3556:S *765:10 3.42902e-05
10 *3972:A *3427:A0 3.26889e-05
11 *3972:A *3538:A0 0.000403708
12 *4026:A *3538:A0 0.000423461
13 *4026:A *765:10 0.000135247
14 *630:10 *765:10 3.60365e-05
*RES
1 *3785:Q *765:10 9.375 
2 *765:10 *3538:A0 9 
3 *765:10 *3427:A0 6.765 
*END

*D_NET *766 0.00206067
*CONN
*I *3540:A0 I *D sky130_fd_sc_hd__mux2_2
*I *3435:A0 I *D sky130_fd_sc_hd__mux4_2
*I *3786:Q O *D sky130_fd_sc_hd__dfxtp_2
*CAP
1 *3540:A0 0.000290523
2 *3435:A0 0
3 *3786:Q 0.000290021
4 *766:14 0.000580544
5 *766:14 *3435:A1 4.57272e-05
6 *3435:S0 *3540:A0 7.27003e-05
7 *3435:S0 *766:14 1.21575e-05
8 *3436:A1 *3540:A0 4.76682e-05
9 *3540:A1 *3540:A0 0
10 *3541:A *3540:A0 0.000413314
11 *3559:A *766:14 0
12 *3794:D *3540:A0 0
13 *413:91 *3540:A0 4.77719e-05
14 *578:10 *766:14 0.000151165
15 *622:84 *766:14 0.000109076
*RES
1 *3786:Q *766:14 10.025 
2 *766:14 *3435:A0 1.6 
3 *766:14 *3540:A0 11.99 
*END

*D_NET *767 0.00128308
*CONN
*I *3542:A0 I *D sky130_fd_sc_hd__mux2_2
*I *3443:A0 I *D sky130_fd_sc_hd__mux4_2
*I *3787:Q O *D sky130_fd_sc_hd__dfxtp_2
*CAP
1 *3542:A0 0
2 *3443:A0 0.00014767
3 *3787:Q 0.000205342
4 *767:12 0.000353013
5 *3444:A1 *767:12 0
6 *3542:A1 *3443:A0 0.00031039
7 *602:21 *767:12 0.000266666
*RES
1 *3787:Q *767:12 9.56 
2 *767:12 *3443:A0 4.465 
3 *767:12 *3542:A0 1.6 
*END

*D_NET *768 0.00346505
*CONN
*I *3544:A0 I *D sky130_fd_sc_hd__mux2_2
*I *3452:A0 I *D sky130_fd_sc_hd__mux4_2
*I *3788:Q O *D sky130_fd_sc_hd__dfxtp_2
*CAP
1 *3544:A0 0.000272182
2 *3452:A0 0
3 *3788:Q 0.000755105
4 *768:10 0.00102729
5 *3453:A2 *3544:A0 9.50342e-06
6 *3453:A2 *768:10 0.00018305
7 *3453:B1 *3544:A0 0.000387122
8 *3453:B1 *768:10 0.000184717
9 *3465:A *3544:A0 0.00013073
10 *3477:A1 *3544:A0 0.000199021
11 *3477:A2 *3544:A0 4.89395e-05
12 *3544:A1 *3544:A0 2.86767e-05
13 *3788:CLK *768:10 2.65692e-05
14 *3788:D *768:10 2.95923e-05
15 *3796:D *3544:A0 0
16 *562:56 *768:10 1.34503e-05
17 *610:6 *768:10 8.40269e-05
18 *612:20 *768:10 5.37878e-05
19 *729:86 *3544:A0 3.12855e-05
*RES
1 *3788:Q *768:10 13.785 
2 *768:10 *3452:A0 3.6 
3 *768:10 *3544:A0 11.07 
*END

*D_NET *769 0.00164779
*CONN
*I *3459:A0 I *D sky130_fd_sc_hd__mux4_2
*I *3546:A0 I *D sky130_fd_sc_hd__mux2_2
*I *3789:Q O *D sky130_fd_sc_hd__dfxtp_2
*CAP
1 *3459:A0 6.71422e-05
2 *3546:A0 0.000145379
3 *3789:Q 8.72237e-05
4 *769:8 0.000299745
5 *3459:A0 *3459:A1 0.000235146
6 *769:8 *777:12 7.63204e-05
7 *3459:S1 *3459:A0 4.85763e-05
8 *3460:A1 *3459:A0 0.000120655
9 *3460:A1 *3546:A0 9.14049e-05
10 *3564:A1 *3546:A0 0.000181869
11 *3565:A *3546:A0 0.000165745
12 *3565:A *769:8 2.16389e-05
13 *432:30 *3546:A0 2.05056e-05
14 *666:16 *3546:A0 0
15 *724:115 *3546:A0 8.64421e-05
*RES
1 *3789:Q *769:8 5.49 
2 *769:8 *3546:A0 7.5 
3 *769:8 *3459:A0 5.775 
*END

*D_NET *770 0.00162048
*CONN
*I *3548:A0 I *D sky130_fd_sc_hd__mux2_2
*I *3467:A0 I *D sky130_fd_sc_hd__mux4_2
*I *3790:Q O *D sky130_fd_sc_hd__dfxtp_2
*CAP
1 *3548:A0 6.86102e-05
2 *3467:A0 0.000122458
3 *3790:Q 9.39881e-05
4 *770:10 0.000285057
5 *3467:A0 *3467:A1 0.000378114
6 *3467:A0 *778:14 4.89295e-05
7 *3548:A1 *3467:A0 7.3877e-05
8 *3548:A1 *3548:A0 0.000122801
9 *3566:S *3467:A0 2.01504e-05
10 *3567:A *3467:A0 6.21365e-05
11 *722:76 *3467:A0 0.000344361
*RES
1 *3790:Q *770:10 6.98 
2 *770:10 *3467:A0 6.655 
3 *770:10 *3548:A0 3.1 
*END

*D_NET *771 0.000755992
*CONN
*I *3550:A0 I *D sky130_fd_sc_hd__mux2_2
*I *3476:A0 I *D sky130_fd_sc_hd__mux4_2
*I *3791:Q O *D sky130_fd_sc_hd__dfxtp_2
*CAP
1 *3550:A0 9.4313e-05
2 *3476:A0 0.000111471
3 *3791:Q 3.81923e-05
4 *771:10 0.000243976
5 *3476:A0 *3476:A1 4.82863e-05
6 *771:10 *3568:A0 0
7 *3476:S0 *3476:A0 4.87317e-05
8 *3476:S0 *3550:A0 4.67945e-05
9 *3477:A2 *771:10 2.87867e-05
10 *3551:A *771:10 9.54399e-05
*RES
1 *3791:Q *771:10 6.725 
2 *771:10 *3476:A0 3.43 
3 *771:10 *3550:A0 3.085 
*END

*D_NET *772 0.00205493
*CONN
*I *3417:A1 I *D sky130_fd_sc_hd__mux4_2
*I *3554:A0 I *D sky130_fd_sc_hd__mux2_2
*I *3792:Q O *D sky130_fd_sc_hd__dfxtp_2
*CAP
1 *3417:A1 0.000212066
2 *3554:A0 1.98252e-05
3 *3792:Q 0.000426437
4 *772:10 0.000658328
5 *3418:A1 *3417:A1 6.13304e-05
6 *3536:A0 *772:10 0
7 *3536:A1 *772:10 0
8 *3537:A *3417:A1 0.00016031
9 *3537:A *3554:A0 2.92496e-05
10 *3537:A *772:10 8.5242e-05
11 *3555:A *3417:A1 5.44851e-05
12 *3555:A *3554:A0 0
13 *3784:D *3417:A1 0.00015639
14 *3784:D *772:10 0.000115408
15 *626:55 *3554:A0 5.39961e-05
16 *626:55 *772:10 8.53113e-06
17 *686:122 *3417:A1 1.33293e-05
*RES
1 *3792:Q *772:10 10.29 
2 *772:10 *3554:A0 4.215 
3 *772:10 *3417:A1 12.415 
*END

*D_NET *773 0.00238672
*CONN
*I *3556:A0 I *D sky130_fd_sc_hd__mux2_2
*I *3427:A1 I *D sky130_fd_sc_hd__mux4_2
*I *3793:Q O *D sky130_fd_sc_hd__dfxtp_2
*CAP
1 *3556:A0 0.000263334
2 *3427:A1 3.87681e-05
3 *3793:Q 0.000382847
4 *773:10 0.000684949
5 *3427:S1 *3427:A1 4.66108e-05
6 *3427:S1 *773:10 9.14049e-05
7 *3536:S *3427:A1 2.16917e-05
8 *3539:A *3556:A0 0
9 *3556:S *3556:A0 0.000242695
10 *3793:D *3556:A0 0.000366547
11 *3793:D *773:10 0.000115464
12 *4077:A *3556:A0 0
13 *4077:A *773:10 0.000132406
14 *694:8 *3556:A0 0
*RES
1 *3793:Q *773:10 8.88 
2 *773:10 *3427:A1 4.395 
3 *773:10 *3556:A0 9.87 
*END

*D_NET *774 0.00198251
*CONN
*I *3558:A0 I *D sky130_fd_sc_hd__mux2_2
*I *3435:A1 I *D sky130_fd_sc_hd__mux4_2
*I *3794:Q O *D sky130_fd_sc_hd__dfxtp_2
*CAP
1 *3558:A0 0.000250892
2 *3435:A1 0.000328583
3 *3794:Q 3.00168e-05
4 *774:6 0.000609492
5 *3436:A1 *3558:A0 4.60992e-05
6 *3541:A *3558:A0 0.000135589
7 *3554:S *3558:A0 0.000137229
8 *3558:A1 *3558:A0 0
9 *3786:D *3558:A0 9.30878e-05
10 *3794:D *3435:A1 0.000137895
11 *3810:CLK *3558:A0 4.89395e-05
12 *688:85 *3435:A1 0.00010058
13 *688:85 *774:6 1.83847e-05
14 *766:14 *3435:A1 4.57272e-05
*RES
1 *3794:Q *774:6 2.05 
2 *774:6 *3435:A1 10.55 
3 *774:6 *3558:A0 11.51 
*END

*D_NET *775 0.000826287
*CONN
*I *3560:A0 I *D sky130_fd_sc_hd__mux2_2
*I *3443:A1 I *D sky130_fd_sc_hd__mux4_2
*I *3795:Q O *D sky130_fd_sc_hd__dfxtp_2
*CAP
1 *3560:A0 3.91732e-05
2 *3443:A1 0
3 *3795:Q 0.000130955
4 *775:10 0.000170128
5 *3443:S1 *775:10 7.28465e-06
6 *3542:A1 *3560:A0 0.000182427
7 *3542:A1 *775:10 9.12494e-06
8 *442:24 *3560:A0 0.000173302
9 *442:24 *775:10 0.000113891
*RES
1 *3795:Q *775:10 5.775 
2 *775:10 *3443:A1 3.6 
3 *775:10 *3560:A0 5.745 
*END

*D_NET *776 0.00112013
*CONN
*I *3452:A1 I *D sky130_fd_sc_hd__mux4_2
*I *3562:A0 I *D sky130_fd_sc_hd__mux2_2
*I *3796:Q O *D sky130_fd_sc_hd__dfxtp_2
*CAP
1 *3452:A1 3.39387e-05
2 *3562:A0 0.000194002
3 *3796:Q 4.88267e-05
4 *776:8 0.000276767
5 *3450:S1 *3562:A0 0.000211683
6 *3453:B1 *3562:A0 0.000187424
7 *3453:B1 *776:8 7.61468e-05
8 *3597:S *3562:A0 1.7413e-05
9 *686:35 *3562:A0 4.1652e-06
10 *686:35 *776:8 6.97581e-05
*RES
1 *3796:Q *776:8 5.235 
2 *776:8 *3562:A0 8.67 
3 *776:8 *3452:A1 4.05 
*END

*D_NET *777 0.00220024
*CONN
*I *3564:A0 I *D sky130_fd_sc_hd__mux2_2
*I *3459:A1 I *D sky130_fd_sc_hd__mux4_2
*I *3797:Q O *D sky130_fd_sc_hd__dfxtp_2
*CAP
1 *3564:A0 0
2 *3459:A1 0.000147006
3 *3797:Q 0.000402161
4 *777:12 0.000549167
5 *3459:A0 *3459:A1 0.000235146
6 *3459:S0 *3459:A1 0.000340995
7 *3459:S1 *3459:A1 0.000137139
8 *3803:CLK *777:12 3.72916e-05
9 *3803:D *777:12 3.51254e-06
10 *422:39 *777:12 4.40643e-05
11 *452:111 *777:12 0.000163012
12 *666:10 *777:12 5.4239e-05
13 *666:16 *777:12 1.0183e-05
14 *769:8 *777:12 7.63204e-05
*RES
1 *3797:Q *777:12 13.145 
2 *777:12 *3459:A1 6.31 
3 *777:12 *3564:A0 1.6 
*END

*D_NET *778 0.00143476
*CONN
*I *3566:A0 I *D sky130_fd_sc_hd__mux2_2
*I *3467:A1 I *D sky130_fd_sc_hd__mux4_2
*I *3798:Q O *D sky130_fd_sc_hd__dfxtp_2
*CAP
1 *3566:A0 0
2 *3467:A1 0.000247233
3 *3798:Q 0.000133957
4 *778:14 0.00038119
5 *3467:A0 *3467:A1 0.000378114
6 *3467:A0 *778:14 4.89295e-05
7 *3468:A1 *3467:A1 2.49909e-05
8 *3548:S *778:14 4.47448e-05
9 *3566:S *3467:A1 4.77757e-05
10 *3566:S *778:14 4.63155e-05
11 *3567:A *3467:A1 8.15109e-05
12 *635:10 *778:14 0
*RES
1 *3798:Q *778:14 7.88 
2 *778:14 *3467:A1 7 
3 *778:14 *3566:A0 1.6 
*END

*D_NET *779 0.00183164
*CONN
*I *3476:A1 I *D sky130_fd_sc_hd__mux4_2
*I *3568:A0 I *D sky130_fd_sc_hd__mux2_2
*I *3799:Q O *D sky130_fd_sc_hd__dfxtp_2
*CAP
1 *3476:A1 8.0853e-05
2 *3568:A0 0.000142163
3 *3799:Q 0.000248118
4 *779:10 0.000471134
5 *3476:A0 *3476:A1 4.82863e-05
6 *3476:S0 *3476:A1 8.07616e-05
7 *3477:A2 *3568:A0 0.000286066
8 *3551:A *3568:A0 4.82919e-05
9 *3551:A *779:10 0
10 *3568:A1 *3568:A0 0.000111547
11 *3746:S *779:10 0
12 *452:37 *779:10 6.77162e-05
13 *611:16 *3476:A1 6.71882e-05
14 *611:16 *3568:A0 5.02217e-05
15 *662:34 *3568:A0 2.49909e-05
16 *666:49 *3568:A0 5.00617e-05
17 *666:49 *779:10 5.4239e-05
18 *771:10 *3568:A0 0
*RES
1 *3799:Q *779:10 7.065 
2 *779:10 *3568:A0 7.98 
3 *779:10 *3476:A1 5.43 
*END

*D_NET *780 0.00134586
*CONN
*I *3572:A0 I *D sky130_fd_sc_hd__mux2_2
*I *3417:A2 I *D sky130_fd_sc_hd__mux4_2
*I *3800:Q O *D sky130_fd_sc_hd__dfxtp_2
*CAP
1 *3572:A0 0.000172062
2 *3417:A2 0.000134654
3 *3800:Q 0.000306717
4 *3416:S1 *3417:A2 0.000198051
5 *3572:S *3572:A0 2.88357e-05
6 *3589:A0 *3572:A0 1.32026e-05
7 *3590:A *3572:A0 0.00033182
8 *3808:D *3572:A0 0.000160513
*RES
1 *3800:Q *3417:A2 5.03 
2 *3800:Q *3572:A0 11.925 
*END

*D_NET *781 0.00133842
*CONN
*I *3574:A0 I *D sky130_fd_sc_hd__mux2_2
*I *3427:A2 I *D sky130_fd_sc_hd__mux4_2
*I *3801:Q O *D sky130_fd_sc_hd__dfxtp_2
*CAP
1 *3574:A0 0.000313864
2 *3427:A2 0
3 *3801:Q 5.19862e-05
4 *781:8 0.00036585
5 *3574:A1 *3574:A0 0.000220836
6 *3575:A *3574:A0 0
7 *3592:A *3574:A0 0.000227391
8 *3592:A *781:8 9.47454e-05
9 *624:14 *3574:A0 2.25299e-05
10 *624:96 *3574:A0 4.1213e-05
*RES
1 *3801:Q *781:8 4.725 
2 *781:8 *3427:A2 3.6 
3 *781:8 *3574:A0 10.335 
*END

*D_NET *782 0.0020049
*CONN
*I *3435:A2 I *D sky130_fd_sc_hd__mux4_2
*I *3576:A0 I *D sky130_fd_sc_hd__mux2_2
*I *3802:Q O *D sky130_fd_sc_hd__dfxtp_2
*CAP
1 *3435:A2 0.000455356
2 *3576:A0 1.21303e-05
3 *3802:Q 0.000212903
4 *782:10 0.000680389
5 *3434:S0 *3435:A2 5.13924e-05
6 *3572:S *3435:A2 2.33079e-05
7 *3572:S *3576:A0 5.34461e-05
8 *3572:S *782:10 6.20358e-05
9 *3594:A *3435:A2 0.000276605
10 *3727:S *3576:A0 3.77501e-05
11 *3727:S *782:10 3.61339e-05
12 *622:63 *3435:A2 1.14487e-05
13 *622:84 *3435:A2 3.94628e-05
14 *688:85 *3435:A2 5.25343e-05
*RES
1 *3802:Q *782:10 6.3 
2 *782:10 *3576:A0 4.215 
3 *782:10 *3435:A2 14.005 
*END

*D_NET *783 0.00208395
*CONN
*I *3443:A2 I *D sky130_fd_sc_hd__mux4_2
*I *3578:A0 I *D sky130_fd_sc_hd__mux2_2
*I *3803:Q O *D sky130_fd_sc_hd__dfxtp_2
*CAP
1 *3443:A2 0.000292157
2 *3578:A0 0.000314197
3 *3803:Q 0
4 *783:4 0.000606354
5 *3578:A1 *3578:A0 3.46092e-05
6 *3579:A *3578:A0 5.21533e-05
7 *3795:CLK *3443:A2 0.000147688
8 *3795:CLK *3578:A0 0.000237212
9 *3795:D *3443:A2 8.83522e-05
10 *3803:D *3578:A0 0.000157401
11 *422:39 *3578:A0 4.75977e-05
12 *535:26 *3443:A2 3.72081e-05
13 *620:42 *3443:A2 6.90254e-05
*RES
1 *3803:Q *783:4 1.6 
2 *783:4 *3578:A0 11.075 
3 *783:4 *3443:A2 9.68 
*END

*D_NET *784 0.00128985
*CONN
*I *3580:A0 I *D sky130_fd_sc_hd__mux2_2
*I *3452:A2 I *D sky130_fd_sc_hd__mux4_2
*I *3804:Q O *D sky130_fd_sc_hd__dfxtp_2
*CAP
1 *3580:A0 0.000120568
2 *3452:A2 0.000144888
3 *3804:Q 0.000215859
4 *784:10 0.000481315
5 *3452:A2 *3597:A1 2.97746e-05
6 *3450:S1 *3452:A2 0
7 *3481:A2 *784:10 0.000122797
8 *3580:S *3580:A0 6.00329e-05
9 *4008:A *3580:A0 8.8786e-05
10 *562:106 *3452:A2 0
11 *618:6 *3580:A0 2.58336e-05
12 *686:35 *3452:A2 0
*RES
1 *3804:Q *784:10 6.63 
2 *784:10 *3452:A2 6 
3 *784:10 *3580:A0 5.79 
*END

*D_NET *785 0.00141815
*CONN
*I *3459:A2 I *D sky130_fd_sc_hd__mux4_2
*I *3582:A0 I *D sky130_fd_sc_hd__mux2_2
*I *3805:Q O *D sky130_fd_sc_hd__dfxtp_2
*CAP
1 *3459:A2 0.000242688
2 *3582:A0 0.000106521
3 *3805:Q 0.00034921
4 *3458:S0 *3582:A0 0
5 *3599:A0 *3582:A0 7.23602e-05
6 *3797:D *3459:A2 7.4027e-05
7 *630:16 *3459:A2 0.000249928
8 *662:34 *3459:A2 0.000198046
9 *666:16 *3582:A0 4.82919e-05
10 *724:49 *3582:A0 7.70758e-05
11 *724:115 *3459:A2 0
*RES
1 *3805:Q *3582:A0 9.285 
2 *3805:Q *3459:A2 11.94 
*END

*D_NET *786 0.00247925
*CONN
*I *3467:A2 I *D sky130_fd_sc_hd__mux4_2
*I *3584:A0 I *D sky130_fd_sc_hd__mux2_2
*I *3806:Q O *D sky130_fd_sc_hd__dfxtp_2
*CAP
1 *3467:A2 0.000387065
2 *3584:A0 0.000338451
3 *3806:Q 0.000232703
4 *786:10 0.000958219
5 *3467:A2 *3467:A3 0.000235378
6 *3584:A1 *3584:A0 1.63105e-05
7 *3584:S *3584:A0 0.000115898
8 *3814:CLK *3584:A0 1.41095e-05
9 *3814:D *3584:A0 6.50844e-06
10 *4100:A *786:10 0
11 *722:33 *786:10 0.000174602
12 *762:8 *786:10 0
*RES
1 *3806:Q *786:10 10.55 
2 *786:10 *3584:A0 5.77 
3 *786:10 *3467:A2 7.765 
*END

*D_NET *787 0.00159827
*CONN
*I *3586:A0 I *D sky130_fd_sc_hd__mux2_2
*I *3476:A2 I *D sky130_fd_sc_hd__mux4_2
*I *3807:Q O *D sky130_fd_sc_hd__dfxtp_2
*CAP
1 *3586:A0 0.000237536
2 *3476:A2 3.69588e-05
3 *3807:Q 0.000198874
4 *787:10 0.000473369
5 *3476:A2 *3476:A3 4.66108e-05
6 *787:10 *3603:A1 7.01303e-05
7 *3586:A1 *3586:A0 4.6368e-06
8 *3799:D *3586:A0 0.000194044
9 *3799:D *787:10 0.000230822
10 *452:37 *3586:A0 4.82299e-05
11 *452:48 *3586:A0 8.12896e-06
12 *662:34 *787:10 4.89295e-05
13 *695:44 *3586:A0 0
*RES
1 *3807:Q *787:10 6.96 
2 *787:10 *3476:A2 4.05 
3 *787:10 *3586:A0 7.845 
*END

*D_NET *788 0.000834808
*CONN
*I *3589:A1 I *D sky130_fd_sc_hd__mux2_2
*I *3417:A3 I *D sky130_fd_sc_hd__mux4_2
*I *3808:Q O *D sky130_fd_sc_hd__dfxtp_2
*CAP
1 *3589:A1 3.00125e-05
2 *3417:A3 9.72741e-05
3 *3808:Q 4.78063e-05
4 *788:8 0.000175093
5 *3416:S1 *3417:A3 4.99619e-05
6 *3589:S *3417:A3 0.000250928
7 *3589:S *3589:A1 6.19969e-05
8 *3792:CLK *3417:A3 2.49972e-05
9 *3792:CLK *3589:A1 2.41307e-05
10 *585:38 *3417:A3 7.26077e-05
*RES
1 *3808:Q *788:8 4.05 
2 *788:8 *3417:A3 6.96 
3 *788:8 *3589:A1 4.47 
*END

*D_NET *789 0.0018174
*CONN
*I *3427:A3 I *D sky130_fd_sc_hd__mux4_2
*I *3591:A1 I *D sky130_fd_sc_hd__mux2_2
*I *3809:Q O *D sky130_fd_sc_hd__dfxtp_2
*CAP
1 *3427:A3 0
2 *3591:A1 0.000169503
3 *3809:Q 0.000274542
4 *789:10 0.000444044
5 *3427:S1 *3591:A1 9.79472e-05
6 *3592:A *789:10 9.5101e-05
7 *3793:CLK *3591:A1 0.000229203
8 *3793:D *3591:A1 9.66848e-05
9 *3793:D *789:10 7.89611e-05
10 *3809:D *789:10 1.74678e-05
11 *624:14 *3591:A1 0.000133569
12 *624:14 *789:10 0.000132089
13 *624:21 *3591:A1 4.82919e-05
*RES
1 *3809:Q *789:10 8.1 
2 *789:10 *3591:A1 9.045 
3 *789:10 *3427:A3 3.6 
*END

*D_NET *790 0.0014218
*CONN
*I *3435:A3 I *D sky130_fd_sc_hd__mux4_2
*I *3593:A1 I *D sky130_fd_sc_hd__mux2_2
*I *3810:Q O *D sky130_fd_sc_hd__dfxtp_2
*CAP
1 *3435:A3 0.000198564
2 *3593:A1 0
3 *3810:Q 0.000124856
4 *790:12 0.00032342
5 *3418:S *790:12 9.10422e-05
6 *3435:S1 *3435:A3 6.00082e-05
7 *3436:S *790:12 3.86781e-05
8 *3997:A *790:12 5.61476e-05
9 *461:88 *790:12 0.000235908
10 *622:84 *3435:A3 0.000246562
11 *622:84 *790:12 4.66108e-05
*RES
1 *3810:Q *790:12 8.96 
2 *790:12 *3593:A1 1.6 
3 *790:12 *3435:A3 4.93 
*END

*D_NET *791 0.000944627
*CONN
*I *3443:A3 I *D sky130_fd_sc_hd__mux4_2
*I *3595:A1 I *D sky130_fd_sc_hd__mux2_2
*I *3811:Q O *D sky130_fd_sc_hd__dfxtp_2
*CAP
1 *3443:A3 6.13583e-05
2 *3595:A1 0.000217227
3 *3811:Q 3.90449e-05
4 *791:10 0.00031763
5 *3466:S0 *791:10 0.000115945
6 *535:26 *791:10 0.000136685
7 *620:42 *791:10 1.28996e-05
8 *620:46 *3595:A1 4.38372e-05
*RES
1 *3811:Q *791:10 7.235 
2 *791:10 *3595:A1 4.6 
3 *791:10 *3443:A3 2.395 
*END

*D_NET *792 0.00131356
*CONN
*I *3452:A3 I *D sky130_fd_sc_hd__mux4_2
*I *3597:A1 I *D sky130_fd_sc_hd__mux2_2
*I *3812:Q O *D sky130_fd_sc_hd__dfxtp_2
*CAP
1 *3452:A3 0.000113003
2 *3597:A1 0.000377248
3 *3812:Q 9.3081e-05
4 *792:8 0.000583333
5 *3450:S1 *3597:A1 0
6 *3452:A2 *3597:A1 2.97746e-05
7 *3452:S0 *792:8 4.73509e-05
8 *3562:A1 *3597:A1 2.20014e-05
9 *3597:S *3597:A1 4.77719e-05
10 *562:75 *3597:A1 0
11 *562:106 *3597:A1 0
*RES
1 *3812:Q *792:8 3.1 
2 *792:8 *3597:A1 10.835 
3 *792:8 *3452:A3 3.085 
*END

*D_NET *793 0.000869651
*CONN
*I *3599:A1 I *D sky130_fd_sc_hd__mux2_2
*I *3459:A3 I *D sky130_fd_sc_hd__mux4_2
*I *3813:Q O *D sky130_fd_sc_hd__dfxtp_2
*CAP
1 *3599:A1 0.000136051
2 *3459:A3 0.000222249
3 *3813:Q 0.0003583
4 *3599:A0 *3599:A1 4.61744e-05
5 *452:37 *3599:A1 2.97004e-06
6 *461:143 *3599:A1 2.11084e-05
7 *461:168 *3599:A1 1.83756e-05
8 *630:16 *3599:A1 6.4422e-05
*RES
1 *3813:Q *3459:A3 6.08 
2 *3813:Q *3599:A1 9.885 
*END

*D_NET *794 0.00167771
*CONN
*I *3467:A3 I *D sky130_fd_sc_hd__mux4_2
*I *3601:A1 I *D sky130_fd_sc_hd__mux2_2
*I *3814:Q O *D sky130_fd_sc_hd__dfxtp_2
*CAP
1 *3467:A3 0.000267752
2 *3601:A1 0.000279297
3 *3814:Q 0
4 *794:4 0.00054705
5 *3467:A2 *3467:A3 0.000235378
6 *3556:S *3601:A1 1.54665e-05
7 *3601:S *3601:A1 0.000308641
8 *4100:A *3601:A1 2.41231e-05
*RES
1 *3814:Q *794:4 1.6 
2 *794:4 *3601:A1 9.68 
3 *794:4 *3467:A3 5.17 
*END

*D_NET *795 0.000715862
*CONN
*I *3476:A3 I *D sky130_fd_sc_hd__mux4_2
*I *3603:A1 I *D sky130_fd_sc_hd__mux2_2
*I *3815:Q O *D sky130_fd_sc_hd__dfxtp_2
*CAP
1 *3476:A3 0.000124694
2 *3603:A1 4.15049e-05
3 *3815:Q 6.17772e-05
4 *795:6 0.000227976
5 *3452:S0 *3603:A1 2.30184e-05
6 *3476:A2 *3476:A3 4.66108e-05
7 *611:16 *3476:A3 8.48898e-05
8 *695:44 *3476:A3 3.34804e-06
9 *695:44 *3603:A1 2.56752e-06
10 *695:44 *795:6 2.93447e-05
11 *787:10 *3603:A1 7.01303e-05
*RES
1 *3815:Q *795:6 2.395 
2 *795:6 *3603:A1 6.47 
3 *795:6 *3476:A3 3.79 
*END

*D_NET *796 0.0015154
*CONN
*I *3420:A1 I *D sky130_fd_sc_hd__mux4_2
*I *3606:A0 I *D sky130_fd_sc_hd__mux2_2
*I *3816:Q O *D sky130_fd_sc_hd__dfxtp_2
*CAP
1 *3420:A1 0.000216366
2 *3606:A0 7.25725e-05
3 *3816:Q 0.000116254
4 *796:10 0.000405193
5 *3420:A1 *3420:A3 8.65961e-05
6 *3420:S1 *3420:A1 9.20791e-05
7 *4015:A *3606:A0 9.14947e-05
8 *4015:A *796:10 2.23253e-05
9 *4047:A *3606:A0 0.000228859
10 *4047:A *796:10 6.19969e-05
11 *608:10 *796:10 0.000121659
*RES
1 *3816:Q *796:10 5.61 
2 *796:10 *3606:A0 6.255 
3 *796:10 *3420:A1 6.48 
*END

*D_NET *797 0.00166053
*CONN
*I *3608:A0 I *D sky130_fd_sc_hd__mux2_2
*I *3430:A1 I *D sky130_fd_sc_hd__mux4_2
*I *3817:Q O *D sky130_fd_sc_hd__dfxtp_2
*CAP
1 *3608:A0 0.000160363
2 *3430:A1 5.09635e-05
3 *3817:Q 0.00013771
4 *797:10 0.000349037
5 *3430:A0 *3608:A0 1.15688e-05
6 *3430:A0 *797:10 4.43871e-06
7 *3430:S0 *3608:A0 0.000360611
8 *3487:A *797:10 0
9 *3976:A *3430:A1 4.66108e-05
10 *3976:A *797:10 9.54399e-05
11 *404:40 *3608:A0 0.000119756
12 *623:16 *3608:A0 7.30547e-05
13 *633:25 *3608:A0 0.000167751
14 *633:25 *797:10 1.1561e-05
15 *669:14 *3608:A0 4.41506e-05
16 *669:24 *3608:A0 2.75145e-05
*RES
1 *3817:Q *797:10 5.775 
2 *797:10 *3430:A1 4.395 
3 *797:10 *3608:A0 9.18 
*END

*D_NET *798 0.00208794
*CONN
*I *3610:A0 I *D sky130_fd_sc_hd__mux2_2
*I *3438:A1 I *D sky130_fd_sc_hd__mux4_2
*I *3818:Q O *D sky130_fd_sc_hd__dfxtp_2
*CAP
1 *3610:A0 0.000139049
2 *3438:A1 0.000298056
3 *3818:Q 0.000158702
4 *798:8 0.000595807
5 *3438:A0 *3438:A1 0.000122325
6 *3438:A0 *798:8 1.1561e-05
7 *3439:A1 *3610:A0 4.91927e-05
8 *3439:A1 *798:8 7.21296e-06
9 *3489:A *798:8 0.000308194
10 *3610:A1 *3610:A0 2.11084e-05
11 *3610:S *3610:A0 0.000160635
12 *3762:D *798:8 5.33142e-05
13 *488:123 *3610:A0 0.000138799
14 *664:48 *3438:A1 2.39856e-05
*RES
1 *3818:Q *798:8 7.785 
2 *798:8 *3438:A1 7.17 
3 *798:8 *3610:A0 7.41 
*END

*D_NET *799 0.00112571
*CONN
*I *3446:A1 I *D sky130_fd_sc_hd__mux4_2
*I *3612:A0 I *D sky130_fd_sc_hd__mux2_2
*I *3819:Q O *D sky130_fd_sc_hd__dfxtp_2
*CAP
1 *3446:A1 0
2 *3612:A0 6.8365e-05
3 *3819:Q 0.00029351
4 *799:12 0.000361875
5 *3446:A0 *799:12 0.000312512
6 *3763:D *3612:A0 5.07293e-05
7 *619:94 *3612:A0 3.87166e-05
*RES
1 *3819:Q *799:12 11.105 
2 *799:12 *3612:A0 7.235 
3 *799:12 *3446:A1 1.6 
*END

*D_NET *800 0.0017123
*CONN
*I *3614:A0 I *D sky130_fd_sc_hd__mux2_2
*I *3455:A1 I *D sky130_fd_sc_hd__mux4_2
*I *3820:Q O *D sky130_fd_sc_hd__dfxtp_2
*CAP
1 *3614:A0 0.00014848
2 *3455:A1 0.000246459
3 *3820:Q 0.000184226
4 *800:8 0.000579165
5 *3455:A0 *3455:A1 4.82863e-05
6 *3455:A0 *800:8 4.4796e-05
7 *3456:A1 *3614:A0 0.000126679
8 *3456:A1 *800:8 9.85903e-05
9 *3492:A0 *800:8 0.00010163
10 *3610:S *3614:A0 4.99619e-05
11 *3829:CLK *3614:A0 0
12 *3829:CLK *800:8 0
13 *670:68 *3614:A0 8.40213e-05
*RES
1 *3820:Q *800:8 7.785 
2 *800:8 *3455:A1 6.48 
3 *800:8 *3614:A0 6.375 
*END

*D_NET *801 0.00148922
*CONN
*I *3616:A0 I *D sky130_fd_sc_hd__mux2_2
*I *3462:A1 I *D sky130_fd_sc_hd__mux4_2
*I *3821:Q O *D sky130_fd_sc_hd__dfxtp_2
*CAP
1 *3616:A0 0.00019106
2 *3462:A1 0.000145566
3 *3821:Q 0.000135064
4 *801:8 0.00047169
5 *3462:A1 *3462:A3 9.08126e-05
6 *3462:S1 *3462:A1 4.99619e-05
7 *3617:A *3616:A0 0
8 *591:12 *3462:A1 2.62458e-05
9 *591:12 *3616:A0 2.04583e-05
10 *634:31 *3462:A1 0
11 *634:31 *3616:A0 0
12 *670:68 *3462:A1 2.92496e-05
13 *670:68 *3616:A0 0.000273001
14 *670:68 *801:8 4.66108e-05
15 *723:62 *3616:A0 9.50342e-06
*RES
1 *3821:Q *801:8 5.085 
2 *801:8 *3462:A1 6.45 
3 *801:8 *3616:A0 7.275 
*END

*D_NET *802 0.00204768
*CONN
*I *3470:A1 I *D sky130_fd_sc_hd__mux4_2
*I *3618:A0 I *D sky130_fd_sc_hd__mux2_2
*I *3822:Q O *D sky130_fd_sc_hd__dfxtp_2
*CAP
1 *3470:A1 0.000178664
2 *3618:A0 7.63641e-05
3 *3822:Q 0.000314235
4 *802:8 0.000569263
5 *3470:A0 *3470:A1 9.37731e-05
6 *3619:A *3470:A1 0.000247495
7 *3619:A *3618:A0 9.71067e-05
8 *488:65 *3470:A1 0.000282385
9 *488:65 *3618:A0 9.37731e-05
10 *672:14 *802:8 4.66108e-05
11 *674:8 *3470:A1 0
12 *721:26 *3618:A0 4.80058e-05
*RES
1 *3822:Q *802:8 6.81 
2 *802:8 *3618:A0 5.52 
3 *802:8 *3470:A1 8.835 
*END

*D_NET *803 0.00198699
*CONN
*I *3479:A1 I *D sky130_fd_sc_hd__mux4_2
*I *3620:A0 I *D sky130_fd_sc_hd__mux2_2
*I *3823:Q O *D sky130_fd_sc_hd__dfxtp_2
*CAP
1 *3479:A1 0.000203932
2 *3620:A0 0.000148279
3 *3823:Q 0
4 *803:4 0.000352211
5 *3479:A0 *3479:A1 8.23457e-05
6 *3479:S0 *3479:A1 0.000289691
7 *3479:S1 *3479:A1 8.40269e-05
8 *3620:A1 *3620:A0 0
9 *4047:A *3620:A0 0.00010506
10 *605:6 *3479:A1 0.000272978
11 *605:6 *3620:A0 4.82919e-05
12 *605:14 *3620:A0 1.05476e-05
13 *719:10 *3479:A1 0.000120655
14 *719:68 *3479:A1 0.000268973
*RES
1 *3823:Q *803:4 1.6 
2 *803:4 *3620:A0 8.705 
3 *803:4 *3479:A1 12.335 
*END

*D_NET *804 0.00128148
*CONN
*I *3420:A2 I *D sky130_fd_sc_hd__mux4_2
*I *3623:A0 I *D sky130_fd_sc_hd__mux2_2
*I *3824:Q O *D sky130_fd_sc_hd__dfxtp_2
*CAP
1 *3420:A2 0.000121845
2 *3623:A0 0.000302686
3 *3824:Q 0.000424532
4 *3420:A2 *3420:A3 4.66108e-05
5 *3623:A0 *3640:A0 0.000160651
6 *3623:A1 *3623:A0 7.08493e-05
7 *3623:S *3623:A0 8.696e-05
8 *3816:D *3623:A0 0
9 *4047:A *3623:A0 6.73424e-05
*RES
1 *3824:Q *3623:A0 13.245 
2 *3824:Q *3420:A2 4.685 
*END

*D_NET *805 0.00194376
*CONN
*I *3430:A2 I *D sky130_fd_sc_hd__mux4_2
*I *3625:A0 I *D sky130_fd_sc_hd__mux2_2
*I *3825:Q O *D sky130_fd_sc_hd__dfxtp_2
*CAP
1 *3430:A2 0.000149835
2 *3625:A0 0.000125428
3 *3825:Q 4.5884e-05
4 *805:8 0.000321148
5 *3430:A2 *3642:A0 4.82863e-05
6 *3430:S1 *3430:A2 4.5783e-05
7 *3478:S0 *3430:A2 0.000144105
8 *3478:S0 *3625:A0 2.97004e-06
9 *3478:S1 *3625:A0 0.00018171
10 *3623:S *3625:A0 0.00012398
11 *3625:A1 *3625:A0 8.8266e-05
12 *582:10 *3430:A2 0.000273695
13 *582:10 *3625:A0 0.000114492
14 *593:30 *805:8 4.11678e-06
15 *665:14 *3625:A0 0.000274061
*RES
1 *3825:Q *805:8 4.05 
2 *805:8 *3625:A0 8.535 
3 *805:8 *3430:A2 8.235 
*END

*D_NET *806 0.00168676
*CONN
*I *3627:A0 I *D sky130_fd_sc_hd__mux2_2
*I *3438:A2 I *D sky130_fd_sc_hd__mux4_2
*I *3826:Q O *D sky130_fd_sc_hd__dfxtp_2
*CAP
1 *3627:A0 0.000162904
2 *3438:A2 0.000311843
3 *3826:Q 7.89575e-05
4 *806:8 0.000553704
5 *3438:A2 *3438:A3 7.87754e-05
6 *3438:A2 *814:6 1.08036e-05
7 *3627:A1 *3627:A0 9.49119e-05
8 *3637:S *3627:A0 0
9 *3645:A *3627:A0 0.000116165
10 *3645:A *806:8 0.00018325
11 *3834:D *3627:A0 6.45236e-05
12 *3834:D *806:8 3.09233e-05
13 *583:18 *3627:A0 0
14 *664:48 *3627:A0 0
15 *664:48 *806:8 0
*RES
1 *3826:Q *806:8 5.745 
2 *806:8 *3438:A2 7.155 
3 *806:8 *3627:A0 7.065 
*END

*D_NET *807 0.000884643
*CONN
*I *3446:A2 I *D sky130_fd_sc_hd__mux4_2
*I *3629:A0 I *D sky130_fd_sc_hd__mux2_2
*I *3827:Q O *D sky130_fd_sc_hd__dfxtp_2
*CAP
1 *3446:A2 0.000107492
2 *3629:A0 0.000176272
3 *3827:Q 0
4 *807:4 0.000283764
5 *3446:S1 *3446:A2 0.000156774
6 *3446:S1 *3629:A0 0.000160342
*RES
1 *3827:Q *807:4 1.6 
2 *807:4 *3629:A0 8.21 
3 *807:4 *3446:A2 3.085 
*END

*D_NET *808 0.002307
*CONN
*I *3455:A2 I *D sky130_fd_sc_hd__mux4_2
*I *3631:A0 I *D sky130_fd_sc_hd__mux2_2
*I *3828:Q O *D sky130_fd_sc_hd__dfxtp_2
*CAP
1 *3455:A2 0
2 *3631:A0 0.00034559
3 *3828:Q 0.000354661
4 *808:12 0.000700251
5 *808:12 *3648:A0 1.1561e-05
6 *808:12 *816:10 8.88031e-05
7 *3438:S0 *808:12 1.92979e-05
8 *3615:A *3631:A0 7.10578e-05
9 *3820:CLK *808:12 7.28465e-06
10 *3820:D *3631:A0 1.99551e-05
11 *3820:D *808:12 0.00026231
12 *594:10 *808:12 3.23388e-05
13 *664:34 *808:12 0.000272872
14 *664:48 *3631:A0 0.000121019
*RES
1 *3828:Q *808:12 13.325 
2 *808:12 *3631:A0 6.91 
3 *808:12 *3455:A2 1.6 
*END

*D_NET *809 0.00165633
*CONN
*I *3462:A2 I *D sky130_fd_sc_hd__mux4_2
*I *3633:A0 I *D sky130_fd_sc_hd__mux2_2
*I *3829:Q O *D sky130_fd_sc_hd__dfxtp_2
*CAP
1 *3462:A2 0.000236951
2 *3633:A0 0.000208077
3 *3829:Q 7.38084e-05
4 *809:6 0.000518837
5 *3494:A1 *3633:A0 4.89395e-05
6 *3765:CLK *3462:A2 0.00016909
7 *3765:CLK *3633:A0 7.27587e-05
8 *3765:CLK *809:6 3.64998e-06
9 *664:18 *3633:A0 3.52253e-05
10 *664:34 *3633:A0 0.000122797
11 *723:24 *3633:A0 0.000122191
12 *723:38 *3633:A0 4.40028e-05
*RES
1 *3829:Q *809:6 2.395 
2 *809:6 *3633:A0 10.43 
3 *809:6 *3462:A2 9.08 
*END

*D_NET *810 0.00185294
*CONN
*I *3470:A2 I *D sky130_fd_sc_hd__mux4_2
*I *3635:A0 I *D sky130_fd_sc_hd__mux2_2
*I *3830:Q O *D sky130_fd_sc_hd__dfxtp_2
*CAP
1 *3470:A2 0.000254292
2 *3635:A0 0.000205376
3 *3830:Q 0.000459667
4 *3470:A2 *818:8 7.4027e-05
5 *3635:A1 *3635:A0 5.21533e-05
6 *3635:S *3635:A0 4.89395e-05
7 *3822:CLK *3470:A2 8.16598e-05
8 *562:214 *3635:A0 8.83862e-05
9 *562:248 *3635:A0 2.55825e-05
10 *665:12 *3470:A2 0
11 *665:12 *3635:A0 0.00013891
12 *685:18 *3470:A2 0.000140844
13 *692:30 *3635:A0 0.000164578
14 *721:51 *3635:A0 0.000118527
*RES
1 *3830:Q *3635:A0 12.915 
2 *3830:Q *3470:A2 11.94 
*END

*D_NET *811 0.00157667
*CONN
*I *3479:A2 I *D sky130_fd_sc_hd__mux4_2
*I *3637:A0 I *D sky130_fd_sc_hd__mux2_2
*I *3831:Q O *D sky130_fd_sc_hd__dfxtp_2
*CAP
1 *3479:A2 0.000243882
2 *3637:A0 8.03172e-05
3 *3831:Q 4.16739e-05
4 *811:8 0.000365873
5 *3479:A2 *3479:A3 0.000351101
6 *811:8 *3479:A3 0.00013475
7 *3637:A1 *3637:A0 8.52845e-05
8 *3637:S *3637:A0 8.35068e-05
9 *3654:A1 *3479:A2 2.01779e-05
10 *3654:A1 *811:8 0.000134373
11 *719:12 *3479:A2 0
12 *719:18 *3637:A0 3.57349e-05
*RES
1 *3831:Q *811:8 5.235 
2 *811:8 *3637:A0 5.43 
3 *811:8 *3479:A2 8.835 
*END

*D_NET *812 0.00212039
*CONN
*I *3420:A3 I *D sky130_fd_sc_hd__mux4_2
*I *3640:A0 I *D sky130_fd_sc_hd__mux2_2
*I *3832:Q O *D sky130_fd_sc_hd__dfxtp_2
*CAP
1 *3420:A3 7.87874e-05
2 *3640:A0 0.000175058
3 *3832:Q 0.000132105
4 *812:8 0.00038595
5 *3420:A1 *3420:A3 8.65961e-05
6 *3420:A2 *3420:A3 4.66108e-05
7 *3607:A *3640:A0 0.000236305
8 *3623:A0 *3640:A0 0.000160651
9 *3640:A1 *3640:A0 0.000273003
10 *3640:S *3640:A0 3.01833e-05
11 *3816:D *3640:A0 0
12 *3816:D *812:8 0
13 *4047:A *3640:A0 0.000252977
14 *4047:A *812:8 0.000262158
*RES
1 *3832:Q *812:8 6.765 
2 *812:8 *3640:A0 9.72 
3 *812:8 *3420:A3 5.085 
*END

*D_NET *813 0.000894931
*CONN
*I *3430:A3 I *D sky130_fd_sc_hd__mux4_2
*I *3642:A0 I *D sky130_fd_sc_hd__mux2_2
*I *3833:Q O *D sky130_fd_sc_hd__dfxtp_2
*CAP
1 *3430:A3 0
2 *3642:A0 0.000274378
3 *3833:Q 6.71065e-05
4 *813:10 0.000341484
5 *3430:A2 *3642:A0 4.82863e-05
6 *3430:S1 *3642:A0 2.04101e-05
7 *3478:S0 *813:10 0
8 *3609:A *813:10 0.000143266
9 *3642:S *813:10 0
*RES
1 *3833:Q *813:10 7.235 
2 *813:10 *3642:A0 5.98 
3 *813:10 *3430:A3 1.6 
*END

*D_NET *814 0.000831927
*CONN
*I *3438:A3 I *D sky130_fd_sc_hd__mux4_2
*I *3644:A0 I *D sky130_fd_sc_hd__mux2_2
*I *3834:Q O *D sky130_fd_sc_hd__dfxtp_2
*CAP
1 *3438:A3 0.000157272
2 *3644:A0 9.90915e-05
3 *3834:Q 2.37394e-05
4 *814:6 0.000280103
5 *3438:A2 *3438:A3 7.87754e-05
6 *3438:A2 *814:6 1.08036e-05
7 *3644:S *3644:A0 6.04287e-05
8 *3818:CLK *3644:A0 9.12494e-06
9 *583:18 *3644:A0 0.000112589
*RES
1 *3834:Q *814:6 2.05 
2 *814:6 *3644:A0 7.79 
3 *814:6 *3438:A3 4.78 
*END

*D_NET *815 0.0012972
*CONN
*I *3646:A0 I *D sky130_fd_sc_hd__mux2_2
*I *3446:A3 I *D sky130_fd_sc_hd__mux4_2
*I *3835:Q O *D sky130_fd_sc_hd__dfxtp_2
*CAP
1 *3646:A0 0.000252965
2 *3446:A3 0.000110935
3 *3835:Q 0.000363901
4 *3446:S1 *3446:A3 4.89395e-05
5 *3646:S *3646:A0 0
6 *3763:D *3446:A3 4.96649e-05
7 *3819:D *3446:A3 0.000136804
8 *3835:CLK *3646:A0 0.000122325
9 *4110:A *3646:A0 8.53113e-06
10 *479:8 *3646:A0 7.3664e-05
11 *595:6 *3446:A3 1.1392e-05
12 *595:6 *3646:A0 0.000118081
13 *672:24 *3646:A0 0
*RES
1 *3835:Q *3446:A3 9.735 
2 *3835:Q *3646:A0 11.01 
*END

*D_NET *816 0.00076989
*CONN
*I *3648:A0 I *D sky130_fd_sc_hd__mux2_2
*I *3455:A3 I *D sky130_fd_sc_hd__mux4_2
*I *3836:Q O *D sky130_fd_sc_hd__dfxtp_2
*CAP
1 *3648:A0 6.91855e-05
2 *3455:A3 2.54989e-05
3 *3836:Q 0.000114818
4 *816:10 0.000209502
5 *3455:S0 *816:10 1.57812e-05
6 *3455:S1 *3648:A0 8.71079e-05
7 *3455:S1 *816:10 4.43871e-06
8 *3615:A *3455:A3 4.82919e-05
9 *3764:CLK *816:10 2.01737e-05
10 *725:39 *3648:A0 7.47284e-05
11 *808:12 *3648:A0 1.1561e-05
12 *808:12 *816:10 8.88031e-05
*RES
1 *3836:Q *816:10 5.94 
2 *816:10 *3455:A3 4.05 
3 *816:10 *3648:A0 5.49 
*END

*D_NET *817 0.00229128
*CONN
*I *3650:A0 I *D sky130_fd_sc_hd__mux2_2
*I *3462:A3 I *D sky130_fd_sc_hd__mux4_2
*I *3837:Q O *D sky130_fd_sc_hd__dfxtp_2
*CAP
1 *3650:A0 0.000190785
2 *3462:A3 0.000472923
3 *3837:Q 0.000663708
4 *3462:A1 *3462:A3 9.08126e-05
5 *3462:S1 *3462:A3 8.64421e-05
6 *3648:S *3650:A0 9.03998e-05
7 *3821:D *3462:A3 0.000185781
8 *516:51 *3650:A0 4.43871e-06
9 *591:12 *3462:A3 6.34306e-05
10 *591:14 *3462:A3 4.86533e-05
11 *670:68 *3462:A3 9.081e-06
12 *670:68 *3650:A0 4.89295e-05
13 *723:38 *3650:A0 0.000335897
*RES
1 *3837:Q *3462:A3 14.07 
2 *3837:Q *3650:A0 11.61 
*END

*D_NET *818 0.00114886
*CONN
*I *3652:A0 I *D sky130_fd_sc_hd__mux2_2
*I *3470:A3 I *D sky130_fd_sc_hd__mux4_2
*I *3838:Q O *D sky130_fd_sc_hd__dfxtp_2
*CAP
1 *3652:A0 0.000187386
2 *3470:A3 0.000122666
3 *3838:Q 3.41038e-05
4 *818:8 0.000344155
5 *3470:A2 *818:8 7.4027e-05
6 *488:8 *3652:A0 0.000160635
7 *488:27 *3652:A0 3.00483e-05
8 *665:12 *3652:A0 7.33465e-05
9 *665:12 *818:8 3.89528e-05
10 *685:18 *3652:A0 7.54567e-05
11 *685:18 *818:8 8.08153e-06
*RES
1 *3838:Q *818:8 4.725 
2 *818:8 *3470:A3 5.085 
3 *818:8 *3652:A0 7.935 
*END

*D_NET *819 0.00223564
*CONN
*I *3479:A3 I *D sky130_fd_sc_hd__mux4_2
*I *3654:A0 I *D sky130_fd_sc_hd__mux2_2
*I *3839:Q O *D sky130_fd_sc_hd__dfxtp_2
*CAP
1 *3479:A3 0.000255985
2 *3654:A0 0.00013546
3 *3839:Q 0
4 *819:6 0.000391445
5 *3479:A2 *3479:A3 0.000351101
6 *3637:S *3479:A3 0.000285767
7 *3637:S *3654:A0 0.000233276
8 *3654:A1 *3479:A3 0.000151706
9 *3654:A1 *3654:A0 0.000247616
10 *3654:S *3654:A0 4.85381e-05
11 *719:12 *3479:A3 0
12 *811:8 *3479:A3 0.00013475
*RES
1 *3839:Q *819:6 3.6 
2 *819:6 *3654:A0 7.74 
3 *819:6 *3479:A3 11.355 
*END

*D_NET *820 0.00176889
*CONN
*I *3419:A0 I *D sky130_fd_sc_hd__mux4_2
*I *3658:A0 I *D sky130_fd_sc_hd__mux2_2
*I *3840:Q O *D sky130_fd_sc_hd__dfxtp_2
*CAP
1 *3419:A0 6.2873e-05
2 *3658:A0 0.000183959
3 *3840:Q 0.000274118
4 *820:8 0.00052095
5 *3419:A0 *828:10 6.90254e-05
6 *3658:A0 *828:10 0.000181
7 *3676:A *3419:A0 6.10324e-05
8 *3676:A *3658:A0 0.000369318
9 *3692:S *3419:A0 4.66108e-05
10 *498:38 *3658:A0 0
*RES
1 *3840:Q *820:8 6.465 
2 *820:8 *3658:A0 8.49 
3 *820:8 *3419:A0 4.92 
*END

*D_NET *821 0.00125193
*CONN
*I *3429:A0 I *D sky130_fd_sc_hd__mux4_2
*I *3660:A0 I *D sky130_fd_sc_hd__mux2_2
*I *3841:Q O *D sky130_fd_sc_hd__dfxtp_2
*CAP
1 *3429:A0 0
2 *3660:A0 8.97847e-05
3 *3841:Q 0.000145581
4 *821:10 0.000235365
5 *3430:S0 *3660:A0 0.000304284
6 *516:109 *821:10 1.19928e-05
7 *623:10 *3660:A0 0.000304284
8 *691:16 *821:10 0.000160641
*RES
1 *3841:Q *821:10 4.405 
2 *821:10 *3660:A0 9.275 
3 *821:10 *3429:A0 1.6 
*END

*D_NET *822 0.00165381
*CONN
*I *3437:A0 I *D sky130_fd_sc_hd__mux4_2
*I *3662:A0 I *D sky130_fd_sc_hd__mux2_2
*I *3842:Q O *D sky130_fd_sc_hd__dfxtp_2
*CAP
1 *3437:A0 0.000327465
2 *3662:A0 0
3 *3842:Q 0.000175994
4 *822:10 0.00050346
5 *3437:S0 *3437:A0 0.000207879
6 *3439:A0 *822:10 0
7 *3439:S *3437:A0 0.000352781
8 *3439:S *822:10 8.53113e-06
9 *3440:A1 *822:10 0
10 *3860:D *822:10 0
11 *3868:D *3437:A0 0
12 *516:57 *822:10 1.63139e-05
13 *590:42 *3437:A0 5.72004e-05
14 *590:42 *822:10 4.18603e-06
*RES
1 *3842:Q *822:10 5.94 
2 *822:10 *3662:A0 3.6 
3 *822:10 *3437:A0 10.995 
*END

*D_NET *823 0.00154393
*CONN
*I *3664:A0 I *D sky130_fd_sc_hd__mux2_2
*I *3445:A0 I *D sky130_fd_sc_hd__mux4_2
*I *3843:Q O *D sky130_fd_sc_hd__dfxtp_2
*CAP
1 *3664:A0 0.000392127
2 *3445:A0 0
3 *3843:Q 0.000310476
4 *823:10 0.000702603
5 *3447:A0 *3664:A0 5.05228e-05
6 *3447:A0 *823:10 5.18317e-06
7 *3448:A1 *3664:A0 4.70326e-05
8 *3664:S *3664:A0 3.59859e-05
*RES
1 *3843:Q *823:10 7.575 
2 *823:10 *3445:A0 3.6 
3 *823:10 *3664:A0 9.99 
*END

*D_NET *824 0.00151558
*CONN
*I *3454:A0 I *D sky130_fd_sc_hd__mux4_2
*I *3666:A0 I *D sky130_fd_sc_hd__mux2_2
*I *3844:Q O *D sky130_fd_sc_hd__dfxtp_2
*CAP
1 *3454:A0 0.000158272
2 *3666:A0 0.000147605
3 *3844:Q 0
4 *824:6 0.000305876
5 *3454:A0 *3454:A1 4.99619e-05
6 *3456:A0 *3454:A0 8.8266e-05
7 *3666:S *3454:A0 3.09164e-05
8 *3666:S *3666:A0 0.000357446
9 *3861:CLK *3454:A0 0.000111096
10 *3861:CLK *3666:A0 6.55406e-05
11 *516:51 *3666:A0 2.30292e-05
12 *663:43 *3454:A0 0.000177568
*RES
1 *3844:Q *824:6 3.6 
2 *824:6 *3666:A0 7.5 
3 *824:6 *3454:A0 7.83 
*END

*D_NET *825 0.00158395
*CONN
*I *3668:A0 I *D sky130_fd_sc_hd__mux2_2
*I *3461:A0 I *D sky130_fd_sc_hd__mux4_2
*I *3845:Q O *D sky130_fd_sc_hd__dfxtp_2
*CAP
1 *3668:A0 0.000108926
2 *3461:A0 0.000171121
3 *3845:Q 0
4 *825:4 0.000280047
5 *3669:A *3668:A0 0.000117406
6 *597:12 *3461:A0 7.03276e-05
7 *634:31 *3461:A0 0.000161253
8 *663:43 *3461:A0 3.83194e-05
9 *663:43 *3668:A0 0.000278117
10 *692:32 *3461:A0 0.000152305
11 *692:38 *3461:A0 0.00020613
*RES
1 *3845:Q *825:4 1.6 
2 *825:4 *3461:A0 10.58 
3 *825:4 *3668:A0 4.48 
*END

*D_NET *826 0.00130189
*CONN
*I *3469:A0 I *D sky130_fd_sc_hd__mux4_2
*I *3670:A0 I *D sky130_fd_sc_hd__mux2_2
*I *3846:Q O *D sky130_fd_sc_hd__dfxtp_2
*CAP
1 *3469:A0 0
2 *3670:A0 0.000127407
3 *3846:Q 2.98325e-05
4 *826:8 0.000157239
5 *3470:S0 *3670:A0 3.65143e-05
6 *3470:S0 *826:8 9.12857e-06
7 *3470:S1 *3670:A0 0.000113763
8 *3470:S1 *826:8 4.65246e-05
9 *3472:A2 *826:8 7.1624e-05
10 *3862:CLK *3670:A0 0.000135402
11 *3983:A *3670:A0 0.000158564
12 *498:32 *3670:A0 0.000303296
13 *507:30 *3670:A0 0.000112595
*RES
1 *3846:Q *826:8 4.725 
2 *826:8 *3670:A0 8.865 
3 *826:8 *3469:A0 3.6 
*END

*D_NET *827 0.000793002
*CONN
*I *3478:A0 I *D sky130_fd_sc_hd__mux4_2
*I *3672:A0 I *D sky130_fd_sc_hd__mux2_2
*I *3847:Q O *D sky130_fd_sc_hd__dfxtp_2
*CAP
1 *3478:A0 0.00016427
2 *3672:A0 0.000223944
3 *3847:Q 5.96741e-05
4 *3478:A0 *3478:A1 0.000158532
5 *3478:S0 *3478:A0 9.17464e-05
6 *3480:A0 *3672:A0 3.17252e-05
7 *3672:S *3672:A0 6.31104e-05
*RES
1 *3847:Q *3672:A0 8.58 
2 *3672:A0 *3478:A0 6.065 
*END

*D_NET *828 0.00183704
*CONN
*I *3675:A0 I *D sky130_fd_sc_hd__mux2_2
*I *3419:A1 I *D sky130_fd_sc_hd__mux4_2
*I *3848:Q O *D sky130_fd_sc_hd__dfxtp_2
*CAP
1 *3675:A0 0.000170096
2 *3419:A1 7.1523e-05
3 *3848:Q 0.00029956
4 *828:10 0.000541179
5 *3419:A0 *828:10 6.90254e-05
6 *3419:S0 *3419:A1 0.000115318
7 *3422:A0 *3675:A0 7.23602e-05
8 *3658:A0 *828:10 0.000181
9 *3675:A1 *3675:A0 0
10 *3675:A1 *828:10 0
11 *3676:A *3675:A0 2.89072e-05
12 *3676:A *828:10 2.0231e-05
13 *3692:S *3419:A1 0.000187031
14 *625:82 *828:10 8.08129e-05
*RES
1 *3848:Q *828:10 8.85 
2 *828:10 *3419:A1 5.775 
3 *828:10 *3675:A0 6.195 
*END

*D_NET *829 0.00156982
*CONN
*I *3429:A1 I *D sky130_fd_sc_hd__mux4_2
*I *3677:A0 I *D sky130_fd_sc_hd__mux2_2
*I *3849:Q O *D sky130_fd_sc_hd__dfxtp_2
*CAP
1 *3429:A1 8.31362e-05
2 *3677:A0 7.49714e-05
3 *3849:Q 0.000222385
4 *829:8 0.000380492
5 *3429:A1 *3711:A1 2.94756e-05
6 *3677:A0 *3711:A1 8.45664e-05
7 *3675:S *3429:A1 8.96091e-05
8 *3675:S *3677:A0 0.000212214
9 *507:46 *3677:A0 9.12494e-06
10 *516:109 *3429:A1 8.23457e-05
11 *599:22 *829:8 0.000301503
*RES
1 *3849:Q *829:8 6.465 
2 *829:8 *3677:A0 6.255 
3 *829:8 *3429:A1 5.52 
*END

*D_NET *830 0.00140404
*CONN
*I *3679:A0 I *D sky130_fd_sc_hd__mux2_2
*I *3437:A1 I *D sky130_fd_sc_hd__mux4_2
*I *3850:Q O *D sky130_fd_sc_hd__dfxtp_2
*CAP
1 *3679:A0 0.000160294
2 *3437:A1 0
3 *3850:Q 0.000248767
4 *830:10 0.000409061
5 *3679:A0 *3437:A3 8.9257e-05
6 *3679:A0 *846:8 1.1392e-05
7 *3440:A1 *3679:A0 9.10064e-06
8 *3440:A1 *830:10 0.000118206
9 *3679:A1 *3679:A0 0.000306859
10 *3680:A *3679:A0 5.11067e-05
11 *3706:S *3679:A0 0
12 *3706:S *830:10 0
13 *516:57 *830:10 0
*RES
1 *3850:Q *830:10 7.905 
2 *830:10 *3437:A1 3.6 
3 *830:10 *3679:A0 7.845 
*END

*D_NET *831 0.00156956
*CONN
*I *3445:A1 I *D sky130_fd_sc_hd__mux4_2
*I *3681:A0 I *D sky130_fd_sc_hd__mux2_2
*I *3851:Q O *D sky130_fd_sc_hd__dfxtp_2
*CAP
1 *3445:A1 3.39263e-05
2 *3681:A0 0.000337286
3 *3851:Q 0.000111369
4 *831:10 0.000482581
5 *3447:A1 *3681:A0 0
6 *3681:S *3681:A0 1.7635e-05
7 *4111:A *3681:A0 0.000119242
8 *619:55 *3681:A0 0.000288165
9 *619:55 *831:10 6.01184e-05
10 *670:44 *3681:A0 0.000119242
*RES
1 *3851:Q *831:10 5.43 
2 *831:10 *3681:A0 10.965 
3 *831:10 *3445:A1 4.05 
*END

*D_NET *832 0.00157543
*CONN
*I *3683:A0 I *D sky130_fd_sc_hd__mux2_2
*I *3454:A1 I *D sky130_fd_sc_hd__mux4_2
*I *3852:Q O *D sky130_fd_sc_hd__dfxtp_2
*CAP
1 *3683:A0 0.000226129
2 *3454:A1 0.000301981
3 *3852:Q 0
4 *832:6 0.00052811
5 *3454:A0 *3454:A1 4.99619e-05
6 *3456:A0 *3454:A1 9.21168e-05
7 *3456:A1 *3454:A1 0
8 *3683:A1 *3683:A0 3.71228e-05
9 *3683:S *3683:A0 0.000137452
10 *3861:CLK *3454:A1 0.000202554
*RES
1 *3852:Q *832:6 3.6 
2 *832:6 *3454:A1 10.38 
3 *832:6 *3683:A0 7.605 
*END

*D_NET *833 0.00162333
*CONN
*I *3461:A1 I *D sky130_fd_sc_hd__mux4_2
*I *3685:A0 I *D sky130_fd_sc_hd__mux2_2
*I *3853:Q O *D sky130_fd_sc_hd__dfxtp_2
*CAP
1 *3461:A1 0.000125385
2 *3685:A0 0.000122399
3 *3853:Q 0.00016234
4 *833:8 0.000410124
5 *3445:S0 *833:8 4.82919e-05
6 *3845:D *3685:A0 0.000159957
7 *3867:CLK *833:8 6.0147e-06
8 *597:18 *833:8 2.31329e-05
9 *634:31 *3461:A1 0.000203472
10 *634:31 *3685:A0 0.000314438
11 *685:24 *3461:A1 4.77769e-05
*RES
1 *3853:Q *833:8 5.43 
2 *833:8 *3685:A0 7.275 
3 *833:8 *3461:A1 6.45 
*END

*D_NET *834 0.0016252
*CONN
*I *3469:A1 I *D sky130_fd_sc_hd__mux4_2
*I *3687:A0 I *D sky130_fd_sc_hd__mux2_2
*I *3854:Q O *D sky130_fd_sc_hd__dfxtp_2
*CAP
1 *3469:A1 0.000101748
2 *3687:A0 0
3 *3854:Q 0.000308397
4 *834:10 0.000410144
5 *3469:S0 *3469:A1 3.12855e-05
6 *3469:S1 *3469:A1 4.66108e-05
7 *3721:S *3469:A1 7.73406e-05
8 *3721:S *834:10 6.83991e-05
9 *525:39 *834:10 0.000271303
10 *685:18 *3469:A1 0.000178946
11 *685:18 *834:10 0.000131022
*RES
1 *3854:Q *834:10 8.445 
2 *834:10 *3687:A0 3.6 
3 *834:10 *3469:A1 6.54 
*END

*D_NET *835 0.00232452
*CONN
*I *3478:A1 I *D sky130_fd_sc_hd__mux4_2
*I *3689:A0 I *D sky130_fd_sc_hd__mux2_2
*I *3855:Q O *D sky130_fd_sc_hd__dfxtp_2
*CAP
1 *3478:A1 0.000126386
2 *3689:A0 0.000127767
3 *3855:Q 0.000224322
4 *835:10 0.000478475
5 *3478:A0 *3478:A1 0.000158532
6 *3478:S0 *3478:A1 0.000190336
7 *3480:A0 *835:10 0.000176195
8 *3672:A1 *3689:A0 7.20899e-05
9 *3673:A *835:10 7.23533e-05
10 *3679:S *3689:A0 0.000122797
11 *507:65 *3689:A0 4.77757e-05
12 *525:60 *3689:A0 0
13 *567:8 *3689:A0 0.000151346
14 *567:8 *835:10 0.000289699
15 *719:82 *3689:A0 8.64421e-05
*RES
1 *3855:Q *835:10 8.415 
2 *835:10 *3689:A0 6.975 
3 *835:10 *3478:A1 6.465 
*END

*D_NET *836 0.00188949
*CONN
*I *3419:A2 I *D sky130_fd_sc_hd__mux4_2
*I *3692:A0 I *D sky130_fd_sc_hd__mux2_2
*I *3856:Q O *D sky130_fd_sc_hd__dfxtp_2
*CAP
1 *3419:A2 0.000263605
2 *3692:A0 0.000407581
3 *3856:Q 0
4 *836:4 0.000671186
5 *3419:A2 *3419:A3 4.77807e-05
6 *3420:S0 *3419:A2 5.23283e-05
7 *3422:A1 *3692:A0 7.03276e-05
8 *3440:A1 *3692:A0 7.03276e-05
9 *3692:S *3692:A0 0.000105437
10 *3864:D *3692:A0 0.000200913
*RES
1 *3856:Q *836:4 1.6 
2 *836:4 *3692:A0 11.42 
3 *836:4 *3419:A2 5.29 
*END

*D_NET *837 0.00159826
*CONN
*I *3429:A2 I *D sky130_fd_sc_hd__mux4_2
*I *3694:A0 I *D sky130_fd_sc_hd__mux2_2
*I *3857:Q O *D sky130_fd_sc_hd__dfxtp_2
*CAP
1 *3429:A2 9.22209e-05
2 *3694:A0 0
3 *3857:Q 0.000362672
4 *837:12 0.000454892
5 *3692:S *3429:A2 0.000116318
6 *3694:A1 *837:12 3.54721e-05
7 *3712:A *837:12 9.1113e-06
8 *3857:D *837:12 0.000197862
9 *516:109 *3429:A2 0.000147877
10 *689:25 *3429:A2 0.000181835
*RES
1 *3857:Q *837:12 10.28 
2 *837:12 *3694:A0 1.6 
3 *837:12 *3429:A2 4.945 
*END

*D_NET *838 0.00115274
*CONN
*I *3437:A2 I *D sky130_fd_sc_hd__mux4_2
*I *3696:A0 I *D sky130_fd_sc_hd__mux2_2
*I *3858:Q O *D sky130_fd_sc_hd__dfxtp_2
*CAP
1 *3437:A2 0.000195624
2 *3696:A0 0
3 *3858:Q 8.73171e-05
4 *838:10 0.000282941
5 *3654:S *838:10 9.14049e-05
6 *3866:D *3437:A2 9.24049e-05
7 *583:12 *3437:A2 0.000203002
8 *583:12 *838:10 0.000139245
9 *621:10 *3437:A2 1.1392e-05
10 *621:16 *3437:A2 2.33136e-05
11 *621:16 *838:10 2.60986e-05
*RES
1 *3858:Q *838:10 5.685 
2 *838:10 *3696:A0 3.6 
3 *838:10 *3437:A2 7.83 
*END

*D_NET *839 0.00247401
*CONN
*I *3445:A2 I *D sky130_fd_sc_hd__mux4_2
*I *3698:A0 I *D sky130_fd_sc_hd__mux2_2
*I *3859:Q O *D sky130_fd_sc_hd__dfxtp_2
*CAP
1 *3445:A2 0.00012992
2 *3698:A0 0.00014939
3 *3859:Q 0.000106103
4 *839:8 0.000385413
5 *3445:A2 *3445:A3 0.000121547
6 *3445:S1 *3445:A2 0.000121547
7 *3665:A *3445:A2 0.000184752
8 *3665:A *3698:A0 3.05295e-05
9 *3682:A *3445:A2 0.000326639
10 *3682:A *3698:A0 0.000183731
11 *3685:S *3698:A0 0.000101764
12 *3685:S *839:8 1.35779e-05
13 *3843:D *3698:A0 0
14 *4111:A *3698:A0 0.000310389
15 *516:41 *3698:A0 0
16 *619:55 *3698:A0 0
17 *670:44 *3698:A0 0.000308713
*RES
1 *3859:Q *839:8 4.74 
2 *839:8 *3698:A0 9.12 
3 *839:8 *3445:A2 8.67 
*END

*D_NET *840 0.00125926
*CONN
*I *3454:A2 I *D sky130_fd_sc_hd__mux4_2
*I *3700:A0 I *D sky130_fd_sc_hd__mux2_2
*I *3860:Q O *D sky130_fd_sc_hd__dfxtp_2
*CAP
1 *3454:A2 0.000162437
2 *3700:A0 0.000108236
3 *3860:Q 0
4 *840:6 0.000270673
5 *3454:A2 *3454:A3 0.00019637
6 *3454:S1 *3454:A2 7.23533e-05
7 *3454:S1 *3700:A0 0.00022921
8 *516:51 *3700:A0 3.00381e-05
9 *516:57 *3700:A0 2.75229e-05
10 *725:59 *3454:A2 3.50033e-05
11 *725:59 *3700:A0 0.000127416
*RES
1 *3860:Q *840:6 3.6 
2 *840:6 *3700:A0 7.05 
3 *840:6 *3454:A2 6.3 
*END

*D_NET *841 0.00139909
*CONN
*I *3461:A2 I *D sky130_fd_sc_hd__mux4_2
*I *3702:A0 I *D sky130_fd_sc_hd__mux2_2
*I *3861:Q O *D sky130_fd_sc_hd__dfxtp_2
*CAP
1 *3461:A2 9.58997e-05
2 *3702:A0 0.000343675
3 *3861:Q 0
4 *841:4 0.000439575
5 *3461:A2 *3461:A3 0.000161486
6 *3702:A0 *3461:A3 0.000122801
7 *3702:A0 *3719:A1 7.01359e-05
8 *3703:A *3702:A0 0
9 *3720:A *3702:A0 7.90788e-05
10 *633:25 *3702:A0 0
11 *663:43 *3702:A0 8.64421e-05
*RES
1 *3861:Q *841:4 1.6 
2 *841:4 *3702:A0 11.765 
3 *841:4 *3461:A2 3.085 
*END

*D_NET *842 0.000856732
*CONN
*I *3704:A0 I *D sky130_fd_sc_hd__mux2_2
*I *3469:A2 I *D sky130_fd_sc_hd__mux4_2
*I *3862:Q O *D sky130_fd_sc_hd__dfxtp_2
*CAP
1 *3704:A0 0.000112369
2 *3469:A2 2.0288e-05
3 *3862:Q 6.28796e-05
4 *842:8 0.000195537
5 *3469:A2 *3469:A3 4.77769e-05
6 *3704:A0 *3721:A1 0.00012849
7 *3721:S *3704:A0 5.32747e-05
8 *3721:S *842:8 6.05913e-05
9 *691:16 *3704:A0 8.40213e-05
10 *721:79 *3704:A0 4.58262e-06
11 *721:79 *842:8 8.69208e-05
*RES
1 *3862:Q *842:8 5.49 
2 *842:8 *3469:A2 4.05 
3 *842:8 *3704:A0 6.285 
*END

*D_NET *843 0.000929057
*CONN
*I *3478:A2 I *D sky130_fd_sc_hd__mux4_2
*I *3706:A0 I *D sky130_fd_sc_hd__mux2_2
*I *3863:Q O *D sky130_fd_sc_hd__dfxtp_2
*CAP
1 *3478:A2 0.00015617
2 *3706:A0 0.00019389
3 *3863:Q 0
4 *843:4 0.00035006
5 *3498:S *3706:A0 7.06238e-05
6 *3706:S *3706:A0 9.12494e-06
7 *3707:A *3706:A0 0
8 *3863:CLK *3478:A2 3.00381e-05
9 *3863:CLK *3706:A0 8.88799e-05
10 *684:48 *3706:A0 3.02702e-05
*RES
1 *3863:Q *843:4 1.6 
2 *843:4 *3706:A0 8.72 
3 *843:4 *3478:A2 3.43 
*END

*D_NET *844 0.00104148
*CONN
*I *3419:A3 I *D sky130_fd_sc_hd__mux4_2
*I *3709:A1 I *D sky130_fd_sc_hd__mux2_2
*I *3864:Q O *D sky130_fd_sc_hd__dfxtp_2
*CAP
1 *3419:A3 0.000118204
2 *3709:A1 0.000184996
3 *3864:Q 0
4 *844:6 0.0003032
5 *3419:A2 *3419:A3 4.77807e-05
6 *3422:S *3709:A1 4.41363e-05
7 *3692:S *3419:A3 0.000121339
8 *3692:S *3709:A1 2.93136e-05
9 *3710:A *3419:A3 4.44403e-05
10 *3710:A *3709:A1 9.91348e-05
11 *562:75 *3419:A3 0
12 *625:82 *3709:A1 4.89395e-05
*RES
1 *3864:Q *844:6 3.6 
2 *844:6 *3709:A1 7.665 
3 *844:6 *3419:A3 6.21 
*END

*D_NET *845 0.00177315
*CONN
*I *3429:A3 I *D sky130_fd_sc_hd__mux4_2
*I *3711:A1 I *D sky130_fd_sc_hd__mux2_2
*I *3865:Q O *D sky130_fd_sc_hd__dfxtp_2
*CAP
1 *3429:A3 0
2 *3711:A1 0.000345865
3 *3865:Q 0.000125818
4 *845:10 0.000471683
5 *3429:A1 *3711:A1 2.94756e-05
6 *3429:S1 *3711:A1 9.50342e-06
7 *3429:S1 *845:10 0.000141592
8 *3675:S *3711:A1 0
9 *3675:S *845:10 4.65607e-05
10 *3677:A0 *3711:A1 8.45664e-05
11 *3678:A *3711:A1 7.23237e-05
12 *3849:D *3711:A1 0.000156623
13 *3849:D *845:10 0.000133763
14 *525:45 *3711:A1 4.77769e-05
15 *623:71 *3711:A1 0.0001076
*RES
1 *3865:Q *845:10 6.375 
2 *845:10 *3711:A1 10.47 
3 *845:10 *3429:A3 3.6 
*END

*D_NET *846 0.00121734
*CONN
*I *3713:A1 I *D sky130_fd_sc_hd__mux2_2
*I *3437:A3 I *D sky130_fd_sc_hd__mux4_2
*I *3866:Q O *D sky130_fd_sc_hd__dfxtp_2
*CAP
1 *3713:A1 8.9636e-05
2 *3437:A3 0.000333327
3 *3866:Q 4.15038e-05
4 *846:8 0.000464467
5 *3437:S1 *3437:A3 2.75145e-05
6 *3440:A1 *3437:A3 8.91927e-05
7 *3440:A1 *3713:A1 7.10498e-05
8 *3679:A0 *3437:A3 8.9257e-05
9 *3679:A0 *846:8 1.1392e-05
*RES
1 *3866:Q *846:8 4.05 
2 *846:8 *3437:A3 8.835 
3 *846:8 *3713:A1 5.49 
*END

*D_NET *847 0.00125619
*CONN
*I *3445:A3 I *D sky130_fd_sc_hd__mux4_2
*I *3715:A1 I *D sky130_fd_sc_hd__mux2_2
*I *3867:Q O *D sky130_fd_sc_hd__dfxtp_2
*CAP
1 *3445:A3 0.000238699
2 *3715:A1 0.000192104
3 *3867:Q 0
4 *847:4 0.000430803
5 *3445:A2 *3445:A3 0.000121547
6 *3445:S1 *3445:A3 0.000107205
7 *3682:A *3715:A1 6.90254e-05
8 *3715:A0 *3715:A1 1.49286e-05
9 *3715:S *3715:A1 1.77665e-05
10 *3851:CLK *3715:A1 3.72007e-05
11 *3851:D *3715:A1 2.69153e-05
*RES
1 *3867:Q *847:4 1.6 
2 *847:4 *3715:A1 8.3 
3 *847:4 *3445:A3 4.825 
*END

*D_NET *848 0.00165967
*CONN
*I *3717:A1 I *D sky130_fd_sc_hd__mux2_2
*I *3454:A3 I *D sky130_fd_sc_hd__mux4_2
*I *3868:Q O *D sky130_fd_sc_hd__dfxtp_2
*CAP
1 *3717:A1 0.000143809
2 *3454:A3 0.000194112
3 *3868:Q 0.000337921
4 *3454:A2 *3454:A3 0.00019637
5 *3454:S1 *3454:A3 0.000272984
6 *3456:A1 *3717:A1 2.49909e-05
7 *3684:A *3717:A1 0.000244089
8 *725:59 *3717:A1 0.000245391
*RES
1 *3868:Q *3454:A3 7.46 
2 *3868:Q *3717:A1 11.01 
*END

*D_NET *849 0.00181186
*CONN
*I *3461:A3 I *D sky130_fd_sc_hd__mux4_2
*I *3719:A1 I *D sky130_fd_sc_hd__mux2_2
*I *3869:Q O *D sky130_fd_sc_hd__dfxtp_2
*CAP
1 *3461:A3 0.000173247
2 *3719:A1 0.000145206
3 *3869:Q 0.000128446
4 *849:10 0.0004469
5 *3461:A2 *3461:A3 0.000161486
6 *3702:A0 *3461:A3 0.000122801
7 *3702:A0 *3719:A1 7.01359e-05
8 *3719:S *3719:A1 0.000158536
9 *3720:A *3719:A1 9.37846e-05
10 *3720:A *849:10 0.000149839
11 *685:34 *3461:A3 0.000161474
*RES
1 *3869:Q *849:10 5.94 
2 *849:10 *3719:A1 6.21 
3 *849:10 *3461:A3 7.5 
*END

*D_NET *850 0.00150135
*CONN
*I *3469:A3 I *D sky130_fd_sc_hd__mux4_2
*I *3721:A1 I *D sky130_fd_sc_hd__mux2_2
*I *3870:Q O *D sky130_fd_sc_hd__dfxtp_2
*CAP
1 *3469:A3 0.000147948
2 *3721:A1 0.000251036
3 *3870:Q 0.000121109
4 *850:6 0.000520094
5 *3469:A2 *3469:A3 4.77769e-05
6 *3704:A0 *3721:A1 0.00012849
7 *3721:A0 *3721:A1 0.000150623
8 *3721:S *3721:A1 0
9 *3877:CLK *3721:A1 7.23602e-05
10 *721:79 *3721:A1 6.19082e-05
*RES
1 *3870:Q *850:6 2.74 
2 *850:6 *3721:A1 11.105 
3 *850:6 *3469:A3 3.445 
*END

*D_NET *851 0.00093077
*CONN
*I *3478:A3 I *D sky130_fd_sc_hd__mux4_2
*I *3723:A1 I *D sky130_fd_sc_hd__mux2_2
*I *3871:Q O *D sky130_fd_sc_hd__dfxtp_2
*CAP
1 *3478:A3 3.37454e-05
2 *3723:A1 0.000103646
3 *3871:Q 0.000230501
4 *851:8 0.000367893
5 *3478:S1 *3723:A1 5.20968e-05
6 *3724:A *3723:A1 0
7 *3724:A *851:8 0
8 *3988:A *851:8 3.89528e-05
9 *350:57 *3723:A1 0
10 *350:57 *851:8 0
11 *592:14 *851:8 5.39718e-05
12 *719:82 *3723:A1 4.99619e-05
*RES
1 *3871:Q *851:8 7.275 
2 *851:8 *3723:A1 5.43 
3 *851:8 *3478:A3 4.05 
*END

*D_NET *852 0.000966035
*CONN
*I *3416:A0 I *D sky130_fd_sc_hd__mux4_2
*I *3727:A0 I *D sky130_fd_sc_hd__mux2_2
*I *3872:Q O *D sky130_fd_sc_hd__dfxtp_2
*CAP
1 *3416:A0 0.000107488
2 *3727:A0 0
3 *3872:Q 0.000243942
4 *852:14 0.00035143
5 *347:12 *3416:A0 0
6 *347:12 *852:14 0
7 *626:10 *3416:A0 0.000164679
8 *626:14 *3416:A0 6.75724e-05
9 *626:14 *852:14 3.09233e-05
10 *628:20 *852:14 0
*RES
1 *3872:Q *852:14 7.02 
2 *852:14 *3727:A0 3.6 
3 *852:14 *3416:A0 6.255 
*END

*D_NET *853 0.000552641
*CONN
*I *3729:A0 I *D sky130_fd_sc_hd__mux2_2
*I *3426:A0 I *D sky130_fd_sc_hd__mux4_2
*I *3873:Q O *D sky130_fd_sc_hd__dfxtp_2
*CAP
1 *3729:A0 5.77406e-05
2 *3426:A0 0.000115915
3 *3873:Q 6.88524e-05
4 *853:6 0.000242508
5 *681:124 *3729:A0 4.63518e-05
6 *699:52 *3729:A0 2.12738e-05
*RES
1 *3873:Q *853:6 2.395 
2 *853:6 *3426:A0 2.74 
3 *853:6 *3729:A0 6.725 
*END

*D_NET *854 0.000886157
*CONN
*I *3731:A0 I *D sky130_fd_sc_hd__mux2_2
*I *3434:A0 I *D sky130_fd_sc_hd__mux4_2
*I *3874:Q O *D sky130_fd_sc_hd__dfxtp_2
*CAP
1 *3731:A0 0
2 *3434:A0 7.07728e-05
3 *3874:Q 5.53239e-05
4 *854:10 0.000126097
5 *3434:S0 *3434:A0 0.000309804
6 *3436:A0 *3434:A0 0.0002336
7 *3727:S *854:10 9.05592e-05
*RES
1 *3874:Q *854:10 6.725 
2 *854:10 *3434:A0 4.465 
3 *854:10 *3731:A0 1.6 
*END

*D_NET *855 0.00169742
*CONN
*I *3442:A0 I *D sky130_fd_sc_hd__mux4_2
*I *3733:A0 I *D sky130_fd_sc_hd__mux2_2
*I *3875:Q O *D sky130_fd_sc_hd__dfxtp_2
*CAP
1 *3442:A0 0.000199251
2 *3733:A0 0.000254129
3 *3875:Q 7.00864e-05
4 *855:8 0.000523466
5 *3448:A0 *3442:A0 0.000113222
6 *3448:A0 *855:8 0.000136679
7 *535:18 *3733:A0 4.77769e-05
8 *535:26 *3733:A0 0.000122808
9 *620:6 *3733:A0 0.000116991
10 *729:80 *3442:A0 0.000113007
*RES
1 *3875:Q *855:8 5.235 
2 *855:8 *3733:A0 8.19 
3 *855:8 *3442:A0 6.81 
*END

*D_NET *856 0.00104529
*CONN
*I *3450:A0 I *D sky130_fd_sc_hd__mux4_2
*I *3735:A0 I *D sky130_fd_sc_hd__mux2_2
*I *3876:Q O *D sky130_fd_sc_hd__dfxtp_2
*CAP
1 *3450:A0 0.000113446
2 *3735:A0 0.000248904
3 *3876:Q 4.0042e-05
4 *856:6 0.000402393
5 *3598:A *3450:A0 0
6 *347:12 *3450:A0 8.21712e-05
7 *347:12 *3735:A0 4.23878e-05
8 *544:61 *3735:A0 0.000115945
9 *610:23 *3450:A0 0
*RES
1 *3876:Q *856:6 2.05 
2 *856:6 *3735:A0 9.155 
3 *856:6 *3450:A0 8 
*END

*D_NET *857 0.00155302
*CONN
*I *3737:A0 I *D sky130_fd_sc_hd__mux2_2
*I *3458:A0 I *D sky130_fd_sc_hd__mux4_2
*I *3877:Q O *D sky130_fd_sc_hd__dfxtp_2
*CAP
1 *3737:A0 6.85324e-05
2 *3458:A0 0.000374013
3 *3877:Q 0.000194124
4 *857:6 0.000636669
5 *3458:A0 *865:12 0.000161529
6 *3737:A1 *3737:A0 9.50342e-06
7 *3877:D *3458:A0 7.70553e-06
8 *26:22 *3737:A0 3.15127e-05
9 *681:44 *3458:A0 4.28634e-05
10 *681:44 *857:6 2.65687e-05
*RES
1 *3877:Q *857:6 3.775 
2 *857:6 *3458:A0 6.19 
3 *857:6 *3737:A0 6.725 
*END

*D_NET *858 0.000853889
*CONN
*I *3466:A0 I *D sky130_fd_sc_hd__mux4_2
*I *3739:A0 I *D sky130_fd_sc_hd__mux2_2
*I *3878:Q O *D sky130_fd_sc_hd__dfxtp_2
*CAP
1 *3466:A0 2.98296e-05
2 *3739:A0 1.36534e-05
3 *3878:Q 0.000145981
4 *858:10 0.000189464
5 *3466:S0 *858:10 0
6 *3468:A0 *3739:A0 4.66108e-05
7 *3468:A1 *3739:A0 4.66108e-05
8 *3473:A1 *858:10 3.72916e-05
9 *3739:S *858:10 0
10 *442:37 *3466:A0 9.30787e-05
11 *442:37 *858:10 0.00015829
12 *722:16 *3466:A0 8.45475e-05
13 *722:16 *858:10 8.53113e-06
*RES
1 *3878:Q *858:10 6.285 
2 *858:10 *3739:A0 4.05 
3 *858:10 *3466:A0 4.725 
*END

*D_NET *859 0.000935005
*CONN
*I *3474:A0 I *D sky130_fd_sc_hd__mux4_2
*I *3741:A0 I *D sky130_fd_sc_hd__mux2_2
*I *3879:Q O *D sky130_fd_sc_hd__dfxtp_2
*CAP
1 *3474:A0 0.000154371
2 *3741:A0 0.000192129
3 *3879:Q 3.77582e-05
4 *3474:S1 *3474:A0 0.000311288
5 *3580:S *3741:A0 0.000115464
6 *3735:S *3741:A0 9.30717e-05
7 *662:59 *3741:A0 3.09233e-05
*RES
1 *3879:Q *3741:A0 8.58 
2 *3741:A0 *3474:A0 6.065 
*END

*D_NET *860 0.00118717
*CONN
*I *3744:A0 I *D sky130_fd_sc_hd__mux2_2
*I *3416:A1 I *D sky130_fd_sc_hd__mux4_2
*I *3880:Q O *D sky130_fd_sc_hd__dfxtp_2
*CAP
1 *3744:A0 0.000141501
2 *3416:A1 0.000235474
3 *3880:Q 0.000376975
4 *3744:S *3744:A0 9.23578e-05
5 *626:10 *3416:A1 0.000106393
6 *628:14 *3416:A1 3.45588e-05
7 *628:14 *3744:A0 5.09431e-05
8 *628:20 *3416:A1 0.000148968
*RES
1 *3880:Q *3416:A1 11.85 
2 *3880:Q *3744:A0 9.63 
*END

*D_NET *861 0.00231461
*CONN
*I *3426:A1 I *D sky130_fd_sc_hd__mux4_2
*I *3746:A0 I *D sky130_fd_sc_hd__mux2_2
*I *3881:Q O *D sky130_fd_sc_hd__dfxtp_2
*CAP
1 *3426:A1 0.000215672
2 *3746:A0 0.000554273
3 *3881:Q 6.69986e-05
4 *861:6 0.000836943
5 *3746:A1 *3746:A0 0.000112027
6 *3747:A *3746:A0 1.7245e-05
7 *3881:CLK *3746:A0 2.69153e-05
8 *3881:D *3746:A0 7.22759e-05
9 *3971:A *3426:A1 0.000110676
10 *562:162 *3426:A1 2.0172e-05
11 *562:176 *3426:A1 7.44495e-05
12 *686:10 *3426:A1 5.31158e-06
13 *686:22 *3426:A1 0.000201648
*RES
1 *3881:Q *861:6 2.395 
2 *861:6 *3746:A0 8.275 
3 *861:6 *3426:A1 10.835 
*END

*D_NET *862 0.00331889
*CONN
*I *3748:A0 I *D sky130_fd_sc_hd__mux2_2
*I *3434:A1 I *D sky130_fd_sc_hd__mux4_2
*I *3882:Q O *D sky130_fd_sc_hd__dfxtp_2
*CAP
1 *3748:A0 0.000237179
2 *3434:A1 7.06355e-05
3 *3882:Q 0.000511137
4 *862:10 0.000818952
5 *3434:S1 *3748:A0 0.00020477
6 *3434:S1 *862:10 5.31158e-06
7 *3532:A1 *862:10 8.35068e-05
8 *3749:A *3748:A0 0.000122202
9 *3882:D *3748:A0 0.000453914
10 *3882:D *862:10 0.000339768
11 *4011:A *3748:A0 0.000113124
12 *4015:A *862:10 0
13 *544:78 *3748:A0 2.49909e-05
14 *622:14 *3748:A0 0.000268176
15 *628:20 *3748:A0 2.69079e-05
16 *668:41 *862:10 3.83194e-05
*RES
1 *3882:Q *862:10 11.43 
2 *862:10 *3434:A1 4.395 
3 *862:10 *3748:A0 11.58 
*END

*D_NET *863 0.00101258
*CONN
*I *3750:A0 I *D sky130_fd_sc_hd__mux2_2
*I *3442:A1 I *D sky130_fd_sc_hd__mux4_2
*I *3883:Q O *D sky130_fd_sc_hd__dfxtp_2
*CAP
1 *3750:A0 7.56431e-05
2 *3442:A1 0.000129211
3 *3883:Q 4.73495e-05
4 *863:8 0.000252204
5 *3750:A1 *3750:A0 0.000223484
6 *3750:A1 *863:8 4.77719e-05
7 *3750:S *3750:A0 0.000122699
8 *571:8 *3442:A1 0
9 *620:12 *3442:A1 0.000114221
10 *687:54 *3442:A1 0
*RES
1 *3883:Q *863:8 2.41 
2 *863:8 *3442:A1 8.255 
3 *863:8 *3750:A0 3.775 
*END

*D_NET *864 0.00116161
*CONN
*I *3450:A1 I *D sky130_fd_sc_hd__mux4_2
*I *3752:A0 I *D sky130_fd_sc_hd__mux2_2
*I *3884:Q O *D sky130_fd_sc_hd__dfxtp_2
*CAP
1 *3450:A1 0.00010362
2 *3752:A0 0.000285853
3 *3884:Q 0.000182233
4 *3450:S1 *3450:A1 0.000122331
5 *3753:A *3752:A0 0.000116233
6 *347:12 *3450:A1 0.000185405
7 *544:61 *3450:A1 0.000103192
8 *618:47 *3450:A1 6.27438e-05
*RES
1 *3884:Q *3752:A0 6.08 
2 *3752:A0 *3450:A1 10.83 
*END

*D_NET *865 0.00197258
*CONN
*I *3458:A1 I *D sky130_fd_sc_hd__mux4_2
*I *3754:A0 I *D sky130_fd_sc_hd__mux2_2
*I *3885:Q O *D sky130_fd_sc_hd__dfxtp_2
*CAP
1 *3458:A1 0
2 *3754:A0 0.000334596
3 *3885:Q 0.0003427
4 *865:12 0.000677296
5 *3458:A0 *865:12 0.000161529
6 *3458:S1 *3754:A0 0.000122801
7 *3458:S1 *865:12 4.89295e-05
8 *3460:A0 *865:12 1.4399e-05
9 *3460:A1 *865:12 0
10 *3464:A0 *3754:A0 8.53113e-06
11 *3755:A *3754:A0 0.000158515
12 *3877:D *865:12 3.39151e-05
13 *4052:A *3754:A0 0
14 *452:14 *865:12 0
15 *562:37 *3754:A0 1.7824e-05
16 *681:44 *3754:A0 4.01548e-05
17 *681:44 *865:12 1.1392e-05
*RES
1 *3885:Q *865:12 11.63 
2 *865:12 *3754:A0 11.615 
3 *865:12 *3458:A1 1.6 
*END

*D_NET *866 0.00104611
*CONN
*I *3756:A0 I *D sky130_fd_sc_hd__mux2_2
*I *3466:A1 I *D sky130_fd_sc_hd__mux4_2
*I *3886:Q O *D sky130_fd_sc_hd__dfxtp_2
*CAP
1 *3756:A0 4.09672e-05
2 *3466:A1 0.000141837
3 *3886:Q 7.48367e-05
4 *866:6 0.000257641
5 *3468:A1 *3756:A0 0.00013598
6 *442:37 *3756:A0 0.000139245
7 *688:31 *3466:A1 0
8 *688:31 *866:6 5.83121e-06
9 *688:35 *3466:A1 0.000213056
10 *688:35 *866:6 3.67118e-05
*RES
1 *3886:Q *866:6 2.74 
2 *866:6 *3466:A1 4.495 
3 *866:6 *3756:A0 7.235 
*END

*D_NET *867 0.00171554
*CONN
*I *3758:A0 I *D sky130_fd_sc_hd__mux2_2
*I *3474:A1 I *D sky130_fd_sc_hd__mux4_2
*I *3887:Q O *D sky130_fd_sc_hd__dfxtp_2
*CAP
1 *3758:A0 0.000147491
2 *3474:A1 0
3 *3887:Q 0.000132194
4 *867:8 0.000279685
5 *3450:S0 *867:8 0
6 *3515:A0 *3758:A0 4.66108e-05
7 *3759:A *3758:A0 1.91597e-05
8 *3879:D *3758:A0 0.000139238
9 *3879:D *867:8 0.000229408
10 *4015:A *3758:A0 0
11 *544:61 *3758:A0 0.00027486
12 *544:61 *867:8 4.49328e-05
13 *544:78 *3758:A0 8.34281e-06
14 *613:10 *3758:A0 5.92191e-05
15 *613:10 *867:8 0.000112799
16 *720:23 *3758:A0 4.41506e-05
17 *720:36 *3758:A0 0.000177448
*RES
1 *3887:Q *867:8 7.53 
2 *867:8 *3474:A1 3.6 
3 *867:8 *3758:A0 8.79 
*END

*D_NET *868 0.00418496
*CONN
*I *3262:B1 I *D sky130_fd_sc_hd__a21o_2
*I *3285:D I *D sky130_fd_sc_hd__and4_4
*I *4037:A I *D sky130_fd_sc_hd__clkdlybuf4s25_1
*I *3929:Q O *D sky130_fd_sc_hd__dfrtp_2
*CAP
1 *3262:B1 0.000398534
2 *3285:D 0.000401548
3 *4037:A 0
4 *3929:Q 0.000148161
5 *868:17 0.000863274
6 *868:8 0.000211353
7 *3262:B1 *3238:B1 5.74791e-05
8 *3262:B1 *3930:D 0
9 *3285:D *3238:B1 8.40213e-05
10 *3285:D *869:71 4.82919e-05
11 *868:8 *3319:B1 0
12 *868:17 *3319:B1 0
13 *868:17 *906:10 0
14 *3252:A1 *3285:D 4.66108e-05
15 *3252:B1 *3285:D 2.16306e-05
16 *3262:A1 *3262:B1 0.000196376
17 *3262:A1 *3285:D 5.38986e-06
18 *3262:A2 *3262:B1 4.82919e-05
19 *3263:A2 *3262:B1 9.56742e-05
20 *3263:A2 *3285:D 0.000199352
21 *3264:A *3285:D 0.00029109
22 *3605:D_N *3262:B1 0.000131611
23 *3605:D_N *3285:D 5.38986e-06
24 *3929:CLK *3262:B1 0.000197836
25 *3929:CLK *868:8 0.000320834
26 *3929:CLK *868:17 0.000106655
27 *3930:RESET_B *3262:B1 2.91561e-06
28 *184:18 *3262:B1 2.4997e-05
29 *184:18 *3285:D 9.17504e-06
30 *184:40 *3285:D 4.82919e-05
31 *185:21 *3285:D 1.19928e-05
32 *193:45 *3285:D 9.42145e-05
33 *714:34 *3262:B1 0.000113972
*RES
1 *3929:Q *868:8 7.275 
2 *868:8 *4037:A 3.6 
3 *868:8 *868:17 1.38 
4 *868:17 *3285:D 15.01 
5 *868:17 *3262:B1 13.17 
*END

*D_NET *869 0.00771631
*CONN
*I *3238:B1 I *D sky130_fd_sc_hd__a31oi_2
*I *3235:C I *D sky130_fd_sc_hd__and3b_2
*I *3285:C I *D sky130_fd_sc_hd__and4_4
*I *3482:A_N I *D sky130_fd_sc_hd__and4bb_2
*I *3552:A_N I *D sky130_fd_sc_hd__and4b_2
*I *3743:A_N I *D sky130_fd_sc_hd__and4bb_2
*I *3674:A_N I *D sky130_fd_sc_hd__and4bb_2
*I *3605:A I *D sky130_fd_sc_hd__nor4b_4
*I *3930:Q O *D sky130_fd_sc_hd__dfrtp_2
*CAP
1 *3238:B1 0.000327164
2 *3235:C 0.000212532
3 *3285:C 0
4 *3482:A_N 0
5 *3552:A_N 0.000120251
6 *3743:A_N 2.12116e-05
7 *3674:A_N 0
8 *3605:A 0.000173323
9 *3930:Q 0
10 *869:71 0.000481449
11 *869:40 0.000253867
12 *869:31 0.000291868
13 *869:20 0.000716236
14 *869:14 0.000780497
15 *869:4 0.00101313
16 *3251:A *869:71 4.41506e-05
17 *3252:A1 *3238:B1 0
18 *3252:B1 *869:71 0.000176647
19 *3262:B1 *3238:B1 5.74791e-05
20 *3263:A1 *3238:B1 5.4003e-05
21 *3263:A2 *3238:B1 0.00018955
22 *3263:A2 *869:14 0.000271308
23 *3285:D *3238:B1 8.40213e-05
24 *3285:D *869:71 4.82919e-05
25 *3448:A1 *869:14 0.000174611
26 *3483:C_N *869:20 4.66108e-05
27 *3605:D_N *869:14 1.91597e-05
28 *3656:A_N *3605:A 0.000189426
29 *3656:A_N *3743:A_N 4.82863e-05
30 *3656:A_N *869:31 0.000339946
31 *3656:A_N *869:40 0.000124245
32 *3656:C *869:20 3.08892e-05
33 *3915:CLK *3552:A_N 0
34 *3929:CLK *3238:B1 2.05583e-05
35 *173:10 *869:14 0.00042819
36 *184:18 *3238:B1 7.94204e-05
37 *184:40 *3235:C 7.78771e-05
38 *184:40 *869:71 5.29938e-05
39 *185:21 *3238:B1 2.49909e-05
40 *218:39 *3238:B1 0.000162311
41 *403:8 *869:14 8.65961e-05
42 *403:8 *869:20 2.28628e-05
43 *404:14 *3605:A 8.07785e-05
44 *507:12 *869:31 1.00941e-05
45 *507:12 *869:40 4.55864e-06
46 *544:16 *3552:A_N 4.01548e-05
47 *544:16 *869:40 5.09887e-05
48 *562:302 *3552:A_N 1.00941e-05
49 *600:58 *869:40 0
50 *637:14 *3235:C 8.19126e-05
51 *637:20 *869:71 3.60648e-05
52 *637:22 *869:71 2.46089e-05
53 *643:16 *3235:C 0.000126659
54 *701:10 *3552:A_N 0
55 *701:12 *869:31 0
56 *701:12 *869:40 0
57 *701:16 *3605:A 0
58 *701:16 *869:31 0
59 *701:84 *3552:A_N 0
60 *707:29 *869:71 4.43871e-06
*RES
1 *3930:Q *869:4 1.6 
2 *869:4 *869:14 12.955 
3 *869:14 *869:20 7.295 
4 *869:20 *3605:A 7.53 
5 *869:20 *869:31 4.185 
6 *869:31 *3674:A_N 3.6 
7 *869:31 *869:40 2.145 
8 *869:40 *3743:A_N 4.05 
9 *869:40 *3552:A_N 5.745 
10 *869:14 *3482:A_N 1.6 
11 *869:4 *869:71 8.32 
12 *869:71 *3285:C 1.6 
13 *869:71 *3235:C 5.92375 
14 *869:4 *3238:B1 11.51 
*END

*D_NET *870 0.000509214
*CONN
*I *4035:A I *D sky130_fd_sc_hd__clkdlybuf4s25_1
*I *3931:Q O *D sky130_fd_sc_hd__dfrtp_2
*CAP
1 *4035:A 0.000163522
2 *3931:Q 0.000163522
3 *3330:B *4035:A 0
4 *187:8 *4035:A 5.21046e-05
5 *187:14 *4035:A 0.000130065
6 *204:10 *4035:A 0
*RES
1 *3931:Q *4035:A 10.875 
*END

*D_NET *871 0.000305507
*CONN
*I *4032:A I *D sky130_fd_sc_hd__clkdlybuf4s25_1
*I *3932:Q O *D sky130_fd_sc_hd__dfrtp_2
*CAP
1 *4032:A 0.000107675
2 *3932:Q 0.000107675
3 *3330:B *4032:A 4.23802e-05
4 *3932:RESET_B *4032:A 4.77769e-05
*RES
1 *3932:Q *4032:A 9.03 
*END

*D_NET *872 0.00266294
*CONN
*I *3938:D I *D sky130_fd_sc_hd__dfstp_2
*I *3409:X O *D sky130_fd_sc_hd__o211a_2
*CAP
1 *3938:D 0.000924098
2 *3409:X 0.000924098
3 *3938:D *3913:D 0.00015639
4 *3407:B1 *3938:D 3.19089e-05
5 *3409:A2 *3938:D 0
6 *3409:B1 *3938:D 3.64998e-06
7 *3409:C1 *3938:D 0
8 *3913:RESET_B *3938:D 6.01338e-05
9 *3938:CLK *3938:D 4.77807e-05
10 *3938:SET_B *3938:D 2.49909e-05
11 *564:8 *3938:D 0.000221075
12 *564:10 *3938:D 2.98644e-05
13 *564:71 *3938:D 6.28498e-05
14 *730:31 *3938:D 0.000176096
*RES
1 *3409:X *3938:D 21.105 
*END

*D_NET *873 0.00242805
*CONN
*I *3406:B I *D sky130_fd_sc_hd__xnor2_2
*I *3934:D I *D sky130_fd_sc_hd__dfrtp_2
*I *3255:X O *D sky130_fd_sc_hd__xor2_2
*CAP
1 *3406:B 0.000324488
2 *3934:D 7.57261e-05
3 *3255:X 0.000379252
4 *873:8 0.000779467
5 *3406:B *3909:D 6.42197e-05
6 *873:8 *3909:D 3.50571e-05
7 *873:8 *3935:D 0
8 *3904:RESET_B *3406:B 2.54715e-05
9 *3934:RESET_B *3934:D 0.000160266
10 *3934:RESET_B *873:8 4.43211e-05
11 *3942:CLK *873:8 6.64979e-05
12 *174:10 *873:8 0
13 *175:22 *873:8 0
14 *729:20 *873:8 0.000231564
15 *729:46 *873:8 0.000128639
16 *729:54 *873:8 0.000113082
*RES
1 *3255:X *873:8 11.865 
2 *873:8 *3934:D 5.49 
3 *873:8 *3406:B 8.88 
*END

*D_NET *874 0.0053113
*CONN
*I *3407:A2 I *D sky130_fd_sc_hd__a21oi_2
*I *3408:A2 I *D sky130_fd_sc_hd__o211a_2
*I *3935:D I *D sky130_fd_sc_hd__dfrtp_2
*I *3259:X O *D sky130_fd_sc_hd__buf_2
*CAP
1 *3407:A2 0.00015079
2 *3408:A2 0.000135464
3 *3935:D 0.000485495
4 *3259:X 0.000264928
5 *874:21 0.00120836
6 *874:6 0.00167253
7 *3935:D *3904:D 0
8 *874:21 *875:10 0.000681279
9 *3225:A *874:6 0.000107112
10 *3231:A2 *3935:D 6.36946e-05
11 *3260:A *874:21 1.56428e-05
12 *3260:B *874:6 3.64998e-06
13 *3260:B *874:21 9.56504e-05
14 *3408:A1 *3407:A2 5.84378e-05
15 *3408:A1 *3408:A2 0.000113497
16 *3408:B1 *3408:A2 9.12494e-06
17 *3408:C1 *3407:A2 1.56428e-05
18 *3408:C1 *3408:A2 1.44983e-05
19 *3409:A1 *3407:A2 0
20 *3409:B1 *3407:A2 0
21 *3409:C1 *3407:A2 0
22 *3409:C1 *3408:A2 0
23 *3914:D *3935:D 3.68596e-05
24 *3934:RESET_B *3935:D 0
25 *174:10 *3935:D 2.24336e-05
26 *175:22 *874:21 4.70393e-05
27 *336:10 *3407:A2 1.70935e-05
28 *642:24 *3407:A2 9.2073e-05
29 *873:8 *3935:D 0
*RES
1 *3259:X *874:6 4.81 
2 *874:6 *3935:D 14.12 
3 *874:6 *874:21 13.835 
4 *874:21 *3408:A2 6.51 
5 *874:21 *3407:A2 6.72 
*END

*D_NET *875 0.00311243
*CONN
*I *3403:A I *D sky130_fd_sc_hd__and2_2
*I *3402:B I *D sky130_fd_sc_hd__nor2_2
*I *3936:D I *D sky130_fd_sc_hd__dfrtp_2
*I *3260:X O *D sky130_fd_sc_hd__xor2_2
*CAP
1 *3403:A 9.57807e-05
2 *3402:B 0
3 *3936:D 0.000159097
4 *3260:X 0.000496498
5 *875:23 9.57807e-05
6 *875:10 0.000655595
7 *3402:A *3403:A 0.000206001
8 *3409:A1 *3403:A 4.77807e-05
9 *3409:A1 *875:10 0.000184226
10 *3409:A2 *3403:A 1.74876e-05
11 *3409:B1 *3403:A 8.35118e-05
12 *3409:C1 *875:10 0.000184226
13 *3936:CLK *3936:D 0.000122817
14 *563:6 *875:10 8.23457e-05
15 *874:21 *875:10 0.000681279
*RES
1 *3260:X *875:10 14.64 
2 *875:10 *3936:D 6.375 
3 *875:10 *875:23 2 
4 *875:23 *3402:B 1.6 
5 *875:23 *3403:A 4.6 
*END

*D_NET *876 0.00105009
*CONN
*I *3404:B I *D sky130_fd_sc_hd__xnor2_2
*I *3937:D I *D sky130_fd_sc_hd__dfrtp_2
*I *3261:X O *D sky130_fd_sc_hd__xor2_2
*CAP
1 *3404:B 6.52955e-05
2 *3937:D 0.000240558
3 *3261:X 0
4 *876:6 0.000305853
5 *3937:D *897:10 4.95554e-05
6 *3261:B *3404:B 0.000138106
7 *3261:B *3937:D 3.12855e-05
8 *3449:A *3937:D 6.97118e-05
9 *3916:D *3937:D 0.000149722
10 *3918:D *3937:D 0
*RES
1 *3261:X *876:6 3.6 
2 *876:6 *3937:D 8.925 
3 *876:6 *3404:B 5.235 
*END

*D_NET *877 0.0014347
*CONN
*I *3903:D I *D sky130_fd_sc_hd__dfrtp_2
*I *3901:Q O *D sky130_fd_sc_hd__dfrtp_2
*CAP
1 *3903:D 0.000499464
2 *3901:Q 0.000499464
3 *3903:D *4042:A 0.000119908
4 *3888:SET_B *3903:D 0
5 *3901:RESET_B *3903:D 0.000107386
6 *3903:CLK *3903:D 8.7443e-05
7 *4116:A *3903:D 0.000121032
*RES
1 *3901:Q *3903:D 14.55 
*END

*D_NET *878 0.00387524
*CONN
*I *4042:A I *D sky130_fd_sc_hd__clkdlybuf4s25_1
*I *4054:A I *D sky130_fd_sc_hd__dlygate4sd3_1
*I *3903:Q O *D sky130_fd_sc_hd__dfrtp_2
*CAP
1 *4042:A 0.000834623
2 *4054:A 0.000718457
3 *3903:Q 0
4 *878:4 0.00155308
5 *3393:A1 *4054:A 1.7396e-05
6 *3401:A1 *4054:A 0
7 *3401:A2 *4054:A 0.000319612
8 *3891:RESET_B *4042:A 2.20732e-05
9 *3891:RESET_B *4054:A 7.97834e-05
10 *3903:CLK *4042:A 2.99214e-05
11 *3903:D *4042:A 0.000119908
12 *3903:RESET_B *4042:A 5.07601e-05
13 *4116:A *4042:A 8.46767e-05
14 *304:44 *4054:A 4.49498e-05
*RES
1 *3903:Q *878:4 1.6 
2 *878:4 *4054:A 18.11 
3 *878:4 *4042:A 12.7 
*END

*D_NET *879 0.00125581
*CONN
*I *3919:D I *D sky130_fd_sc_hd__dfrtp_2
*I *3914:Q O *D sky130_fd_sc_hd__dfrtp_2
*CAP
1 *3919:D 0.000531844
2 *3914:Q 0.000531844
3 *3919:D *3904:D 5.30144e-05
4 *3915:D *3919:D 6.5525e-05
5 *3919:CLK *3919:D 7.35813e-05
6 *632:25 *3919:D 0
7 *714:70 *3919:D 0
8 *714:77 *3919:D 0
9 *726:31 *3919:D 0
*RES
1 *3914:Q *3919:D 15.795 
*END

*D_NET *880 0.00195046
*CONN
*I *3920:D I *D sky130_fd_sc_hd__dfrtp_2
*I *3915:Q O *D sky130_fd_sc_hd__dfrtp_2
*CAP
1 *3920:D 0.000507578
2 *3915:Q 0.000507578
3 *3920:D *3924:D 0.000441063
4 *3920:CLK *3920:D 1.26262e-05
5 *606:8 *3920:D 8.65961e-05
6 *606:10 *3920:D 0
7 *714:52 *3920:D 0.000115151
8 *714:66 *3920:D 9.31397e-05
9 *714:70 *3920:D 0.000132755
10 *714:77 *3920:D 5.39718e-05
*RES
1 *3915:Q *3920:D 17.1338 
*END

*D_NET *881 0.000623745
*CONN
*I *3921:D I *D sky130_fd_sc_hd__dfrtp_2
*I *3916:Q O *D sky130_fd_sc_hd__dfrtp_2
*CAP
1 *3921:D 0.000182884
2 *3916:Q 0.000182884
3 *3916:RESET_B *3921:D 0.000105803
4 *3917:D *3921:D 0.000149478
5 *716:68 *3921:D 2.69443e-06
*RES
1 *3916:Q *3921:D 11.16 
*END

*D_NET *882 0.000620329
*CONN
*I *3922:D I *D sky130_fd_sc_hd__dfrtp_2
*I *3917:Q O *D sky130_fd_sc_hd__dfrtp_2
*CAP
1 *3922:D 0.000217462
2 *3917:Q 0.000217462
3 *4113:A *3922:D 0.000185405
*RES
1 *3917:Q *3922:D 11.07 
*END

*D_NET *883 0.00088177
*CONN
*I *3923:D I *D sky130_fd_sc_hd__dfrtp_2
*I *3918:Q O *D sky130_fd_sc_hd__dfrtp_2
*CAP
1 *3923:D 0.000317447
2 *3918:Q 0.000317447
3 *3918:RESET_B *3923:D 5.83121e-06
4 *3922:RESET_B *3923:D 0
5 *3923:CLK *3923:D 7.33465e-05
6 *4044:A *3923:D 0.000141599
7 *4045:A *3923:D 2.60986e-05
8 *716:17 *3923:D 0
*RES
1 *3918:Q *3923:D 13.215 
*END

*D_NET *884 0.00628384
*CONN
*I *3411:A I *D sky130_fd_sc_hd__xor2_2
*I *3293:A I *D sky130_fd_sc_hd__inv_2
*I *3289:C I *D sky130_fd_sc_hd__nand3_2
*I *3317:B1 I *D sky130_fd_sc_hd__o211ai_2
*I *3919:Q O *D sky130_fd_sc_hd__dfrtp_2
*CAP
1 *3411:A 0.000118432
2 *3293:A 0.000204071
3 *3289:C 0
4 *3317:B1 0.000379779
5 *3919:Q 0.000211557
6 *884:16 0.000479196
7 *884:14 0.000866001
8 *884:8 0.000892502
9 *884:14 *885:10 0.000324805
10 *884:14 *885:12 0.000202727
11 *884:16 *885:12 7.08289e-05
12 *3236:A *884:14 0.000137259
13 *3294:B1 *3317:B1 5.29744e-05
14 *3295:C1 *3317:B1 4.77807e-05
15 *3316:C *3317:B1 0.000209453
16 *3920:CLK *884:14 0
17 *202:54 *3411:A 0.000308641
18 *214:10 *884:16 6.4428e-05
19 *214:12 *3317:B1 5.0096e-05
20 *214:12 *884:16 0.000156284
21 *218:39 *3317:B1 0.00013475
22 *221:6 *3317:B1 0.000182868
23 *225:30 *3317:B1 4.03121e-05
24 *676:10 *3317:B1 5.0096e-05
25 *676:10 *884:14 0.000638664
26 *676:10 *884:16 0.000339552
27 *708:39 *884:14 0.00012078
*RES
1 *3919:Q *884:8 7.02 
2 *884:8 *884:14 15.285 
3 *884:14 *884:16 4.185 
4 *884:16 *3317:B1 14.905 
5 *884:16 *3289:C 3.6 
6 *884:14 *3293:A 6.465 
7 *884:8 *3411:A 6.465 
*END

*D_NET *885 0.0064935
*CONN
*I *3283:A I *D sky130_fd_sc_hd__inv_2
*I *3288:C I *D sky130_fd_sc_hd__nand3_2
*I *3286:A3 I *D sky130_fd_sc_hd__a311oi_1
*I *3307:A3 I *D sky130_fd_sc_hd__a311o_2
*I *3292:B I *D sky130_fd_sc_hd__nand3_4
*I *3920:Q O *D sky130_fd_sc_hd__dfrtp_2
*CAP
1 *3283:A 0
2 *3288:C 2.97624e-05
3 *3286:A3 3.44213e-05
4 *3307:A3 0.000323762
5 *3292:B 0
6 *3920:Q 0.000490354
7 *885:29 0.00048837
8 *885:18 0.000231098
9 *885:12 0.000379712
10 *885:10 0.000739392
11 *3239:A2 *885:10 0.000539846
12 *3241:A1 *885:10 0
13 *3244:A1 *885:10 0
14 *3246:A *885:10 4.23341e-05
15 *3286:A1 *3286:A3 8.65905e-05
16 *3307:A1 *3307:A3 8.54001e-05
17 *3307:C1 *3307:A3 0.000204777
18 *3413:A *885:10 5.36944e-05
19 *213:19 *885:12 1.38283e-05
20 *213:19 *885:18 7.17251e-05
21 *213:21 *3307:A3 2.07184e-05
22 *213:21 *885:29 0.00036175
23 *213:23 *3307:A3 0.000254805
24 *213:50 *3307:A3 6.36605e-07
25 *214:10 *885:12 7.22509e-05
26 *214:12 *885:12 0.000147159
27 *214:12 *885:18 0.000201113
28 *214:14 *3307:A3 2.15738e-05
29 *214:14 *885:18 8.33066e-06
30 *214:14 *885:29 0.000141078
31 *214:26 *3307:A3 7.38532e-05
32 *216:10 *885:10 3.24046e-05
33 *216:10 *885:12 0.00030546
34 *216:16 *885:12 6.22332e-05
35 *216:20 *3307:A3 8.25275e-06
36 *219:10 *3307:A3 0
37 *221:6 *3288:C 0.000158564
38 *224:14 *3288:C 0.000158564
39 *562:308 *885:10 2.69217e-05
40 *596:42 *3307:A3 2.4401e-05
41 *884:14 *885:10 0.000324805
42 *884:14 *885:12 0.000202727
43 *884:16 *885:12 7.08289e-05
*RES
1 *3920:Q *885:10 16.14 
2 *885:10 *885:12 8.265 
3 *885:12 *885:18 4.85 
4 *885:18 *3292:B 1.6 
5 *885:18 *885:29 6.635 
6 *885:29 *3307:A3 10.56 
7 *885:29 *3286:A3 4.395 
8 *885:12 *3288:C 5.085 
9 *885:10 *3283:A 3.6 
*END

*D_NET *886 0.00739258
*CONN
*I *3410:A I *D sky130_fd_sc_hd__xor2_2
*I *3273:A I *D sky130_fd_sc_hd__inv_2
*I *3272:C I *D sky130_fd_sc_hd__nand3_2
*I *3280:B1 I *D sky130_fd_sc_hd__o21ai_4
*I *3921:Q O *D sky130_fd_sc_hd__dfrtp_2
*CAP
1 *3410:A 0
2 *3273:A 0.000260443
3 *3272:C 5.24309e-05
4 *3280:B1 0.000383904
5 *3921:Q 0.000429115
6 *886:22 0.000765485
7 *886:16 0.00108271
8 *886:10 0.00092223
9 *3273:A *3279:A 6.04372e-05
10 *3273:A *887:33 8.41384e-05
11 *886:10 *3410:B 0
12 *886:10 *3905:D 6.29313e-05
13 *886:10 *3926:D 0
14 *886:16 *3275:B_N 1.46781e-05
15 *886:16 *3410:B 0
16 *886:16 *887:10 0.000634738
17 *886:16 *887:12 1.1561e-05
18 *886:16 *887:14 3.10133e-05
19 *886:16 *887:16 7.6949e-05
20 *886:22 *3275:B_N 6.04287e-05
21 *3272:B *3272:C 9.12671e-06
22 *3272:B *886:22 1.54665e-05
23 *3288:A *3272:C 4.77769e-05
24 *3288:A *3280:B1 0.00041648
25 *3291:A2 *3272:C 1.14192e-05
26 *3291:A3 *3280:B1 0.000134875
27 *3332:B *886:16 0.00016163
28 *3414:A *886:16 0.000492496
29 *3414:A *886:22 7.1624e-05
30 *3917:CLK *886:10 6.74458e-05
31 *3918:D *886:10 2.36269e-05
32 *3921:CLK *886:10 0.000138179
33 *202:10 *3280:B1 3.36324e-05
34 *206:8 *3273:A 5.20632e-05
35 *211:6 *3272:C 6.63221e-05
36 *211:6 *886:22 8.28018e-06
37 *233:16 *886:22 0.00045693
38 *235:8 *886:22 9.05592e-05
39 *604:8 *886:10 0.000121152
40 *604:8 *886:16 4.03082e-05
*RES
1 *3921:Q *886:10 12.78 
2 *886:10 *886:16 13.665 
3 *886:16 *886:22 8.825 
4 *886:22 *3280:B1 12.59 
5 *886:22 *3272:C 3.355 
6 *886:16 *3273:A 7.08 
7 *886:10 *3410:A 3.6 
*END

*D_NET *887 0.00673382
*CONN
*I *3271:B I *D sky130_fd_sc_hd__nand2_2
*I *3270:B I *D sky130_fd_sc_hd__or2_4
*I *3274:A I *D sky130_fd_sc_hd__or2b_2
*I *3279:B I *D sky130_fd_sc_hd__and2_4
*I *3278:B I *D sky130_fd_sc_hd__nor2_2
*I *3275:B_N I *D sky130_fd_sc_hd__or2b_2
*I *3922:Q O *D sky130_fd_sc_hd__dfrtp_2
*CAP
1 *3271:B 0.00014639
2 *3270:B 0.000158063
3 *3274:A 0.000344549
4 *3279:B 0
5 *3278:B 0.000194358
6 *3275:B_N 0.000271768
7 *3922:Q 0.000411816
8 *887:33 0.000255797
9 *887:16 0.000404397
10 *887:14 0.000451092
11 *887:12 0.000241572
12 *887:10 0.000606363
13 *3270:B *3270:A 2.99026e-05
14 *3270:B *3332:A 3.64998e-06
15 *3271:B *3271:A 0.000223684
16 *3271:B *3330:A 9.53428e-06
17 *3271:B *888:8 6.33103e-05
18 *3274:A *3274:B_N 2.86139e-05
19 *3274:A *3332:A 6.62684e-05
20 *3274:A *888:51 0.00012677
21 *3275:B_N *3275:A 3.22639e-05
22 *3275:B_N *3278:A 0.000121043
23 *887:33 *3279:A 8.41384e-05
24 *3272:B *3278:B 4.63004e-05
25 *3273:A *887:33 8.41384e-05
26 *3330:B *3271:B 0.00012657
27 *3331:C1 *3275:B_N 6.90972e-05
28 *3331:C1 *887:12 3.86607e-05
29 *3331:C1 *887:14 6.50574e-05
30 *3331:C1 *887:16 7.94942e-05
31 *3332:B *887:12 0.000107634
32 *3332:B *887:14 5.39961e-05
33 *3414:C *887:10 0.0001032
34 *3414:C *887:12 3.57846e-05
35 *3414:D *887:10 3.39064e-05
36 *3918:CLK *887:10 0.000118527
37 *3918:D *887:10 2.42236e-05
38 *204:12 *3278:B 3.75882e-06
39 *206:8 *3278:B 0.000232434
40 *206:8 *887:33 1.33285e-05
41 *212:6 *3278:B 4.77807e-05
42 *233:29 *3275:B_N 0.000121032
43 *604:8 *887:10 0.000175887
44 *716:40 *887:10 4.82919e-05
45 *886:16 *3275:B_N 1.46781e-05
46 *886:16 *887:10 0.000634738
47 *886:16 *887:12 1.1561e-05
48 *886:16 *887:14 3.10133e-05
49 *886:16 *887:16 7.6949e-05
50 *886:22 *3275:B_N 6.04287e-05
*RES
1 *3922:Q *887:10 13.275 
2 *887:10 *887:12 1.635 
3 *887:12 *887:14 1.38 
4 *887:14 *887:16 1.89 
5 *887:16 *3275:B_N 9.135 
6 *887:16 *887:33 3.5 
7 *887:33 *3278:B 9.665 
8 *887:33 *3279:B 1.6 
9 *887:14 *3274:A 7.845 
10 *887:12 *3270:B 5.445 
11 *887:10 *3271:B 7.275 
*END

*D_NET *888 0.0054123
*CONN
*I *3270:A I *D sky130_fd_sc_hd__or2_4
*I *3274:B_N I *D sky130_fd_sc_hd__or2b_2
*I *3279:A I *D sky130_fd_sc_hd__and2_4
*I *3278:A I *D sky130_fd_sc_hd__nor2_2
*I *3332:A I *D sky130_fd_sc_hd__xor2_2
*I *3275:A I *D sky130_fd_sc_hd__or2b_2
*I *3330:A I *D sky130_fd_sc_hd__xnor2_2
*I *3271:A I *D sky130_fd_sc_hd__nand2_2
*I *3923:Q O *D sky130_fd_sc_hd__dfrtp_2
*CAP
1 *3270:A 0.000109118
2 *3274:B_N 4.16611e-05
3 *3279:A 4.9312e-05
4 *3278:A 0.000285063
5 *3332:A 0.000171007
6 *3275:A 0.000371743
7 *3330:A 1.85694e-05
8 *3271:A 0.000168079
9 *3923:Q 0
10 *888:62 0.000409359
11 *888:51 0.000258543
12 *888:47 0.000163332
13 *888:34 0.000570417
14 *888:8 0.000407197
15 *888:4 0.000419222
16 *3270:B *3270:A 2.99026e-05
17 *3270:B *3332:A 3.64998e-06
18 *3271:B *3271:A 0.000223684
19 *3271:B *3330:A 9.53428e-06
20 *3271:B *888:8 6.33103e-05
21 *3273:A *3279:A 6.04372e-05
22 *3274:A *3274:B_N 2.86139e-05
23 *3274:A *3332:A 6.62684e-05
24 *3274:A *888:51 0.00012677
25 *3275:B_N *3275:A 3.22639e-05
26 *3275:B_N *3278:A 0.000121043
27 *3302:B *3278:A 4.66108e-05
28 *3330:B *3271:A 4.60584e-05
29 *3331:C1 *3278:A 0.000133329
30 *3331:C1 *888:34 0
31 *3331:C1 *888:62 0.000165461
32 *3337:A1_N *3275:A 0.000151884
33 *3337:A1_N *3278:A 4.70338e-05
34 *3337:A1_N *888:34 1.31475e-05
35 *3337:A1_N *888:62 6.0121e-05
36 *206:8 *3279:A 0.000193136
37 *233:16 *3278:A 0.000105549
38 *233:29 *3278:A 2.21074e-05
39 *234:12 *3270:A 4.90227e-05
40 *263:8 *888:8 8.65961e-05
41 *716:10 *888:34 0
42 *887:33 *3279:A 8.41384e-05
*RES
1 *3923:Q *888:4 1.6 
2 *888:4 *888:8 3.57 
3 *888:8 *3271:A 4.825 
4 *888:8 *3330:A 1.96 
5 *888:4 *888:34 4.73 
6 *888:34 *3275:A 9.69 
7 *888:34 *888:47 2 
8 *888:47 *888:51 2.535 
9 *888:51 *3332:A 2.74 
10 *888:51 *888:62 4.145 
11 *888:62 *3278:A 9.15 
12 *888:62 *3279:A 5.43 
13 *888:47 *3274:B_N 2.395 
14 *3332:A *3270:A 5.405 
*END

*D_NET *889 0.000534135
*CONN
*I *3909:D I *D sky130_fd_sc_hd__dfrtp_2
*I *3904:Q O *D sky130_fd_sc_hd__dfrtp_2
*CAP
1 *3909:D 0.000179766
2 *3904:Q 0.000179766
3 *3406:B *3909:D 6.42197e-05
4 *3904:RESET_B *3909:D 7.53265e-05
5 *873:8 *3909:D 3.50571e-05
*RES
1 *3904:Q *3909:D 10.155 
*END

*D_NET *890 0.00273468
*CONN
*I *3910:D I *D sky130_fd_sc_hd__dfrtp_2
*I *3905:Q O *D sky130_fd_sc_hd__dfrtp_2
*CAP
1 *3910:D 0.000861712
2 *3905:Q 0.000861712
3 *3910:D *3911:D 0
4 *3910:D *895:10 5.35969e-06
5 *3906:RESET_B *3910:D 3.09164e-05
6 *3910:RESET_B *3910:D 3.45117e-05
7 *3913:RESET_B *3910:D 3.64998e-06
8 *4109:A *3910:D 0
9 *642:10 *3910:D 0
10 *710:14 *3910:D 0.000578666
11 *710:16 *3910:D 0.000358156
*RES
1 *3905:Q *3910:D 23.115 
*END

*D_NET *891 0.000955819
*CONN
*I *3911:D I *D sky130_fd_sc_hd__dfrtp_2
*I *3906:Q O *D sky130_fd_sc_hd__dfrtp_2
*CAP
1 *3911:D 0.000417723
2 *3906:Q 0.000417723
3 rd_data[3] *3911:D 4.21447e-06
4 *3906:RESET_B *3911:D 0
5 *3910:D *3911:D 0
6 *4109:A *3911:D 0.000116158
*RES
1 *3906:Q *3911:D 14.445 
*END

*D_NET *892 0.000224633
*CONN
*I *3912:D I *D sky130_fd_sc_hd__dfrtp_2
*I *3907:Q O *D sky130_fd_sc_hd__dfrtp_2
*CAP
1 *3912:D 6.15149e-05
2 *3907:Q 6.15149e-05
3 *3907:RESET_B *3912:D 7.23533e-05
4 *3916:D *3912:D 0
5 *3936:RESET_B *3912:D 2.92496e-05
*RES
1 *3907:Q *3912:D 8.325 
*END

*D_NET *893 0.00180135
*CONN
*I *3913:D I *D sky130_fd_sc_hd__dfrtp_2
*I *3908:Q O *D sky130_fd_sc_hd__dfrtp_2
*CAP
1 *3913:D 0.000404234
2 *3908:Q 0.000404234
3 *3407:B1 *3913:D 4.21991e-05
4 *3409:B1 *3913:D 0.000312092
5 *3912:CLK *3913:D 5.09431e-05
6 *3936:CLK *3913:D 0.000431258
7 *3938:D *3913:D 0.00015639
*RES
1 *3908:Q *3913:D 16.725 
*END

*D_NET *894 0.00304959
*CONN
*I *3339:B I *D sky130_fd_sc_hd__and2_2
*I *3340:B I *D sky130_fd_sc_hd__nor2_2
*I *3406:A I *D sky130_fd_sc_hd__xnor2_2
*I *3909:Q O *D sky130_fd_sc_hd__dfrtp_2
*CAP
1 *3339:B 2.17225e-05
2 *3340:B 0.000169573
3 *3406:A 0.000130103
4 *3909:Q 4.47296e-05
5 *894:25 0.000872045
6 *894:8 0.000855581
7 *3339:B *3340:A 5.12969e-06
8 *3340:B *3340:A 8.10892e-05
9 *894:25 *3340:A 2.72392e-05
10 *894:25 *895:24 5.83121e-06
11 *3226:A2 *3340:B 0
12 *176:14 *3340:B 3.20366e-05
13 *178:27 *894:25 0.000159643
14 *180:20 *894:25 0.000479515
15 *563:10 *894:25 6.80391e-05
16 *563:14 *3406:A 6.13356e-05
17 *563:14 *894:25 3.5981e-05
*RES
1 *3909:Q *894:8 4.05 
2 *894:8 *3406:A 5.775 
3 *894:8 *894:25 15.14 
4 *894:25 *3340:B 4.6 
5 *894:25 *3339:B 2.215 
*END

*D_NET *895 0.0072302
*CONN
*I *3356:A I *D sky130_fd_sc_hd__nor2_2
*I *3357:A I *D sky130_fd_sc_hd__and2_2
*I *3353:A I *D sky130_fd_sc_hd__or2_2
*I *3354:A I *D sky130_fd_sc_hd__nand2_2
*I *3405:A I *D sky130_fd_sc_hd__inv_2
*I *3340:A I *D sky130_fd_sc_hd__nor2_2
*I *3339:A I *D sky130_fd_sc_hd__and2_2
*I *3910:Q O *D sky130_fd_sc_hd__dfrtp_2
*CAP
1 *3356:A 0.000101668
2 *3357:A 0.000271602
3 *3353:A 0
4 *3354:A 0
5 *3405:A 0.000435276
6 *3340:A 8.5261e-05
7 *3339:A 0
8 *3910:Q 0.000656747
9 *895:24 0.000201346
10 *895:22 0.000808344
11 *895:20 0.000403967
12 *895:16 0.0010698
13 *895:10 0.0017495
14 *3357:A *3357:B 0
15 *895:10 *3357:B 0
16 *895:16 *3343:A_N 3.1835e-05
17 *895:16 *3346:A 0.0001249
18 *895:16 *3346:B 4.07182e-05
19 *3339:B *3340:A 5.12969e-06
20 *3340:B *3340:A 8.10892e-05
21 *3354:B *895:20 0.000122325
22 *3356:B *3356:A 5.58997e-05
23 *3910:D *895:10 5.35969e-06
24 *4041:A *3357:A 0
25 *4041:A *895:10 0
26 *176:14 *3340:A 0.000234722
27 *176:14 *895:22 2.75229e-05
28 *176:14 *895:24 0.000130157
29 *181:23 *3405:A 0
30 *275:10 *895:16 2.12007e-05
31 *561:13 *3405:A 0
32 *642:10 *895:10 0
33 *709:47 *895:16 4.60584e-05
34 *709:47 *895:20 3.74161e-05
35 *709:58 *895:16 9.21168e-05
36 *712:14 *895:10 0.000283791
37 *712:24 *3405:A 7.33728e-05
38 *730:16 *895:10 0
39 *894:25 *3340:A 2.72392e-05
40 *894:25 *895:24 5.83121e-06
*RES
1 *3910:Q *895:10 13.455 
2 *895:10 *895:16 13.16 
3 *895:16 *895:20 2.535 
4 *895:20 *895:22 3.9 
5 *895:22 *895:24 2.175 
6 *895:24 *3339:A 1.6 
7 *895:24 *3340:A 4.495 
8 *895:22 *3405:A 12.71 
9 *895:20 *3354:A 1.6 
10 *895:16 *3353:A 1.6 
11 *895:10 *3357:A 6.51 
12 *3357:A *3356:A 5.045 
*END

*D_NET *896 0.00489491
*CONN
*I *3357:B I *D sky130_fd_sc_hd__and2_2
*I *4038:A I *D sky130_fd_sc_hd__clkdlybuf4s25_1
*I *3911:Q O *D sky130_fd_sc_hd__dfrtp_2
*CAP
1 *3357:B 0.00066232
2 *4038:A 0.000515804
3 *3911:Q 0.0003585
4 *896:10 0.00153662
5 *3357:B *898:10 0
6 *3357:B *898:25 0
7 *3357:B *898:47 0
8 empty *896:10 0
9 *3356:B *3357:B 0.000235339
10 *3357:A *3357:B 0
11 *3395:B *3357:B 0.000339879
12 *3910:RESET_B *3357:B 0
13 *3911:CLK *896:10 6.81992e-05
14 *3937:RESET_B *896:10 0.000242327
15 *3943:RESET_B *3357:B 0.000159964
16 *3947:A *4038:A 4.88429e-05
17 *4039:A *4038:A 4.66108e-05
18 *15:30 *3357:B 1.39252e-05
19 *278:8 *3357:B 7.68097e-05
20 *710:14 *3357:B 0
21 *710:14 *896:10 0
22 *711:12 *3357:B 0.000160658
23 *711:14 *3357:B 0.000175207
24 *711:14 *896:10 2.92496e-05
25 *711:16 *896:10 0.000224655
26 *712:14 *3357:B 0
27 *895:10 *3357:B 0
*RES
1 *3911:Q *896:10 10.455 
2 *896:10 *4038:A 11.6625 
3 *896:10 *3357:B 18.12 
*END

*D_NET *897 0.00396053
*CONN
*I *3345:B I *D sky130_fd_sc_hd__or2_4
*I *3342:B I *D sky130_fd_sc_hd__nand2b_2
*I *3346:B I *D sky130_fd_sc_hd__nand2_2
*I *3343:A_N I *D sky130_fd_sc_hd__nand2b_2
*I *3404:A I *D sky130_fd_sc_hd__xnor2_2
*I *3912:Q O *D sky130_fd_sc_hd__dfrtp_2
*CAP
1 *3345:B 0.000113518
2 *3342:B 2.23622e-05
3 *3346:B 8.58894e-05
4 *3343:A_N 5.67564e-05
5 *3404:A 0
6 *3912:Q 0.000270227
7 *897:43 0.000194574
8 *897:21 0.000142646
9 *897:19 0.000495991
10 *897:10 0.000707524
11 *3343:A_N *3346:A 0
12 *3345:B *3342:A_N 4.77769e-05
13 *3345:B *3345:A 5.75147e-05
14 *3346:B *3346:A 4.24727e-05
15 *897:19 *898:10 0.000155139
16 *897:19 *898:25 5.12859e-05
17 *897:19 *898:47 8.08153e-06
18 *897:43 *898:47 6.37538e-05
19 *3261:B *897:10 9.05349e-05
20 *3261:B *897:19 0.000380627
21 *3912:RESET_B *897:10 3.74308e-05
22 *3918:D *897:10 2.60288e-05
23 *3937:D *897:10 4.95554e-05
24 *180:42 *897:19 0.000225076
25 *180:42 *897:43 8.44025e-05
26 *274:8 *3342:B 4.77769e-05
27 *274:8 *3345:B 1.08758e-05
28 *275:10 *3343:A_N 2.75229e-05
29 *730:31 *897:10 6.78126e-05
30 *730:31 *897:19 0.000324825
31 *895:16 *3343:A_N 3.1835e-05
32 *895:16 *3346:B 4.07182e-05
*RES
1 *3912:Q *897:10 8.85 
2 *897:10 *3404:A 3.6 
3 *897:10 *897:19 12.6 
4 *897:19 *897:21 2 
5 *897:21 *3343:A_N 2.755 
6 *897:21 *3346:B 3.445 
7 *897:19 *897:43 3.89 
8 *897:43 *3342:B 2.05 
9 *897:43 *3345:B 3.79 
*END

*D_NET *898 0.00308951
*CONN
*I *3345:A I *D sky130_fd_sc_hd__or2_4
*I *3342:A_N I *D sky130_fd_sc_hd__nand2b_2
*I *3343:B I *D sky130_fd_sc_hd__nand2b_2
*I *3346:A I *D sky130_fd_sc_hd__nand2_2
*I *3395:A I *D sky130_fd_sc_hd__xor2_2
*I *3913:Q O *D sky130_fd_sc_hd__dfrtp_2
*CAP
1 *3345:A 7.22155e-05
2 *3342:A_N 1.8596e-05
3 *3343:B 0
4 *3346:A 6.2503e-05
5 *3395:A 0.000276137
6 *3913:Q 0.000271417
7 *898:47 0.000228238
8 *898:27 6.2503e-05
9 *898:25 0.000239034
10 *898:10 0.000649161
11 *3343:A_N *3346:A 0
12 *3345:B *3342:A_N 4.77769e-05
13 *3345:B *3345:A 5.75147e-05
14 *3346:B *3346:A 4.24727e-05
15 *3356:B *3345:A 0.000122385
16 *3357:B *898:10 0
17 *3357:B *898:25 0
18 *3357:B *898:47 0
19 *3395:B *3395:A 0.000161523
20 *3395:B *898:10 0
21 *3913:RESET_B *898:10 4.82919e-05
22 *3943:CLK *898:10 4.70995e-05
23 *3943:D *898:10 0.000100544
24 *15:30 *3395:A 3.69196e-05
25 *15:30 *898:10 5.6131e-05
26 *274:8 *3345:A 1.22325e-05
27 *278:8 *898:47 0
28 *730:31 *898:10 7.36562e-05
29 *895:16 *3346:A 0.0001249
30 *897:19 *898:10 0.000155139
31 *897:19 *898:25 5.12859e-05
32 *897:19 *898:47 8.08153e-06
33 *897:43 *898:47 6.37538e-05
*RES
1 *3913:Q *898:10 10.02 
2 *898:10 *3395:A 8.565 
3 *898:10 *898:25 1.635 
4 *898:25 *898:27 2 
5 *898:27 *3346:A 3.46 
6 *898:27 *3343:B 1.6 
7 *898:25 *898:47 4.4 
8 *898:47 *3342:A_N 2.05 
9 *898:47 *3345:A 3.91 
*END

*D_NET *899 0.00246605
*CONN
*I *3904:D I *D sky130_fd_sc_hd__dfrtp_2
*I *3924:Q O *D sky130_fd_sc_hd__dfrtp_2
*CAP
1 *3904:D 0.000794343
2 *3924:Q 0.000794343
3 *3914:D *3904:D 0
4 *3914:RESET_B *3904:D 0
5 *3915:D *3904:D 0.000473635
6 *3919:D *3904:D 5.30144e-05
7 *3935:D *3904:D 0
8 *3935:RESET_B *3904:D 0.000116151
9 *4031:A *3904:D 9.78429e-05
10 *681:22 *3904:D 0.000136722
11 *714:77 *3904:D 0
12 *726:31 *3904:D 0
*RES
1 *3924:Q *3904:D 22.785 
*END

*D_NET *900 0.0020193
*CONN
*I *3905:D I *D sky130_fd_sc_hd__dfrtp_2
*I *3925:Q O *D sky130_fd_sc_hd__dfrtp_2
*CAP
1 *3905:D 0.000480407
2 *3925:Q 0.000480407
3 *3905:D *3926:D 0
4 *3916:D *3905:D 0
5 *3917:CLK *3905:D 1.56428e-05
6 *3918:D *3905:D 0.000979911
7 *886:10 *3905:D 6.29313e-05
*RES
1 *3925:Q *3905:D 18.975 
*END

*D_NET *901 0.000719681
*CONN
*I *3906:D I *D sky130_fd_sc_hd__dfrtp_2
*I *3926:Q O *D sky130_fd_sc_hd__dfrtp_2
*CAP
1 *3906:D 0.00022334
2 *3926:Q 0.00022334
3 *3917:D *3906:D 0.000273001
*RES
1 *3926:Q *3906:D 11.505 
*END

*D_NET *902 0.000737004
*CONN
*I *3907:D I *D sky130_fd_sc_hd__dfrtp_2
*I *3927:Q O *D sky130_fd_sc_hd__dfrtp_2
*CAP
1 *3907:D 0.000250343
2 *3927:Q 0.000250343
3 *3907:D *3268:A2 4.70343e-05
4 *3907:D *3908:D 0.000189284
*RES
1 *3927:Q *3907:D 12.27 
*END

*D_NET *903 0.00352374
*CONN
*I *3908:D I *D sky130_fd_sc_hd__dfrtp_2
*I *3247:A I *D sky130_fd_sc_hd__xor2_2
*I *3267:B I *D sky130_fd_sc_hd__and3_2
*I *3933:Q O *D sky130_fd_sc_hd__dfrtp_2
*CAP
1 *3908:D 0.000581765
2 *3247:A 0
3 *3267:B 0.000288372
4 *3933:Q 0.000270549
5 *903:21 0.000680668
6 *903:8 0.000657824
7 *3908:D *3268:A2 0
8 *903:8 *908:8 3.64998e-06
9 *903:21 *3268:A2 0
10 *3267:A *3267:B 2.57991e-05
11 *3267:C *3267:B 9.60582e-07
12 *3588:A *3908:D 0.000309664
13 *3588:A *903:21 3.25831e-05
14 *3907:D *3908:D 0.000189284
15 *3912:CLK *3908:D 6.05513e-05
16 *3933:RESET_B *3267:B 0
17 *3933:RESET_B *903:8 2.91561e-06
18 *3933:RESET_B *903:21 0
19 *4031:A *903:8 2.49909e-05
20 *188:43 *3267:B 0.000162306
21 *188:43 *903:21 9.58776e-05
22 *563:30 *3908:D 6.03928e-05
23 *563:36 *3908:D 0
24 *702:14 *3267:B 7.5589e-05
*RES
1 *3933:Q *903:8 7.5 
2 *903:8 *3267:B 9.09 
3 *903:8 *903:21 2.4 
4 *903:21 *3247:A 3.6 
5 *903:21 *3908:D 14.325 
*END

*D_NET *904 0.000730457
*CONN
*I *3928:D I *D sky130_fd_sc_hd__dfrtp_2
*I *3415:X O *D sky130_fd_sc_hd__buf_6
*CAP
1 *3928:D 6.94712e-05
2 *3415:X 6.94712e-05
3 *3415:A *3928:D 8.52883e-05
4 *4093:A *3928:D 0.000389952
5 *604:25 *3928:D 3.99879e-05
6 *604:36 *3928:D 7.62868e-05
*RES
1 *3415:X *3928:D 6.755 
*END

*D_NET *905 0.00377879
*CONN
*I *3929:D I *D sky130_fd_sc_hd__dfrtp_2
*I *3322:A1 I *D sky130_fd_sc_hd__o21ai_2
*I *3254:Y O *D sky130_fd_sc_hd__inv_2
*CAP
1 *3929:D 0.00047162
2 *3322:A1 0.000140027
3 *3254:Y 0.000268399
4 *905:8 0.000880046
5 *3320:A1_N *3929:D 0
6 *3322:A2 *3322:A1 0.000249631
7 *3322:A2 *3929:D 0.00019194
8 *3326:A1 *3929:D 0
9 *3979:A *905:8 2.31329e-05
10 *249:8 *3929:D 0
11 *632:25 *3322:A1 0.000392428
12 *632:25 *3929:D 0.00116156
*RES
1 *3254:Y *905:8 6.465 
2 *905:8 *3322:A1 8.85 
3 *905:8 *3929:D 17.22 
*END

*D_NET *906 0.00274565
*CONN
*I *3930:D I *D sky130_fd_sc_hd__dfrtp_2
*I *3263:B2 I *D sky130_fd_sc_hd__a22o_2
*I *3319:B1 I *D sky130_fd_sc_hd__o211a_2
*I *3239:Y O *D sky130_fd_sc_hd__a21oi_4
*CAP
1 *3930:D 0.00015255
2 *3263:B2 0.000185871
3 *3319:B1 0.000320717
4 *3239:Y 8.10885e-05
5 *906:10 0.000569593
6 *906:8 0.000296642
7 *3262:B1 *3930:D 0
8 *3319:C1 *3319:B1 5.31158e-06
9 *3929:CLK *3319:B1 0
10 *3929:CLK *3930:D 2.65814e-06
11 *3930:CLK *3930:D 5.11861e-05
12 *3931:CLK *3930:D 4.49498e-05
13 *4034:A *3263:B2 0.000205363
14 *185:31 *3930:D 0.000123225
15 *224:14 *3319:B1 9.12494e-06
16 *228:10 *3319:B1 3.1191e-05
17 *603:10 *3930:D 4.06899e-05
18 *643:16 *3930:D 7.47215e-05
19 *676:10 *3319:B1 0.000225147
20 *676:10 *906:10 7.21296e-06
21 *708:24 *3263:B2 4.82863e-05
22 *708:24 *3930:D 2.7881e-05
23 *708:24 *906:10 3.67779e-05
24 *708:39 *3930:D 8.05665e-05
25 *714:34 *3930:D 0
26 *714:34 *906:8 0.000124895
27 *868:8 *3319:B1 0
28 *868:17 *3319:B1 0
29 *868:17 *906:10 0
*RES
1 *3239:Y *906:8 4.74 
2 *906:8 *906:10 1.125 
3 *906:10 *3319:B1 10.335 
4 *906:10 *3263:B2 7.17 
5 *906:8 *3930:D 7.905 
*END

*D_NET *907 0.00675127
*CONN
*I *3931:D I *D sky130_fd_sc_hd__dfrtp_2
*I *3282:B1 I *D sky130_fd_sc_hd__a21oi_2
*I *3312:A I *D sky130_fd_sc_hd__and3_2
*I *3305:B1 I *D sky130_fd_sc_hd__a21oi_2
*I *3304:A I *D sky130_fd_sc_hd__and3_4
*I *3242:Y O *D sky130_fd_sc_hd__a21oi_4
*CAP
1 *3931:D 9.46206e-05
2 *3282:B1 3.15537e-05
3 *3312:A 8.66205e-05
4 *3305:B1 0.00015813
5 *3304:A 0.000208977
6 *3242:Y 0.000156882
7 *907:14 0.000476079
8 *907:12 0.000271798
9 *907:10 0.00113303
10 *907:8 0.00127678
11 *3284:A *3304:A 4.67285e-05
12 *3284:C *3304:A 1.77595e-05
13 *3297:A2 *3312:A 5.83121e-06
14 *3304:C *3304:A 1.77665e-05
15 *3305:A1 *3305:B1 4.77719e-05
16 *3305:A2 *3305:B1 0.000122801
17 *3413:A *3931:D 0
18 *4034:A *907:8 2.01565e-05
19 *205:40 *3305:B1 0.0001249
20 *205:68 *3304:A 7.01303e-05
21 *209:12 *907:10 0.000193619
22 *209:14 *907:10 0.000351868
23 *209:16 *3304:A 2.97802e-05
24 *209:16 *907:10 0.00053512
25 *209:16 *907:12 0.000126569
26 *209:16 *907:14 0.000190937
27 *209:20 *3304:A 0.000112907
28 *209:35 *3304:A 0.000175358
29 *214:37 *3282:B1 0.000197826
30 *216:10 *907:10 0
31 *216:20 *3304:A 1.18236e-05
32 *230:8 *3312:A 5.98222e-05
33 *596:42 *3282:B1 0.000197826
34 *706:14 *907:8 0.000199498
*RES
1 *3242:Y *907:8 5.775 
2 *907:8 *907:10 19.23 
3 *907:10 *907:12 1.635 
4 *907:12 *907:14 2.4 
5 *907:14 *3304:A 8.07 
6 *907:14 *3305:B1 6.81 
7 *907:12 *3312:A 5.085 
8 *907:10 *3282:B1 5.43 
9 *907:8 *3931:D 4.725 
*END

*D_NET *908 0.00158284
*CONN
*I *3268:A1 I *D sky130_fd_sc_hd__o21ba_2
*I *3932:D I *D sky130_fd_sc_hd__dfrtp_2
*I *3246:X O *D sky130_fd_sc_hd__buf_1
*CAP
1 *3268:A1 0.000352685
2 *3932:D 0.00025889
3 *3246:X 7.16009e-05
4 *908:8 0.000683176
5 *3268:A1 *3927:D 4.42327e-05
6 *3246:A *3932:D 0
7 *3932:CLK *3932:D 5.83121e-06
8 *4031:A *3932:D 0.000155056
9 *4031:A *908:8 7.71774e-06
10 *573:14 *3268:A1 0
11 *573:14 *3932:D 0
12 *903:8 *908:8 3.64998e-06
*RES
1 *3246:X *908:8 4.395 
2 *908:8 *3932:D 7.905 
3 *908:8 *3268:A1 9.315 
*END

*D_NET *909 0.00191664
*CONN
*I *3933:D I *D sky130_fd_sc_hd__dfrtp_2
*I *3268:A2 I *D sky130_fd_sc_hd__o21ba_2
*I *3248:Y O *D sky130_fd_sc_hd__inv_2
*CAP
1 *3933:D 0
2 *3268:A2 0.000510921
3 *3248:Y 0.000117087
4 *909:6 0.000628008
5 *3268:B1_N *3268:A2 4.77719e-05
6 *3449:A *3268:A2 0.000194045
7 *3588:A *3268:A2 0.000310171
8 *3907:D *3268:A2 4.70343e-05
9 *3908:D *3268:A2 0
10 *3933:CLK *909:6 5.30673e-05
11 *3933:RESET_B *3268:A2 8.53113e-06
12 *191:10 *3268:A2 0
13 *903:21 *3268:A2 0
*RES
1 *3248:Y *909:6 3.43 
2 *909:6 *3268:A2 16.25 
3 *909:6 *3933:D 1.6 
*END

*D_NET *910 0.00154938
*CONN
*I *3924:D I *D sky130_fd_sc_hd__dfrtp_2
*I *3411:B I *D sky130_fd_sc_hd__xor2_2
*I *3264:X O *D sky130_fd_sc_hd__buf_6
*CAP
1 *3924:D 0.000369596
2 *3411:B 0.000440051
3 *3264:X 7.04554e-05
4 *3920:D *3924:D 0.000441063
5 *4031:A *3924:D 7.35813e-05
6 *202:54 *3411:B 8.73846e-05
7 *606:10 *3924:D 0
8 *606:14 *3924:D 0
9 *714:52 *3924:D 6.72501e-05
*RES
1 *3264:X *3411:B 3.0325 
2 *3411:B *3924:D 13.475 
*END

*D_NET *911 0.00218654
*CONN
*I *3925:D I *D sky130_fd_sc_hd__dfrtp_2
*I *3413:B I *D sky130_fd_sc_hd__xor2_2
*I *3265:Y O *D sky130_fd_sc_hd__xnor2_2
*CAP
1 *3925:D 0.000286586
2 *3413:B 5.51122e-05
3 *3265:Y 0.000125423
4 *911:8 0.00046712
5 *3925:D *3410:B 0
6 *3925:D *3926:D 0
7 *3330:B *3413:B 0.000183043
8 *3330:B *3925:D 4.61923e-05
9 *3414:B *3925:D 6.07872e-05
10 *4043:A *911:8 4.66108e-05
11 *643:16 *911:8 0.00035048
12 *717:14 *3413:B 0.000103185
13 *717:14 *3925:D 1.52184e-05
14 *717:29 *3925:D 0.000446786
*RES
1 *3265:Y *911:8 6.81 
2 *911:8 *3413:B 4.145 
3 *911:8 *3925:D 10.125 
*END

*D_NET *912 0.00178602
*CONN
*I *3926:D I *D sky130_fd_sc_hd__dfrtp_2
*I *3410:B I *D sky130_fd_sc_hd__xor2_2
*I *3266:Y O *D sky130_fd_sc_hd__xnor2_2
*CAP
1 *3926:D 0.000368925
2 *3410:B 0.000174547
3 *3266:Y 0.000206892
4 *912:8 0.000750364
5 *3905:D *3926:D 0
6 *3921:CLK *3926:D 0
7 *3925:D *3410:B 0
8 *3925:D *3926:D 0
9 *3987:A *912:8 4.99619e-05
10 *637:12 *912:8 0.000235328
11 *886:10 *3410:B 0
12 *886:10 *3926:D 0
13 *886:16 *3410:B 0
*RES
1 *3266:Y *912:8 7.845 
2 *912:8 *3410:B 4.7975 
3 *912:8 *3926:D 9.315 
*END

*D_NET *913 0.00100072
*CONN
*I *3927:D I *D sky130_fd_sc_hd__dfrtp_2
*I *3268:X O *D sky130_fd_sc_hd__o21ba_2
*CAP
1 *3927:D 0.000324413
2 *3268:X 0.000324413
3 *3268:A1 *3927:D 4.42327e-05
4 *3588:A *3927:D 0.000307665
*RES
1 *3268:X *3927:D 11.7 
*END

*D_NET *914 0.00148557
*CONN
*I *3900:D I *D sky130_fd_sc_hd__dfrtp_2
*I *3898:Q O *D sky130_fd_sc_hd__dfrtp_2
*CAP
1 *3900:D 0.000437104
2 *3898:Q 0.000437104
3 *3897:RESET_B *3900:D 0.000317013
4 *3900:RESET_B *3900:D 0.000294352
*RES
1 *3898:Q *3900:D 16.155 
*END

*D_NET *915 0.00100348
*CONN
*I *4046:A I *D sky130_fd_sc_hd__clkdlybuf4s25_1
*I *3900:Q O *D sky130_fd_sc_hd__dfrtp_2
*CAP
1 *4046:A 0.00029409
2 *3900:Q 0.00029409
3 afull *4046:A 0
4 *3897:RESET_B *4046:A 0.000273695
5 *4091:A *4046:A 0.000141599
*RES
1 *3900:Q *4046:A 13.365 
*END
