*SPEF "ieee 1481-1999"
*DESIGN "async_fifo"
*DATE "15:49:27 Friday August 28, 2026"
*VENDOR "The OpenROAD Project"
*PROGRAM "OpenROAD"
*VERSION "dcf36133a369abc8f3c5e5738cd4d82e4903c0e0"
*DESIGN_FLOW "NAME_SCOPE LOCAL" "PIN_CAP NONE"
*DIVIDER /
*DELIMITER :
*BUS_DELIMITER []
*T_UNIT 1 NS
*C_UNIT 1 PF
*R_UNIT 1 OHM
*L_UNIT 1 HENRY

*NAME_MAP
*3 aempty
*4 aempty_thresh[0]
*5 aempty_thresh[1]
*6 aempty_thresh[2]
*7 aempty_thresh[3]
*8 afull
*9 afull_thresh[0]
*10 afull_thresh[1]
*11 afull_thresh[2]
*12 afull_thresh[3]
*13 empty
*14 full
*15 rd_clk
*16 rd_data[0]
*17 rd_data[1]
*18 rd_data[2]
*19 rd_data[3]
*20 rd_data[4]
*21 rd_data[5]
*22 rd_data[6]
*23 rd_data[7]
*24 rd_en
*25 rd_rst_n
*26 wr_clk
*27 wr_data[0]
*28 wr_data[1]
*29 wr_data[2]
*30 wr_data[3]
*31 wr_data[4]
*32 wr_data[5]
*33 wr_data[6]
*34 wr_data[7]
*35 wr_en
*36 wr_rst_n
*37 _0000_
*38 _0001_
*39 _0002_
*40 _0003_
*41 _0004_
*42 _0005_
*43 _0006_
*44 _0007_
*45 _0008_
*46 _0009_
*47 _0010_
*48 _0011_
*49 _0012_
*50 _0013_
*51 _0014_
*52 _0015_
*53 _0016_
*54 _0017_
*55 _0018_
*56 _0019_
*57 _0020_
*58 _0021_
*59 _0022_
*60 _0023_
*61 _0024_
*62 _0025_
*63 _0026_
*64 _0027_
*65 _0028_
*66 _0029_
*67 _0030_
*68 _0031_
*69 _0032_
*70 _0033_
*71 _0034_
*72 _0035_
*73 _0036_
*74 _0037_
*75 _0038_
*76 _0039_
*77 _0040_
*78 _0041_
*79 _0042_
*80 _0043_
*81 _0044_
*82 _0045_
*83 _0046_
*84 _0047_
*85 _0048_
*86 _0049_
*87 _0050_
*88 _0051_
*89 _0052_
*90 _0053_
*91 _0054_
*92 _0055_
*93 _0056_
*94 _0057_
*95 _0058_
*96 _0059_
*97 _0060_
*98 _0061_
*99 _0062_
*100 _0063_
*101 _0064_
*102 _0065_
*103 _0066_
*104 _0067_
*105 _0068_
*106 _0069_
*107 _0070_
*108 _0071_
*109 _0072_
*110 _0073_
*111 _0074_
*112 _0075_
*113 _0076_
*114 _0077_
*115 _0078_
*116 _0079_
*117 _0080_
*118 _0081_
*119 _0082_
*120 _0083_
*121 _0084_
*122 _0085_
*123 _0086_
*124 _0087_
*125 _0088_
*126 _0089_
*127 _0090_
*128 _0091_
*129 _0092_
*130 _0093_
*131 _0094_
*132 _0095_
*133 _0096_
*134 _0097_
*135 _0098_
*136 _0099_
*137 _0100_
*138 _0101_
*139 _0102_
*140 _0103_
*141 _0104_
*142 _0105_
*143 _0106_
*144 _0107_
*145 _0108_
*146 _0109_
*147 _0110_
*148 _0111_
*149 _0112_
*150 _0113_
*151 _0114_
*152 _0115_
*153 _0116_
*154 _0117_
*155 _0118_
*156 _0119_
*157 _0120_
*158 _0121_
*159 _0122_
*160 _0123_
*161 _0124_
*162 _0125_
*163 _0126_
*164 _0127_
*165 _0128_
*166 _0129_
*167 _0130_
*168 _0131_
*169 _0132_
*170 _0133_
*171 _0134_
*172 _0135_
*173 _0136_
*174 _0137_
*175 _0138_
*176 _0139_
*177 _0140_
*178 _0141_
*179 _0142_
*180 _0143_
*181 _0144_
*182 _0145_
*183 _0146_
*184 _0147_
*185 _0148_
*186 _0149_
*187 _0150_
*188 _0151_
*189 _0152_
*190 _0153_
*191 _0154_
*192 _0155_
*193 _0156_
*194 _0157_
*195 _0158_
*196 _0159_
*197 _0160_
*198 _0161_
*199 _0162_
*200 _0163_
*201 _0164_
*202 _0165_
*203 _0166_
*204 _0167_
*205 _0168_
*206 _0169_
*207 _0170_
*208 _0171_
*209 _0172_
*210 _0173_
*211 _0174_
*212 _0175_
*213 _0176_
*214 _0177_
*215 _0178_
*216 _0179_
*217 _0180_
*218 _0181_
*219 _0182_
*220 _0183_
*221 _0184_
*222 _0185_
*223 _0186_
*224 _0187_
*225 _0188_
*226 _0189_
*227 _0190_
*228 _0191_
*229 _0192_
*230 _0193_
*231 _0194_
*232 _0195_
*233 _0196_
*234 _0197_
*235 _0198_
*236 _0199_
*237 _0200_
*238 _0201_
*239 _0202_
*240 _0203_
*241 _0204_
*242 _0205_
*243 _0206_
*244 _0207_
*245 _0208_
*246 _0209_
*247 _0210_
*248 _0211_
*249 _0212_
*250 _0213_
*251 _0214_
*252 _0215_
*253 _0216_
*254 _0217_
*255 _0218_
*256 _0219_
*257 _0220_
*258 _0221_
*259 _0222_
*260 _0223_
*261 _0224_
*262 _0225_
*263 _0226_
*264 _0227_
*265 _0228_
*266 _0229_
*267 _0230_
*268 _0231_
*269 _0232_
*270 _0233_
*271 _0234_
*272 _0235_
*273 _0236_
*274 _0237_
*275 _0238_
*276 _0239_
*277 _0240_
*278 _0241_
*279 _0242_
*280 _0243_
*281 _0244_
*282 _0245_
*283 _0246_
*284 _0247_
*285 _0248_
*286 _0249_
*287 _0250_
*288 _0251_
*289 _0252_
*290 _0253_
*291 _0254_
*292 _0255_
*293 _0256_
*294 _0257_
*295 _0258_
*296 _0259_
*297 _0260_
*298 _0261_
*299 _0262_
*300 _0263_
*301 _0264_
*302 _0265_
*303 _0266_
*304 _0267_
*305 _0268_
*306 _0269_
*307 _0270_
*308 _0271_
*309 _0272_
*310 _0273_
*311 _0274_
*312 _0275_
*313 _0276_
*314 _0277_
*315 _0278_
*316 _0279_
*317 _0280_
*318 _0281_
*319 _0282_
*320 _0283_
*321 _0284_
*322 _0285_
*323 _0286_
*324 _0287_
*325 _0288_
*326 _0289_
*327 _0290_
*328 _0291_
*329 _0292_
*330 _0293_
*331 _0294_
*332 _0295_
*333 _0296_
*334 _0297_
*335 _0298_
*336 _0299_
*337 _0300_
*338 _0301_
*339 _0302_
*340 _0303_
*341 _0304_
*342 _0305_
*343 _0306_
*344 _0307_
*345 _0308_
*346 _0309_
*347 _0310_
*348 _0311_
*349 _0312_
*350 _0313_
*351 _0314_
*352 _0315_
*353 _0316_
*354 _0317_
*355 _0318_
*356 _0319_
*357 _0320_
*358 _0321_
*359 _0322_
*360 _0323_
*361 _0324_
*362 _0325_
*363 _0326_
*364 _0327_
*365 _0328_
*366 _0329_
*367 _0330_
*368 _0331_
*369 _0332_
*370 _0333_
*371 _0334_
*372 _0335_
*373 _0336_
*374 _0337_
*375 _0338_
*376 _0339_
*377 _0340_
*378 _0341_
*379 _0342_
*380 _0343_
*381 _0344_
*382 _0345_
*383 _0346_
*384 _0347_
*385 _0348_
*386 _0349_
*387 _0350_
*388 _0351_
*389 _0352_
*390 _0353_
*391 _0354_
*392 _0355_
*393 _0356_
*394 _0357_
*395 _0358_
*396 _0359_
*397 _0360_
*398 _0361_
*399 _0362_
*400 _0363_
*401 _0364_
*402 _0365_
*403 _0366_
*404 _0367_
*405 _0368_
*406 _0369_
*407 _0370_
*408 _0371_
*409 _0372_
*410 _0373_
*411 _0374_
*412 _0375_
*413 _0376_
*414 _0377_
*415 _0378_
*416 _0379_
*417 _0380_
*418 _0381_
*419 _0382_
*420 _0383_
*421 _0384_
*422 _0385_
*423 _0386_
*424 _0387_
*425 _0388_
*426 _0389_
*427 _0390_
*428 _0391_
*429 _0392_
*430 _0393_
*431 _0394_
*432 _0395_
*433 _0396_
*434 _0397_
*435 _0398_
*436 _0399_
*437 _0400_
*438 _0401_
*439 _0402_
*440 _0403_
*441 _0404_
*442 _0405_
*443 _0406_
*444 _0407_
*445 _0408_
*446 _0409_
*447 _0410_
*448 _0411_
*449 _0412_
*450 _0413_
*451 _0414_
*452 _0415_
*453 _0416_
*454 _0417_
*455 _0418_
*456 _0419_
*457 _0420_
*458 _0421_
*459 _0422_
*460 _0423_
*461 _0424_
*462 _0425_
*463 _0426_
*464 _0427_
*465 _0428_
*466 _0429_
*467 _0430_
*468 _0431_
*469 _0432_
*470 _0433_
*471 _0434_
*472 _0435_
*473 _0436_
*474 _0437_
*475 _0438_
*476 _0439_
*477 _0440_
*478 _0441_
*479 _0442_
*480 _0443_
*481 _0444_
*482 _0445_
*483 _0446_
*484 _0447_
*485 _0448_
*486 _0449_
*487 _0450_
*488 _0451_
*489 _0452_
*490 _0453_
*491 _0454_
*492 _0455_
*493 _0456_
*494 _0457_
*495 _0458_
*496 _0459_
*497 _0460_
*498 _0461_
*499 _0462_
*500 _0463_
*501 _0464_
*502 _0465_
*503 _0466_
*504 _0467_
*505 _0468_
*506 _0469_
*507 _0470_
*508 _0471_
*509 _0472_
*510 _0473_
*511 _0474_
*512 _0475_
*513 _0476_
*514 _0477_
*515 _0478_
*516 _0479_
*517 _0480_
*518 _0481_
*519 _0482_
*520 _0483_
*521 _0484_
*522 _0485_
*523 _0486_
*524 _0487_
*525 _0488_
*526 _0489_
*527 _0490_
*528 _0491_
*529 _0492_
*530 _0493_
*531 _0494_
*532 _0495_
*533 _0496_
*534 _0497_
*535 _0498_
*536 _0499_
*537 _0500_
*538 _0501_
*539 _0502_
*540 _0503_
*541 _0504_
*542 _0505_
*543 _0506_
*544 _0507_
*545 _0508_
*546 _0509_
*547 _0510_
*548 _0511_
*549 _0512_
*550 _0513_
*551 _0514_
*552 _0515_
*553 aempty_thresh_latched\[0\]
*554 aempty_thresh_latched\[1\]
*555 aempty_thresh_latched\[2\]
*556 aempty_thresh_latched\[3\]
*557 afull_thresh_latched\[0\]
*558 afull_thresh_latched\[1\]
*559 afull_thresh_latched\[2\]
*560 afull_thresh_latched\[3\]
*561 clknet_0_rd_clk
*562 clknet_0_wr_clk
*563 clknet_2_0__leaf_rd_clk
*564 clknet_2_1__leaf_rd_clk
*565 clknet_2_2__leaf_rd_clk
*566 clknet_2_3__leaf_rd_clk
*567 clknet_4_0_0_wr_clk
*568 clknet_4_10_0_wr_clk
*569 clknet_4_11_0_wr_clk
*570 clknet_4_12_0_wr_clk
*571 clknet_4_13_0_wr_clk
*572 clknet_4_14_0_wr_clk
*573 clknet_4_15_0_wr_clk
*574 clknet_4_1_0_wr_clk
*575 clknet_4_2_0_wr_clk
*576 clknet_4_3_0_wr_clk
*577 clknet_4_4_0_wr_clk
*578 clknet_4_5_0_wr_clk
*579 clknet_4_6_0_wr_clk
*580 clknet_4_7_0_wr_clk
*581 clknet_4_8_0_wr_clk
*582 clknet_4_9_0_wr_clk
*583 clknet_5_0__leaf_wr_clk
*584 clknet_5_10__leaf_wr_clk
*585 clknet_5_11__leaf_wr_clk
*586 clknet_5_12__leaf_wr_clk
*587 clknet_5_13__leaf_wr_clk
*588 clknet_5_14__leaf_wr_clk
*589 clknet_5_15__leaf_wr_clk
*590 clknet_5_16__leaf_wr_clk
*591 clknet_5_17__leaf_wr_clk
*592 clknet_5_18__leaf_wr_clk
*593 clknet_5_19__leaf_wr_clk
*594 clknet_5_1__leaf_wr_clk
*595 clknet_5_20__leaf_wr_clk
*596 clknet_5_21__leaf_wr_clk
*597 clknet_5_22__leaf_wr_clk
*598 clknet_5_23__leaf_wr_clk
*599 clknet_5_24__leaf_wr_clk
*600 clknet_5_25__leaf_wr_clk
*601 clknet_5_26__leaf_wr_clk
*602 clknet_5_27__leaf_wr_clk
*603 clknet_5_28__leaf_wr_clk
*604 clknet_5_29__leaf_wr_clk
*605 clknet_5_2__leaf_wr_clk
*606 clknet_5_30__leaf_wr_clk
*607 clknet_5_31__leaf_wr_clk
*608 clknet_5_3__leaf_wr_clk
*609 clknet_5_4__leaf_wr_clk
*610 clknet_5_5__leaf_wr_clk
*611 clknet_5_6__leaf_wr_clk
*612 clknet_5_7__leaf_wr_clk
*613 clknet_5_8__leaf_wr_clk
*614 clknet_5_9__leaf_wr_clk
*615 net
*616 net1
*617 net10
*618 net100
*619 net101
*620 net102
*621 net103
*622 net104
*623 net105
*624 net106
*625 net107
*626 net108
*627 net109
*628 net11
*629 net110
*630 net12
*631 net13
*632 net14
*633 net15
*634 net16
*635 net17
*636 net18
*637 net19
*638 net2
*639 net20
*640 net21
*641 net22
*642 net23
*643 net24
*644 net25
*645 net26
*646 net27
*647 net28
*648 net29
*649 net3
*650 net30
*651 net31
*652 net32
*653 net33
*654 net34
*655 net35
*656 net36
*657 net37
*658 net38
*659 net39
*660 net4
*661 net40
*662 net41
*663 net42
*664 net43
*665 net44
*666 net45
*667 net46
*668 net47
*669 net48
*670 net49
*671 net5
*672 net50
*673 net51
*674 net52
*675 net53
*676 net54
*677 net55
*678 net56
*679 net57
*680 net58
*681 net59
*682 net6
*683 net60
*684 net61
*685 net62
*686 net63
*687 net64
*688 net65
*689 net66
*690 net67
*691 net68
*692 net69
*693 net7
*694 net70
*695 net71
*696 net72
*697 net73
*698 net74
*699 net75
*700 net76
*701 net77
*702 net78
*703 net79
*704 net8
*705 net80
*706 net81
*707 net82
*708 net83
*709 net84
*710 net85
*711 net86
*712 net87
*713 net88
*714 net89
*715 net9
*716 net90
*717 net91
*718 net92
*719 net93
*720 net94
*721 net95
*722 net96
*723 net97
*724 net98
*725 net99
*726 rd_ptr_bin\[0\]
*727 rd_ptr_bin\[1\]
*728 rd_ptr_bin\[2\]
*729 rd_ptr_bin\[3\]
*730 rd_ptr_bin\[4\]
*731 rd_ptr_bin_next_wm\[0\]
*732 rd_ptr_bin_next_wm\[1\]
*733 rd_ptr_bin_next_wm\[2\]
*734 rd_ptr_bin_next_wm\[3\]
*735 rd_ptr_bin_next_wm\[4\]
*736 rd_ptr_gray\[0\]
*737 rd_ptr_gray\[1\]
*738 rd_ptr_gray\[2\]
*739 rd_ptr_gray\[3\]
*740 u_fifomem\.mem\[0\]\[0\]
*741 u_fifomem\.mem\[0\]\[1\]
*742 u_fifomem\.mem\[0\]\[2\]
*743 u_fifomem\.mem\[0\]\[3\]
*744 u_fifomem\.mem\[0\]\[4\]
*745 u_fifomem\.mem\[0\]\[5\]
*746 u_fifomem\.mem\[0\]\[6\]
*747 u_fifomem\.mem\[0\]\[7\]
*748 u_fifomem\.mem\[10\]\[0\]
*749 u_fifomem\.mem\[10\]\[1\]
*750 u_fifomem\.mem\[10\]\[2\]
*751 u_fifomem\.mem\[10\]\[3\]
*752 u_fifomem\.mem\[10\]\[4\]
*753 u_fifomem\.mem\[10\]\[5\]
*754 u_fifomem\.mem\[10\]\[6\]
*755 u_fifomem\.mem\[10\]\[7\]
*756 u_fifomem\.mem\[11\]\[0\]
*757 u_fifomem\.mem\[11\]\[1\]
*758 u_fifomem\.mem\[11\]\[2\]
*759 u_fifomem\.mem\[11\]\[3\]
*760 u_fifomem\.mem\[11\]\[4\]
*761 u_fifomem\.mem\[11\]\[5\]
*762 u_fifomem\.mem\[11\]\[6\]
*763 u_fifomem\.mem\[11\]\[7\]
*764 u_fifomem\.mem\[12\]\[0\]
*765 u_fifomem\.mem\[12\]\[1\]
*766 u_fifomem\.mem\[12\]\[2\]
*767 u_fifomem\.mem\[12\]\[3\]
*768 u_fifomem\.mem\[12\]\[4\]
*769 u_fifomem\.mem\[12\]\[5\]
*770 u_fifomem\.mem\[12\]\[6\]
*771 u_fifomem\.mem\[12\]\[7\]
*772 u_fifomem\.mem\[13\]\[0\]
*773 u_fifomem\.mem\[13\]\[1\]
*774 u_fifomem\.mem\[13\]\[2\]
*775 u_fifomem\.mem\[13\]\[3\]
*776 u_fifomem\.mem\[13\]\[4\]
*777 u_fifomem\.mem\[13\]\[5\]
*778 u_fifomem\.mem\[13\]\[6\]
*779 u_fifomem\.mem\[13\]\[7\]
*780 u_fifomem\.mem\[14\]\[0\]
*781 u_fifomem\.mem\[14\]\[1\]
*782 u_fifomem\.mem\[14\]\[2\]
*783 u_fifomem\.mem\[14\]\[3\]
*784 u_fifomem\.mem\[14\]\[4\]
*785 u_fifomem\.mem\[14\]\[5\]
*786 u_fifomem\.mem\[14\]\[6\]
*787 u_fifomem\.mem\[14\]\[7\]
*788 u_fifomem\.mem\[15\]\[0\]
*789 u_fifomem\.mem\[15\]\[1\]
*790 u_fifomem\.mem\[15\]\[2\]
*791 u_fifomem\.mem\[15\]\[3\]
*792 u_fifomem\.mem\[15\]\[4\]
*793 u_fifomem\.mem\[15\]\[5\]
*794 u_fifomem\.mem\[15\]\[6\]
*795 u_fifomem\.mem\[15\]\[7\]
*796 u_fifomem\.mem\[1\]\[0\]
*797 u_fifomem\.mem\[1\]\[1\]
*798 u_fifomem\.mem\[1\]\[2\]
*799 u_fifomem\.mem\[1\]\[3\]
*800 u_fifomem\.mem\[1\]\[4\]
*801 u_fifomem\.mem\[1\]\[5\]
*802 u_fifomem\.mem\[1\]\[6\]
*803 u_fifomem\.mem\[1\]\[7\]
*804 u_fifomem\.mem\[2\]\[0\]
*805 u_fifomem\.mem\[2\]\[1\]
*806 u_fifomem\.mem\[2\]\[2\]
*807 u_fifomem\.mem\[2\]\[3\]
*808 u_fifomem\.mem\[2\]\[4\]
*809 u_fifomem\.mem\[2\]\[5\]
*810 u_fifomem\.mem\[2\]\[6\]
*811 u_fifomem\.mem\[2\]\[7\]
*812 u_fifomem\.mem\[3\]\[0\]
*813 u_fifomem\.mem\[3\]\[1\]
*814 u_fifomem\.mem\[3\]\[2\]
*815 u_fifomem\.mem\[3\]\[3\]
*816 u_fifomem\.mem\[3\]\[4\]
*817 u_fifomem\.mem\[3\]\[5\]
*818 u_fifomem\.mem\[3\]\[6\]
*819 u_fifomem\.mem\[3\]\[7\]
*820 u_fifomem\.mem\[4\]\[0\]
*821 u_fifomem\.mem\[4\]\[1\]
*822 u_fifomem\.mem\[4\]\[2\]
*823 u_fifomem\.mem\[4\]\[3\]
*824 u_fifomem\.mem\[4\]\[4\]
*825 u_fifomem\.mem\[4\]\[5\]
*826 u_fifomem\.mem\[4\]\[6\]
*827 u_fifomem\.mem\[4\]\[7\]
*828 u_fifomem\.mem\[5\]\[0\]
*829 u_fifomem\.mem\[5\]\[1\]
*830 u_fifomem\.mem\[5\]\[2\]
*831 u_fifomem\.mem\[5\]\[3\]
*832 u_fifomem\.mem\[5\]\[4\]
*833 u_fifomem\.mem\[5\]\[5\]
*834 u_fifomem\.mem\[5\]\[6\]
*835 u_fifomem\.mem\[5\]\[7\]
*836 u_fifomem\.mem\[6\]\[0\]
*837 u_fifomem\.mem\[6\]\[1\]
*838 u_fifomem\.mem\[6\]\[2\]
*839 u_fifomem\.mem\[6\]\[3\]
*840 u_fifomem\.mem\[6\]\[4\]
*841 u_fifomem\.mem\[6\]\[5\]
*842 u_fifomem\.mem\[6\]\[6\]
*843 u_fifomem\.mem\[6\]\[7\]
*844 u_fifomem\.mem\[7\]\[0\]
*845 u_fifomem\.mem\[7\]\[1\]
*846 u_fifomem\.mem\[7\]\[2\]
*847 u_fifomem\.mem\[7\]\[3\]
*848 u_fifomem\.mem\[7\]\[4\]
*849 u_fifomem\.mem\[7\]\[5\]
*850 u_fifomem\.mem\[7\]\[6\]
*851 u_fifomem\.mem\[7\]\[7\]
*852 u_fifomem\.mem\[8\]\[0\]
*853 u_fifomem\.mem\[8\]\[1\]
*854 u_fifomem\.mem\[8\]\[2\]
*855 u_fifomem\.mem\[8\]\[3\]
*856 u_fifomem\.mem\[8\]\[4\]
*857 u_fifomem\.mem\[8\]\[5\]
*858 u_fifomem\.mem\[8\]\[6\]
*859 u_fifomem\.mem\[8\]\[7\]
*860 u_fifomem\.mem\[9\]\[0\]
*861 u_fifomem\.mem\[9\]\[1\]
*862 u_fifomem\.mem\[9\]\[2\]
*863 u_fifomem\.mem\[9\]\[3\]
*864 u_fifomem\.mem\[9\]\[4\]
*865 u_fifomem\.mem\[9\]\[5\]
*866 u_fifomem\.mem\[9\]\[6\]
*867 u_fifomem\.mem\[9\]\[7\]
*868 u_fifomem\.wr_addr\[0\]
*869 u_fifomem\.wr_addr\[1\]
*870 u_fifomem\.wr_addr\[2\]
*871 u_fifomem\.wr_addr\[3\]
*872 u_rd_ptr_empty\.empty_val
*873 u_rd_ptr_empty\.rd_ptr_gray_next\[0\]
*874 u_rd_ptr_empty\.rd_ptr_gray_next\[1\]
*875 u_rd_ptr_empty\.rd_ptr_gray_next\[2\]
*876 u_rd_ptr_empty\.rd_ptr_gray_next\[3\]
*877 u_rd_reset_sync\.sync_ff1
*878 u_rd_reset_sync\.sync_ff2
*879 u_sync_r2w\.sync_stage1\[0\]
*880 u_sync_r2w\.sync_stage1\[1\]
*881 u_sync_r2w\.sync_stage1\[2\]
*882 u_sync_r2w\.sync_stage1\[3\]
*883 u_sync_r2w\.sync_stage1\[4\]
*884 u_sync_r2w\.sync_stage2\[0\]
*885 u_sync_r2w\.sync_stage2\[1\]
*886 u_sync_r2w\.sync_stage2\[2\]
*887 u_sync_r2w\.sync_stage2\[3\]
*888 u_sync_r2w\.sync_stage2\[4\]
*889 u_sync_w2r\.sync_stage1\[0\]
*890 u_sync_w2r\.sync_stage1\[1\]
*891 u_sync_w2r\.sync_stage1\[2\]
*892 u_sync_w2r\.sync_stage1\[3\]
*893 u_sync_w2r\.sync_stage1\[4\]
*894 u_sync_w2r\.sync_stage2\[0\]
*895 u_sync_w2r\.sync_stage2\[1\]
*896 u_sync_w2r\.sync_stage2\[2\]
*897 u_sync_w2r\.sync_stage2\[3\]
*898 u_sync_w2r\.sync_stage2\[4\]
*899 u_sync_w2r\.wr_ptr_gray\[0\]
*900 u_sync_w2r\.wr_ptr_gray\[1\]
*901 u_sync_w2r\.wr_ptr_gray\[2\]
*902 u_sync_w2r\.wr_ptr_gray\[3\]
*903 u_sync_w2r\.wr_ptr_gray\[4\]
*904 u_wr_ptr_full\.full_val
*905 u_wr_ptr_full\.wr_ptr_bin_next\[0\]
*906 u_wr_ptr_full\.wr_ptr_bin_next\[1\]
*907 u_wr_ptr_full\.wr_ptr_bin_next\[2\]
*908 u_wr_ptr_full\.wr_ptr_bin_next\[3\]
*909 u_wr_ptr_full\.wr_ptr_bin_next\[4\]
*910 u_wr_ptr_full\.wr_ptr_gray_next\[0\]
*911 u_wr_ptr_full\.wr_ptr_gray_next\[1\]
*912 u_wr_ptr_full\.wr_ptr_gray_next\[2\]
*913 u_wr_ptr_full\.wr_ptr_gray_next\[3\]
*914 u_wr_reset_sync\.sync_ff1
*915 u_wr_reset_sync\.sync_ff2
*916 FILLER_0_101
*917 FILLER_0_104
*918 FILLER_0_107
*919 FILLER_0_110
*920 FILLER_0_113
*921 FILLER_0_116
*922 FILLER_0_12
*923 FILLER_0_125
*924 FILLER_0_128
*925 FILLER_0_132
*926 FILLER_0_135
*927 FILLER_0_138
*928 FILLER_0_141
*929 FILLER_0_144
*930 FILLER_0_147
*931 FILLER_0_15
*932 FILLER_0_150
*933 FILLER_0_153
*934 FILLER_0_156
*935 FILLER_0_159
*936 FILLER_0_172
*937 FILLER_0_175
*938 FILLER_0_178
*939 FILLER_0_18
*940 FILLER_0_181
*941 FILLER_0_184
*942 FILLER_0_187
*943 FILLER_0_205
*944 FILLER_0_208
*945 FILLER_0_21
*946 FILLER_0_211
*947 FILLER_0_214
*948 FILLER_0_217
*949 FILLER_0_220
*950 FILLER_0_223
*951 FILLER_0_225
*952 FILLER_0_228
*953 FILLER_0_231
*954 FILLER_0_234
*955 FILLER_0_237
*956 FILLER_0_24
*957 FILLER_0_240
*958 FILLER_0_243
*959 FILLER_0_261
*960 FILLER_0_264
*961 FILLER_0_267
*962 FILLER_0_27
*963 FILLER_0_270
*964 FILLER_0_273
*965 FILLER_0_276
*966 FILLER_0_279
*967 FILLER_0_281
*968 FILLER_0_284
*969 FILLER_0_287
*970 FILLER_0_29
*971 FILLER_0_290
*972 FILLER_0_293
*973 FILLER_0_3
*974 FILLER_0_32
*975 FILLER_0_35
*976 FILLER_0_38
*977 FILLER_0_41
*978 FILLER_0_44
*979 FILLER_0_57
*980 FILLER_0_6
*981 FILLER_0_67
*982 FILLER_0_76
*983 FILLER_0_79
*984 FILLER_0_85
*985 FILLER_0_9
*986 FILLER_0_95
*987 FILLER_0_98
*988 FILLER_10_102
*989 FILLER_10_141
*990 FILLER_10_144
*991 FILLER_10_147
*992 FILLER_10_151
*993 FILLER_10_154
*994 FILLER_10_190
*995 FILLER_10_193
*996 FILLER_10_197
*997 FILLER_10_200
*998 FILLER_10_22
*999 FILLER_10_227
*1000 FILLER_10_230
*1001 FILLER_10_233
*1002 FILLER_10_236
*1003 FILLER_10_239
*1004 FILLER_10_242
*1005 FILLER_10_245
*1006 FILLER_10_248
*1007 FILLER_10_25
*1008 FILLER_10_251
*1009 FILLER_10_253
*1010 FILLER_10_256
*1011 FILLER_10_259
*1012 FILLER_10_262
*1013 FILLER_10_265
*1014 FILLER_10_268
*1015 FILLER_10_271
*1016 FILLER_10_274
*1017 FILLER_10_277
*1018 FILLER_10_280
*1019 FILLER_10_283
*1020 FILLER_10_286
*1021 FILLER_10_289
*1022 FILLER_10_29
*1023 FILLER_10_292
*1024 FILLER_10_295
*1025 FILLER_10_3
*1026 FILLER_10_32
*1027 FILLER_10_51
*1028 FILLER_10_61
*1029 FILLER_10_64
*1030 FILLER_11_109
*1031 FILLER_11_113
*1032 FILLER_11_131
*1033 FILLER_11_142
*1034 FILLER_11_145
*1035 FILLER_11_148
*1036 FILLER_11_151
*1037 FILLER_11_154
*1038 FILLER_11_157
*1039 FILLER_11_160
*1040 FILLER_11_163
*1041 FILLER_11_178
*1042 FILLER_11_181
*1043 FILLER_11_184
*1044 FILLER_11_187
*1045 FILLER_11_190
*1046 FILLER_11_193
*1047 FILLER_11_20
*1048 FILLER_11_220
*1049 FILLER_11_223
*1050 FILLER_11_23
*1051 FILLER_11_233
*1052 FILLER_11_236
*1053 FILLER_11_248
*1054 FILLER_11_258
*1055 FILLER_11_26
*1056 FILLER_11_264
*1057 FILLER_11_271
*1058 FILLER_11_274
*1059 FILLER_11_277
*1060 FILLER_11_288
*1061 FILLER_11_29
*1062 FILLER_11_291
*1063 FILLER_11_294
*1064 FILLER_11_3
*1065 FILLER_11_32
*1066 FILLER_11_35
*1067 FILLER_11_38
*1068 FILLER_11_41
*1069 FILLER_11_51
*1070 FILLER_11_54
*1071 FILLER_11_57
*1072 FILLER_11_60
*1073 FILLER_11_83
*1074 FILLER_11_86
*1075 FILLER_11_96
*1076 FILLER_12_111
*1077 FILLER_12_114
*1078 FILLER_12_12
*1079 FILLER_12_120
*1080 FILLER_12_123
*1081 FILLER_12_126
*1082 FILLER_12_129
*1083 FILLER_12_148
*1084 FILLER_12_15
*1085 FILLER_12_151
*1086 FILLER_12_154
*1087 FILLER_12_157
*1088 FILLER_12_160
*1089 FILLER_12_163
*1090 FILLER_12_166
*1091 FILLER_12_169
*1092 FILLER_12_172
*1093 FILLER_12_175
*1094 FILLER_12_178
*1095 FILLER_12_18
*1096 FILLER_12_181
*1097 FILLER_12_184
*1098 FILLER_12_187
*1099 FILLER_12_190
*1100 FILLER_12_193
*1101 FILLER_12_197
*1102 FILLER_12_226
*1103 FILLER_12_229
*1104 FILLER_12_261
*1105 FILLER_12_269
*1106 FILLER_12_272
*1107 FILLER_12_275
*1108 FILLER_12_29
*1109 FILLER_12_293
*1110 FILLER_12_3
*1111 FILLER_12_32
*1112 FILLER_12_35
*1113 FILLER_12_38
*1114 FILLER_12_41
*1115 FILLER_12_44
*1116 FILLER_12_47
*1117 FILLER_12_6
*1118 FILLER_12_68
*1119 FILLER_12_71
*1120 FILLER_12_74
*1121 FILLER_12_77
*1122 FILLER_12_80
*1123 FILLER_12_83
*1124 FILLER_12_85
*1125 FILLER_12_88
*1126 FILLER_12_9
*1127 FILLER_12_91
*1128 FILLER_12_94
*1129 FILLER_12_97
*1130 FILLER_13_100
*1131 FILLER_13_103
*1132 FILLER_13_106
*1133 FILLER_13_109
*1134 FILLER_13_113
*1135 FILLER_13_116
*1136 FILLER_13_119
*1137 FILLER_13_12
*1138 FILLER_13_122
*1139 FILLER_13_125
*1140 FILLER_13_128
*1141 FILLER_13_15
*1142 FILLER_13_150
*1143 FILLER_13_160
*1144 FILLER_13_163
*1145 FILLER_13_166
*1146 FILLER_13_169
*1147 FILLER_13_172
*1148 FILLER_13_175
*1149 FILLER_13_178
*1150 FILLER_13_181
*1151 FILLER_13_184
*1152 FILLER_13_187
*1153 FILLER_13_212
*1154 FILLER_13_215
*1155 FILLER_13_218
*1156 FILLER_13_221
*1157 FILLER_13_225
*1158 FILLER_13_228
*1159 FILLER_13_231
*1160 FILLER_13_234
*1161 FILLER_13_258
*1162 FILLER_13_3
*1163 FILLER_13_34
*1164 FILLER_13_46
*1165 FILLER_13_57
*1166 FILLER_13_6
*1167 FILLER_13_69
*1168 FILLER_13_72
*1169 FILLER_13_75
*1170 FILLER_13_78
*1171 FILLER_13_81
*1172 FILLER_13_84
*1173 FILLER_13_9
*1174 FILLER_13_94
*1175 FILLER_13_97
*1176 FILLER_14_106
*1177 FILLER_14_109
*1178 FILLER_14_112
*1179 FILLER_14_115
*1180 FILLER_14_118
*1181 FILLER_14_121
*1182 FILLER_14_141
*1183 FILLER_14_144
*1184 FILLER_14_167
*1185 FILLER_14_170
*1186 FILLER_14_173
*1187 FILLER_14_179
*1188 FILLER_14_182
*1189 FILLER_14_185
*1190 FILLER_14_188
*1191 FILLER_14_191
*1192 FILLER_14_194
*1193 FILLER_14_197
*1194 FILLER_14_203
*1195 FILLER_14_206
*1196 FILLER_14_209
*1197 FILLER_14_212
*1198 FILLER_14_215
*1199 FILLER_14_218
*1200 FILLER_14_221
*1201 FILLER_14_224
*1202 FILLER_14_227
*1203 FILLER_14_230
*1204 FILLER_14_233
*1205 FILLER_14_236
*1206 FILLER_14_239
*1207 FILLER_14_249
*1208 FILLER_14_253
*1209 FILLER_14_256
*1210 FILLER_14_3
*1211 FILLER_14_49
*1212 FILLER_14_6
*1213 FILLER_14_77
*1214 FILLER_14_80
*1215 FILLER_14_83
*1216 FILLER_15_116
*1217 FILLER_15_119
*1218 FILLER_15_144
*1219 FILLER_15_186
*1220 FILLER_15_189
*1221 FILLER_15_192
*1222 FILLER_15_195
*1223 FILLER_15_198
*1224 FILLER_15_215
*1225 FILLER_15_218
*1226 FILLER_15_225
*1227 FILLER_15_228
*1228 FILLER_15_250
*1229 FILLER_15_253
*1230 FILLER_15_256
*1231 FILLER_15_259
*1232 FILLER_15_262
*1233 FILLER_15_265
*1234 FILLER_15_268
*1235 FILLER_15_278
*1236 FILLER_15_281
*1237 FILLER_15_284
*1238 FILLER_15_287
*1239 FILLER_15_3
*1240 FILLER_15_31
*1241 FILLER_15_52
*1242 FILLER_15_57
*1243 FILLER_16_114
*1244 FILLER_16_12
*1245 FILLER_16_135
*1246 FILLER_16_138
*1247 FILLER_16_187
*1248 FILLER_16_207
*1249 FILLER_16_210
*1250 FILLER_16_224
*1251 FILLER_16_227
*1252 FILLER_16_23
*1253 FILLER_16_250
*1254 FILLER_16_26
*1255 FILLER_16_266
*1256 FILLER_16_289
*1257 FILLER_16_29
*1258 FILLER_16_292
*1259 FILLER_16_295
*1260 FILLER_16_3
*1261 FILLER_16_6
*1262 FILLER_16_73
*1263 FILLER_16_76
*1264 FILLER_16_85
*1265 FILLER_16_9
*1266 FILLER_17_113
*1267 FILLER_17_140
*1268 FILLER_17_143
*1269 FILLER_17_146
*1270 FILLER_17_149
*1271 FILLER_17_152
*1272 FILLER_17_220
*1273 FILLER_17_223
*1274 FILLER_17_225
*1275 FILLER_17_228
*1276 FILLER_17_231
*1277 FILLER_17_255
*1278 FILLER_17_258
*1279 FILLER_17_28
*1280 FILLER_17_290
*1281 FILLER_17_3
*1282 FILLER_17_31
*1283 FILLER_17_34
*1284 FILLER_17_37
*1285 FILLER_17_57
*1286 FILLER_17_6
*1287 FILLER_17_62
*1288 FILLER_17_65
*1289 FILLER_17_68
*1290 FILLER_17_71
*1291 FILLER_17_74
*1292 FILLER_17_77
*1293 FILLER_17_80
*1294 FILLER_17_83
*1295 FILLER_18_108
*1296 FILLER_18_111
*1297 FILLER_18_114
*1298 FILLER_18_117
*1299 FILLER_18_120
*1300 FILLER_18_123
*1301 FILLER_18_126
*1302 FILLER_18_129
*1303 FILLER_18_134
*1304 FILLER_18_137
*1305 FILLER_18_141
*1306 FILLER_18_144
*1307 FILLER_18_147
*1308 FILLER_18_150
*1309 FILLER_18_153
*1310 FILLER_18_156
*1311 FILLER_18_159
*1312 FILLER_18_164
*1313 FILLER_18_167
*1314 FILLER_18_178
*1315 FILLER_18_181
*1316 FILLER_18_184
*1317 FILLER_18_187
*1318 FILLER_18_206
*1319 FILLER_18_248
*1320 FILLER_18_251
*1321 FILLER_18_253
*1322 FILLER_18_26
*1323 FILLER_18_273
*1324 FILLER_18_3
*1325 FILLER_18_46
*1326 FILLER_18_49
*1327 FILLER_18_52
*1328 FILLER_18_55
*1329 FILLER_18_58
*1330 FILLER_18_70
*1331 FILLER_18_73
*1332 FILLER_18_76
*1333 FILLER_18_79
*1334 FILLER_18_82
*1335 FILLER_18_85
*1336 FILLER_18_88
*1337 FILLER_18_93
*1338 FILLER_18_96
*1339 FILLER_19_101
*1340 FILLER_19_104
*1341 FILLER_19_107
*1342 FILLER_19_110
*1343 FILLER_19_113
*1344 FILLER_19_116
*1345 FILLER_19_119
*1346 FILLER_19_122
*1347 FILLER_19_125
*1348 FILLER_19_132
*1349 FILLER_19_150
*1350 FILLER_19_156
*1351 FILLER_19_159
*1352 FILLER_19_184
*1353 FILLER_19_195
*1354 FILLER_19_198
*1355 FILLER_19_207
*1356 FILLER_19_211
*1357 FILLER_19_214
*1358 FILLER_19_238
*1359 FILLER_19_272
*1360 FILLER_19_275
*1361 FILLER_19_278
*1362 FILLER_19_281
*1363 FILLER_19_38
*1364 FILLER_19_41
*1365 FILLER_19_44
*1366 FILLER_19_57
*1367 FILLER_19_60
*1368 FILLER_19_74
*1369 FILLER_19_77
*1370 FILLER_19_80
*1371 FILLER_19_83
*1372 FILLER_19_86
*1373 FILLER_19_89
*1374 FILLER_19_92
*1375 FILLER_19_95
*1376 FILLER_19_98
*1377 FILLER_1_102
*1378 FILLER_1_105
*1379 FILLER_1_108
*1380 FILLER_1_111
*1381 FILLER_1_12
*1382 FILLER_1_139
*1383 FILLER_1_142
*1384 FILLER_1_145
*1385 FILLER_1_15
*1386 FILLER_1_162
*1387 FILLER_1_178
*1388 FILLER_1_18
*1389 FILLER_1_181
*1390 FILLER_1_184
*1391 FILLER_1_206
*1392 FILLER_1_209
*1393 FILLER_1_21
*1394 FILLER_1_225
*1395 FILLER_1_228
*1396 FILLER_1_231
*1397 FILLER_1_234
*1398 FILLER_1_237
*1399 FILLER_1_24
*1400 FILLER_1_240
*1401 FILLER_1_264
*1402 FILLER_1_267
*1403 FILLER_1_27
*1404 FILLER_1_270
*1405 FILLER_1_273
*1406 FILLER_1_279
*1407 FILLER_1_281
*1408 FILLER_1_284
*1409 FILLER_1_287
*1410 FILLER_1_3
*1411 FILLER_1_30
*1412 FILLER_1_33
*1413 FILLER_1_36
*1414 FILLER_1_55
*1415 FILLER_1_6
*1416 FILLER_1_74
*1417 FILLER_1_9
*1418 FILLER_1_96
*1419 FILLER_1_99
*1420 FILLER_20_114
*1421 FILLER_20_117
*1422 FILLER_20_120
*1423 FILLER_20_150
*1424 FILLER_20_161
*1425 FILLER_20_182
*1426 FILLER_20_185
*1427 FILLER_20_188
*1428 FILLER_20_191
*1429 FILLER_20_194
*1430 FILLER_20_219
*1431 FILLER_20_222
*1432 FILLER_20_231
*1433 FILLER_20_234
*1434 FILLER_20_242
*1435 FILLER_20_245
*1436 FILLER_20_248
*1437 FILLER_20_251
*1438 FILLER_20_295
*1439 FILLER_20_3
*1440 FILLER_20_49
*1441 FILLER_20_76
*1442 FILLER_20_79
*1443 FILLER_20_82
*1444 FILLER_20_85
*1445 FILLER_21_116
*1446 FILLER_21_156
*1447 FILLER_21_169
*1448 FILLER_21_184
*1449 FILLER_21_187
*1450 FILLER_21_190
*1451 FILLER_21_193
*1452 FILLER_21_196
*1453 FILLER_21_199
*1454 FILLER_21_202
*1455 FILLER_21_225
*1456 FILLER_21_23
*1457 FILLER_21_243
*1458 FILLER_21_246
*1459 FILLER_21_249
*1460 FILLER_21_281
*1461 FILLER_21_284
*1462 FILLER_21_287
*1463 FILLER_21_290
*1464 FILLER_21_293
*1465 FILLER_21_57
*1466 FILLER_22_12
*1467 FILLER_22_129
*1468 FILLER_22_139
*1469 FILLER_22_147
*1470 FILLER_22_15
*1471 FILLER_22_165
*1472 FILLER_22_18
*1473 FILLER_22_188
*1474 FILLER_22_191
*1475 FILLER_22_194
*1476 FILLER_22_197
*1477 FILLER_22_21
*1478 FILLER_22_219
*1479 FILLER_22_24
*1480 FILLER_22_253
*1481 FILLER_22_256
*1482 FILLER_22_259
*1483 FILLER_22_27
*1484 FILLER_22_281
*1485 FILLER_22_284
*1486 FILLER_22_287
*1487 FILLER_22_290
*1488 FILLER_22_293
*1489 FILLER_22_49
*1490 FILLER_22_71
*1491 FILLER_22_74
*1492 FILLER_22_77
*1493 FILLER_23_121
*1494 FILLER_23_124
*1495 FILLER_23_15
*1496 FILLER_23_156
*1497 FILLER_23_166
*1498 FILLER_23_169
*1499 FILLER_23_188
*1500 FILLER_23_19
*1501 FILLER_23_191
*1502 FILLER_23_215
*1503 FILLER_23_218
*1504 FILLER_23_22
*1505 FILLER_23_221
*1506 FILLER_23_225
*1507 FILLER_23_25
*1508 FILLER_23_254
*1509 FILLER_23_257
*1510 FILLER_23_28
*1511 FILLER_23_281
*1512 FILLER_23_284
*1513 FILLER_23_287
*1514 FILLER_23_290
*1515 FILLER_23_293
*1516 FILLER_23_31
*1517 FILLER_23_34
*1518 FILLER_23_54
*1519 FILLER_23_57
*1520 FILLER_23_60
*1521 FILLER_23_71
*1522 FILLER_23_74
*1523 FILLER_23_77
*1524 FILLER_23_80
*1525 FILLER_24_108
*1526 FILLER_24_111
*1527 FILLER_24_114
*1528 FILLER_24_117
*1529 FILLER_24_120
*1530 FILLER_24_123
*1531 FILLER_24_126
*1532 FILLER_24_129
*1533 FILLER_24_141
*1534 FILLER_24_150
*1535 FILLER_24_168
*1536 FILLER_24_171
*1537 FILLER_24_174
*1538 FILLER_24_185
*1539 FILLER_24_188
*1540 FILLER_24_191
*1541 FILLER_24_194
*1542 FILLER_24_238
*1543 FILLER_24_24
*1544 FILLER_24_253
*1545 FILLER_24_256
*1546 FILLER_24_259
*1547 FILLER_24_267
*1548 FILLER_24_27
*1549 FILLER_24_270
*1550 FILLER_24_29
*1551 FILLER_24_294
*1552 FILLER_24_32
*1553 FILLER_24_35
*1554 FILLER_24_47
*1555 FILLER_24_50
*1556 FILLER_24_53
*1557 FILLER_24_56
*1558 FILLER_24_59
*1559 FILLER_24_62
*1560 FILLER_24_65
*1561 FILLER_24_68
*1562 FILLER_24_71
*1563 FILLER_24_74
*1564 FILLER_24_77
*1565 FILLER_24_80
*1566 FILLER_24_83
*1567 FILLER_24_85
*1568 FILLER_24_88
*1569 FILLER_24_9
*1570 FILLER_24_93
*1571 FILLER_24_96
*1572 FILLER_25_113
*1573 FILLER_25_116
*1574 FILLER_25_127
*1575 FILLER_25_130
*1576 FILLER_25_133
*1577 FILLER_25_136
*1578 FILLER_25_139
*1579 FILLER_25_142
*1580 FILLER_25_145
*1581 FILLER_25_169
*1582 FILLER_25_187
*1583 FILLER_25_190
*1584 FILLER_25_21
*1585 FILLER_25_214
*1586 FILLER_25_217
*1587 FILLER_25_220
*1588 FILLER_25_223
*1589 FILLER_25_24
*1590 FILLER_25_246
*1591 FILLER_25_249
*1592 FILLER_25_252
*1593 FILLER_25_255
*1594 FILLER_25_258
*1595 FILLER_25_27
*1596 FILLER_25_281
*1597 FILLER_25_284
*1598 FILLER_25_287
*1599 FILLER_25_290
*1600 FILLER_25_293
*1601 FILLER_25_3
*1602 FILLER_25_30
*1603 FILLER_25_33
*1604 FILLER_25_36
*1605 FILLER_25_39
*1606 FILLER_25_42
*1607 FILLER_25_45
*1608 FILLER_25_48
*1609 FILLER_25_51
*1610 FILLER_25_54
*1611 FILLER_25_57
*1612 FILLER_25_60
*1613 FILLER_25_71
*1614 FILLER_25_74
*1615 FILLER_25_84
*1616 FILLER_25_87
*1617 FILLER_25_90
*1618 FILLER_25_93
*1619 FILLER_25_96
*1620 FILLER_26_102
*1621 FILLER_26_112
*1622 FILLER_26_115
*1623 FILLER_26_136
*1624 FILLER_26_139
*1625 FILLER_26_141
*1626 FILLER_26_144
*1627 FILLER_26_152
*1628 FILLER_26_155
*1629 FILLER_26_169
*1630 FILLER_26_183
*1631 FILLER_26_186
*1632 FILLER_26_189
*1633 FILLER_26_192
*1634 FILLER_26_195
*1635 FILLER_26_197
*1636 FILLER_26_200
*1637 FILLER_26_203
*1638 FILLER_26_206
*1639 FILLER_26_209
*1640 FILLER_26_212
*1641 FILLER_26_215
*1642 FILLER_26_218
*1643 FILLER_26_221
*1644 FILLER_26_227
*1645 FILLER_26_230
*1646 FILLER_26_239
*1647 FILLER_26_242
*1648 FILLER_26_245
*1649 FILLER_26_248
*1650 FILLER_26_251
*1651 FILLER_26_253
*1652 FILLER_26_256
*1653 FILLER_26_259
*1654 FILLER_26_262
*1655 FILLER_26_265
*1656 FILLER_26_289
*1657 FILLER_26_292
*1658 FILLER_26_295
*1659 FILLER_26_38
*1660 FILLER_26_41
*1661 FILLER_26_44
*1662 FILLER_26_47
*1663 FILLER_26_50
*1664 FILLER_26_57
*1665 FILLER_26_68
*1666 FILLER_26_80
*1667 FILLER_26_9
*1668 FILLER_26_96
*1669 FILLER_26_99
*1670 FILLER_27_105
*1671 FILLER_27_113
*1672 FILLER_27_116
*1673 FILLER_27_153
*1674 FILLER_27_156
*1675 FILLER_27_180
*1676 FILLER_27_183
*1677 FILLER_27_186
*1678 FILLER_27_211
*1679 FILLER_27_214
*1680 FILLER_27_217
*1681 FILLER_27_220
*1682 FILLER_27_223
*1683 FILLER_27_225
*1684 FILLER_27_228
*1685 FILLER_27_231
*1686 FILLER_27_234
*1687 FILLER_27_237
*1688 FILLER_27_281
*1689 FILLER_27_287
*1690 FILLER_27_3
*1691 FILLER_27_47
*1692 FILLER_27_6
*1693 FILLER_28_129
*1694 FILLER_28_132
*1695 FILLER_28_135
*1696 FILLER_28_139
*1697 FILLER_28_185
*1698 FILLER_28_188
*1699 FILLER_28_191
*1700 FILLER_28_194
*1701 FILLER_28_218
*1702 FILLER_28_221
*1703 FILLER_28_224
*1704 FILLER_28_227
*1705 FILLER_28_23
*1706 FILLER_28_230
*1707 FILLER_28_253
*1708 FILLER_28_85
*1709 FILLER_28_88
*1710 FILLER_29_101
*1711 FILLER_29_116
*1712 FILLER_29_119
*1713 FILLER_29_138
*1714 FILLER_29_141
*1715 FILLER_29_144
*1716 FILLER_29_147
*1717 FILLER_29_150
*1718 FILLER_29_153
*1719 FILLER_29_169
*1720 FILLER_29_178
*1721 FILLER_29_181
*1722 FILLER_29_184
*1723 FILLER_29_187
*1724 FILLER_29_193
*1725 FILLER_29_196
*1726 FILLER_29_199
*1727 FILLER_29_202
*1728 FILLER_29_23
*1729 FILLER_29_238
*1730 FILLER_29_26
*1731 FILLER_29_275
*1732 FILLER_29_278
*1733 FILLER_29_281
*1734 FILLER_29_284
*1735 FILLER_29_287
*1736 FILLER_29_29
*1737 FILLER_29_290
*1738 FILLER_29_40
*1739 FILLER_29_43
*1740 FILLER_29_46
*1741 FILLER_29_49
*1742 FILLER_29_74
*1743 FILLER_29_9
*1744 FILLER_29_93
*1745 FILLER_29_96
*1746 FILLER_2_102
*1747 FILLER_2_105
*1748 FILLER_2_141
*1749 FILLER_2_144
*1750 FILLER_2_181
*1751 FILLER_2_184
*1752 FILLER_2_187
*1753 FILLER_2_190
*1754 FILLER_2_193
*1755 FILLER_2_197
*1756 FILLER_2_216
*1757 FILLER_2_233
*1758 FILLER_2_243
*1759 FILLER_2_246
*1760 FILLER_2_249
*1761 FILLER_2_295
*1762 FILLER_2_3
*1763 FILLER_2_38
*1764 FILLER_2_6
*1765 FILLER_2_66
*1766 FILLER_2_9
*1767 FILLER_30_100
*1768 FILLER_30_103
*1769 FILLER_30_12
*1770 FILLER_30_122
*1771 FILLER_30_127
*1772 FILLER_30_130
*1773 FILLER_30_139
*1774 FILLER_30_141
*1775 FILLER_30_144
*1776 FILLER_30_147
*1777 FILLER_30_15
*1778 FILLER_30_150
*1779 FILLER_30_175
*1780 FILLER_30_178
*1781 FILLER_30_18
*1782 FILLER_30_181
*1783 FILLER_30_184
*1784 FILLER_30_187
*1785 FILLER_30_190
*1786 FILLER_30_197
*1787 FILLER_30_205
*1788 FILLER_30_208
*1789 FILLER_30_21
*1790 FILLER_30_211
*1791 FILLER_30_235
*1792 FILLER_30_24
*1793 FILLER_30_251
*1794 FILLER_30_27
*1795 FILLER_30_272
*1796 FILLER_30_29
*1797 FILLER_30_32
*1798 FILLER_30_35
*1799 FILLER_30_38
*1800 FILLER_30_41
*1801 FILLER_30_44
*1802 FILLER_30_47
*1803 FILLER_30_67
*1804 FILLER_30_70
*1805 FILLER_30_73
*1806 FILLER_30_83
*1807 FILLER_30_9
*1808 FILLER_30_94
*1809 FILLER_30_97
*1810 FILLER_31_113
*1811 FILLER_31_116
*1812 FILLER_31_119
*1813 FILLER_31_122
*1814 FILLER_31_125
*1815 FILLER_31_128
*1816 FILLER_31_131
*1817 FILLER_31_134
*1818 FILLER_31_137
*1819 FILLER_31_140
*1820 FILLER_31_143
*1821 FILLER_31_146
*1822 FILLER_31_149
*1823 FILLER_31_15
*1824 FILLER_31_178
*1825 FILLER_31_181
*1826 FILLER_31_184
*1827 FILLER_31_187
*1828 FILLER_31_190
*1829 FILLER_31_193
*1830 FILLER_31_200
*1831 FILLER_31_208
*1832 FILLER_31_225
*1833 FILLER_31_281
*1834 FILLER_31_35
*1835 FILLER_31_38
*1836 FILLER_31_41
*1837 FILLER_31_44
*1838 FILLER_31_51
*1839 FILLER_31_54
*1840 FILLER_31_57
*1841 FILLER_31_6
*1842 FILLER_31_60
*1843 FILLER_31_63
*1844 FILLER_31_66
*1845 FILLER_31_69
*1846 FILLER_31_72
*1847 FILLER_31_75
*1848 FILLER_31_78
*1849 FILLER_31_81
*1850 FILLER_31_84
*1851 FILLER_31_87
*1852 FILLER_31_9
*1853 FILLER_31_90
*1854 FILLER_31_93
*1855 FILLER_31_96
*1856 FILLER_31_99
*1857 FILLER_32_112
*1858 FILLER_32_115
*1859 FILLER_32_118
*1860 FILLER_32_121
*1861 FILLER_32_124
*1862 FILLER_32_127
*1863 FILLER_32_130
*1864 FILLER_32_133
*1865 FILLER_32_136
*1866 FILLER_32_139
*1867 FILLER_32_141
*1868 FILLER_32_144
*1869 FILLER_32_185
*1870 FILLER_32_188
*1871 FILLER_32_209
*1872 FILLER_32_212
*1873 FILLER_32_215
*1874 FILLER_32_26
*1875 FILLER_32_274
*1876 FILLER_32_29
*1877 FILLER_32_48
*1878 FILLER_32_83
*1879 FILLER_32_85
*1880 FILLER_32_88
*1881 FILLER_32_91
*1882 FILLER_32_94
*1883 FILLER_33_107
*1884 FILLER_33_110
*1885 FILLER_33_113
*1886 FILLER_33_131
*1887 FILLER_33_134
*1888 FILLER_33_137
*1889 FILLER_33_160
*1890 FILLER_33_163
*1891 FILLER_33_166
*1892 FILLER_33_169
*1893 FILLER_33_172
*1894 FILLER_33_175
*1895 FILLER_33_178
*1896 FILLER_33_181
*1897 FILLER_33_184
*1898 FILLER_33_201
*1899 FILLER_33_215
*1900 FILLER_33_218
*1901 FILLER_33_221
*1902 FILLER_33_225
*1903 FILLER_33_228
*1904 FILLER_33_231
*1905 FILLER_33_234
*1906 FILLER_33_238
*1907 FILLER_33_241
*1908 FILLER_33_244
*1909 FILLER_33_247
*1910 FILLER_33_250
*1911 FILLER_33_253
*1912 FILLER_33_256
*1913 FILLER_33_279
*1914 FILLER_33_281
*1915 FILLER_33_291
*1916 FILLER_33_50
*1917 FILLER_33_69
*1918 FILLER_34_141
*1919 FILLER_34_164
*1920 FILLER_34_167
*1921 FILLER_34_179
*1922 FILLER_34_197
*1923 FILLER_34_207
*1924 FILLER_34_210
*1925 FILLER_34_213
*1926 FILLER_34_216
*1927 FILLER_34_219
*1928 FILLER_34_222
*1929 FILLER_34_233
*1930 FILLER_34_236
*1931 FILLER_34_239
*1932 FILLER_34_242
*1933 FILLER_34_245
*1934 FILLER_34_248
*1935 FILLER_34_251
*1936 FILLER_34_253
*1937 FILLER_34_256
*1938 FILLER_34_259
*1939 FILLER_34_262
*1940 FILLER_34_265
*1941 FILLER_34_268
*1942 FILLER_34_291
*1943 FILLER_34_294
*1944 FILLER_34_9
*1945 FILLER_34_94
*1946 FILLER_35_113
*1947 FILLER_35_116
*1948 FILLER_35_135
*1949 FILLER_35_138
*1950 FILLER_35_141
*1951 FILLER_35_144
*1952 FILLER_35_147
*1953 FILLER_35_150
*1954 FILLER_35_160
*1955 FILLER_35_163
*1956 FILLER_35_192
*1957 FILLER_35_212
*1958 FILLER_35_215
*1959 FILLER_35_218
*1960 FILLER_35_221
*1961 FILLER_35_225
*1962 FILLER_35_228
*1963 FILLER_35_231
*1964 FILLER_35_234
*1965 FILLER_35_237
*1966 FILLER_35_259
*1967 FILLER_35_262
*1968 FILLER_35_265
*1969 FILLER_35_279
*1970 FILLER_35_281
*1971 FILLER_35_292
*1972 FILLER_35_295
*1973 FILLER_35_3
*1974 FILLER_35_38
*1975 FILLER_35_41
*1976 FILLER_35_44
*1977 FILLER_35_47
*1978 FILLER_35_50
*1979 FILLER_35_53
*1980 FILLER_35_6
*1981 FILLER_35_66
*1982 FILLER_35_69
*1983 FILLER_35_88
*1984 FILLER_35_91
*1985 FILLER_35_94
*1986 FILLER_36_11
*1987 FILLER_36_124
*1988 FILLER_36_127
*1989 FILLER_36_130
*1990 FILLER_36_133
*1991 FILLER_36_136
*1992 FILLER_36_139
*1993 FILLER_36_14
*1994 FILLER_36_141
*1995 FILLER_36_144
*1996 FILLER_36_148
*1997 FILLER_36_151
*1998 FILLER_36_154
*1999 FILLER_36_157
*2000 FILLER_36_17
*2001 FILLER_36_176
*2002 FILLER_36_179
*2003 FILLER_36_182
*2004 FILLER_36_185
*2005 FILLER_36_207
*2006 FILLER_36_210
*2007 FILLER_36_213
*2008 FILLER_36_233
*2009 FILLER_36_236
*2010 FILLER_36_239
*2011 FILLER_36_242
*2012 FILLER_36_245
*2013 FILLER_36_258
*2014 FILLER_36_261
*2015 FILLER_36_264
*2016 FILLER_36_277
*2017 FILLER_36_280
*2018 FILLER_36_283
*2019 FILLER_36_286
*2020 FILLER_36_289
*2021 FILLER_36_29
*2022 FILLER_36_292
*2023 FILLER_36_295
*2024 FILLER_36_34
*2025 FILLER_36_37
*2026 FILLER_36_40
*2027 FILLER_36_43
*2028 FILLER_36_46
*2029 FILLER_36_49
*2030 FILLER_36_52
*2031 FILLER_36_66
*2032 FILLER_36_69
*2033 FILLER_36_72
*2034 FILLER_36_75
*2035 FILLER_36_78
*2036 FILLER_36_81
*2037 FILLER_36_85
*2038 FILLER_36_88
*2039 FILLER_36_91
*2040 FILLER_36_94
*2041 FILLER_36_97
*2042 FILLER_37_105
*2043 FILLER_37_108
*2044 FILLER_37_111
*2045 FILLER_37_113
*2046 FILLER_37_149
*2047 FILLER_37_169
*2048 FILLER_37_172
*2049 FILLER_37_175
*2050 FILLER_37_178
*2051 FILLER_37_18
*2052 FILLER_37_181
*2053 FILLER_37_184
*2054 FILLER_37_187
*2055 FILLER_37_207
*2056 FILLER_37_21
*2057 FILLER_37_210
*2058 FILLER_37_213
*2059 FILLER_37_225
*2060 FILLER_37_232
*2061 FILLER_37_235
*2062 FILLER_37_238
*2063 FILLER_37_241
*2064 FILLER_37_244
*2065 FILLER_37_247
*2066 FILLER_37_260
*2067 FILLER_37_263
*2068 FILLER_37_272
*2069 FILLER_37_281
*2070 FILLER_37_293
*2071 FILLER_37_3
*2072 FILLER_37_49
*2073 FILLER_37_52
*2074 FILLER_37_55
*2075 FILLER_37_57
*2076 FILLER_37_6
*2077 FILLER_37_71
*2078 FILLER_37_74
*2079 FILLER_37_77
*2080 FILLER_37_80
*2081 FILLER_37_83
*2082 FILLER_37_86
*2083 FILLER_38_112
*2084 FILLER_38_125
*2085 FILLER_38_128
*2086 FILLER_38_181
*2087 FILLER_38_184
*2088 FILLER_38_187
*2089 FILLER_38_197
*2090 FILLER_38_200
*2091 FILLER_38_203
*2092 FILLER_38_206
*2093 FILLER_38_209
*2094 FILLER_38_212
*2095 FILLER_38_215
*2096 FILLER_38_218
*2097 FILLER_38_237
*2098 FILLER_38_240
*2099 FILLER_38_243
*2100 FILLER_38_246
*2101 FILLER_38_249
*2102 FILLER_38_26
*2103 FILLER_38_264
*2104 FILLER_38_274
*2105 FILLER_38_277
*2106 FILLER_38_288
*2107 FILLER_38_291
*2108 FILLER_38_294
*2109 FILLER_38_3
*2110 FILLER_38_46
*2111 FILLER_38_49
*2112 FILLER_38_52
*2113 FILLER_38_79
*2114 FILLER_38_82
*2115 FILLER_38_85
*2116 FILLER_39_109
*2117 FILLER_39_122
*2118 FILLER_39_125
*2119 FILLER_39_128
*2120 FILLER_39_131
*2121 FILLER_39_134
*2122 FILLER_39_137
*2123 FILLER_39_140
*2124 FILLER_39_169
*2125 FILLER_39_172
*2126 FILLER_39_175
*2127 FILLER_39_178
*2128 FILLER_39_181
*2129 FILLER_39_184
*2130 FILLER_39_215
*2131 FILLER_39_218
*2132 FILLER_39_22
*2133 FILLER_39_221
*2134 FILLER_39_225
*2135 FILLER_39_245
*2136 FILLER_39_248
*2137 FILLER_39_25
*2138 FILLER_39_251
*2139 FILLER_39_254
*2140 FILLER_39_277
*2141 FILLER_39_286
*2142 FILLER_39_289
*2143 FILLER_39_292
*2144 FILLER_39_295
*2145 FILLER_39_3
*2146 FILLER_39_60
*2147 FILLER_39_82
*2148 FILLER_39_85
*2149 FILLER_3_101
*2150 FILLER_3_104
*2151 FILLER_3_107
*2152 FILLER_3_119
*2153 FILLER_3_143
*2154 FILLER_3_146
*2155 FILLER_3_210
*2156 FILLER_3_221
*2157 FILLER_3_231
*2158 FILLER_3_234
*2159 FILLER_3_248
*2160 FILLER_3_251
*2161 FILLER_3_254
*2162 FILLER_3_257
*2163 FILLER_3_260
*2164 FILLER_3_273
*2165 FILLER_3_276
*2166 FILLER_3_279
*2167 FILLER_3_281
*2168 FILLER_3_284
*2169 FILLER_3_287
*2170 FILLER_3_290
*2171 FILLER_3_293
*2172 FILLER_3_3
*2173 FILLER_3_55
*2174 FILLER_3_57
*2175 FILLER_3_6
*2176 FILLER_3_60
*2177 FILLER_3_71
*2178 FILLER_3_9
*2179 FILLER_3_95
*2180 FILLER_3_98
*2181 FILLER_40_135
*2182 FILLER_40_138
*2183 FILLER_40_141
*2184 FILLER_40_144
*2185 FILLER_40_147
*2186 FILLER_40_150
*2187 FILLER_40_153
*2188 FILLER_40_156
*2189 FILLER_40_165
*2190 FILLER_40_168
*2191 FILLER_40_171
*2192 FILLER_40_174
*2193 FILLER_40_177
*2194 FILLER_40_214
*2195 FILLER_40_238
*2196 FILLER_40_241
*2197 FILLER_40_244
*2198 FILLER_40_247
*2199 FILLER_40_250
*2200 FILLER_40_253
*2201 FILLER_40_256
*2202 FILLER_40_278
*2203 FILLER_40_281
*2204 FILLER_40_284
*2205 FILLER_40_287
*2206 FILLER_40_290
*2207 FILLER_40_293
*2208 FILLER_40_3
*2209 FILLER_40_32
*2210 FILLER_40_35
*2211 FILLER_40_38
*2212 FILLER_40_6
*2213 FILLER_40_79
*2214 FILLER_40_82
*2215 FILLER_40_85
*2216 FILLER_41_107
*2217 FILLER_41_11
*2218 FILLER_41_113
*2219 FILLER_41_116
*2220 FILLER_41_119
*2221 FILLER_41_14
*2222 FILLER_41_157
*2223 FILLER_41_160
*2224 FILLER_41_163
*2225 FILLER_41_166
*2226 FILLER_41_169
*2227 FILLER_41_17
*2228 FILLER_41_172
*2229 FILLER_41_175
*2230 FILLER_41_178
*2231 FILLER_41_181
*2232 FILLER_41_212
*2233 FILLER_41_225
*2234 FILLER_41_232
*2235 FILLER_41_235
*2236 FILLER_41_238
*2237 FILLER_41_241
*2238 FILLER_41_244
*2239 FILLER_41_26
*2240 FILLER_41_281
*2241 FILLER_41_284
*2242 FILLER_41_287
*2243 FILLER_41_29
*2244 FILLER_41_290
*2245 FILLER_41_293
*2246 FILLER_41_32
*2247 FILLER_41_35
*2248 FILLER_41_38
*2249 FILLER_41_57
*2250 FILLER_41_60
*2251 FILLER_41_80
*2252 FILLER_41_83
*2253 FILLER_41_86
*2254 FILLER_41_89
*2255 FILLER_42_112
*2256 FILLER_42_12
*2257 FILLER_42_122
*2258 FILLER_42_125
*2259 FILLER_42_141
*2260 FILLER_42_15
*2261 FILLER_42_151
*2262 FILLER_42_154
*2263 FILLER_42_157
*2264 FILLER_42_176
*2265 FILLER_42_179
*2266 FILLER_42_18
*2267 FILLER_42_182
*2268 FILLER_42_185
*2269 FILLER_42_188
*2270 FILLER_42_191
*2271 FILLER_42_194
*2272 FILLER_42_197
*2273 FILLER_42_21
*2274 FILLER_42_211
*2275 FILLER_42_214
*2276 FILLER_42_24
*2277 FILLER_42_242
*2278 FILLER_42_245
*2279 FILLER_42_248
*2280 FILLER_42_251
*2281 FILLER_42_253
*2282 FILLER_42_256
*2283 FILLER_42_259
*2284 FILLER_42_27
*2285 FILLER_42_279
*2286 FILLER_42_282
*2287 FILLER_42_285
*2288 FILLER_42_288
*2289 FILLER_42_29
*2290 FILLER_42_291
*2291 FILLER_42_294
*2292 FILLER_42_3
*2293 FILLER_42_32
*2294 FILLER_42_35
*2295 FILLER_42_38
*2296 FILLER_42_41
*2297 FILLER_42_44
*2298 FILLER_42_6
*2299 FILLER_42_65
*2300 FILLER_42_77
*2301 FILLER_42_80
*2302 FILLER_42_83
*2303 FILLER_42_85
*2304 FILLER_42_88
*2305 FILLER_42_9
*2306 FILLER_42_91
*2307 FILLER_43_113
*2308 FILLER_43_116
*2309 FILLER_43_119
*2310 FILLER_43_122
*2311 FILLER_43_125
*2312 FILLER_43_140
*2313 FILLER_43_143
*2314 FILLER_43_146
*2315 FILLER_43_149
*2316 FILLER_43_172
*2317 FILLER_43_175
*2318 FILLER_43_178
*2319 FILLER_43_181
*2320 FILLER_43_184
*2321 FILLER_43_187
*2322 FILLER_43_20
*2323 FILLER_43_204
*2324 FILLER_43_221
*2325 FILLER_43_225
*2326 FILLER_43_229
*2327 FILLER_43_232
*2328 FILLER_43_235
*2329 FILLER_43_238
*2330 FILLER_43_241
*2331 FILLER_43_244
*2332 FILLER_43_247
*2333 FILLER_43_250
*2334 FILLER_43_253
*2335 FILLER_43_256
*2336 FILLER_43_259
*2337 FILLER_43_281
*2338 FILLER_43_284
*2339 FILLER_43_287
*2340 FILLER_43_290
*2341 FILLER_43_293
*2342 FILLER_43_3
*2343 FILLER_43_40
*2344 FILLER_43_43
*2345 FILLER_43_46
*2346 FILLER_43_52
*2347 FILLER_43_55
*2348 FILLER_43_57
*2349 FILLER_43_6
*2350 FILLER_43_60
*2351 FILLER_43_63
*2352 FILLER_43_66
*2353 FILLER_43_69
*2354 FILLER_43_72
*2355 FILLER_43_75
*2356 FILLER_43_78
*2357 FILLER_43_81
*2358 FILLER_43_84
*2359 FILLER_43_87
*2360 FILLER_43_90
*2361 FILLER_43_93
*2362 FILLER_43_96
*2363 FILLER_43_99
*2364 FILLER_44_101
*2365 FILLER_44_104
*2366 FILLER_44_116
*2367 FILLER_44_119
*2368 FILLER_44_122
*2369 FILLER_44_141
*2370 FILLER_44_144
*2371 FILLER_44_147
*2372 FILLER_44_183
*2373 FILLER_44_186
*2374 FILLER_44_189
*2375 FILLER_44_192
*2376 FILLER_44_195
*2377 FILLER_44_197
*2378 FILLER_44_200
*2379 FILLER_44_203
*2380 FILLER_44_22
*2381 FILLER_44_221
*2382 FILLER_44_224
*2383 FILLER_44_230
*2384 FILLER_44_242
*2385 FILLER_44_245
*2386 FILLER_44_248
*2387 FILLER_44_251
*2388 FILLER_44_253
*2389 FILLER_44_3
*2390 FILLER_44_38
*2391 FILLER_44_41
*2392 FILLER_44_51
*2393 FILLER_44_54
*2394 FILLER_44_57
*2395 FILLER_44_60
*2396 FILLER_44_83
*2397 FILLER_44_85
*2398 FILLER_44_88
*2399 FILLER_44_91
*2400 FILLER_45_113
*2401 FILLER_45_144
*2402 FILLER_45_147
*2403 FILLER_45_150
*2404 FILLER_45_153
*2405 FILLER_45_177
*2406 FILLER_45_180
*2407 FILLER_45_183
*2408 FILLER_45_225
*2409 FILLER_45_236
*2410 FILLER_45_239
*2411 FILLER_45_242
*2412 FILLER_45_245
*2413 FILLER_45_248
*2414 FILLER_45_251
*2415 FILLER_45_254
*2416 FILLER_45_257
*2417 FILLER_45_260
*2418 FILLER_45_278
*2419 FILLER_45_281
*2420 FILLER_45_284
*2421 FILLER_45_287
*2422 FILLER_45_3
*2423 FILLER_45_37
*2424 FILLER_45_40
*2425 FILLER_45_43
*2426 FILLER_45_46
*2427 FILLER_45_50
*2428 FILLER_45_53
*2429 FILLER_45_57
*2430 FILLER_45_6
*2431 FILLER_45_60
*2432 FILLER_45_73
*2433 FILLER_45_76
*2434 FILLER_46_129
*2435 FILLER_46_132
*2436 FILLER_46_135
*2437 FILLER_46_138
*2438 FILLER_46_141
*2439 FILLER_46_144
*2440 FILLER_46_147
*2441 FILLER_46_150
*2442 FILLER_46_153
*2443 FILLER_46_156
*2444 FILLER_46_159
*2445 FILLER_46_178
*2446 FILLER_46_181
*2447 FILLER_46_184
*2448 FILLER_46_187
*2449 FILLER_46_190
*2450 FILLER_46_193
*2451 FILLER_46_234
*2452 FILLER_46_24
*2453 FILLER_46_242
*2454 FILLER_46_261
*2455 FILLER_46_269
*2456 FILLER_46_27
*2457 FILLER_46_29
*2458 FILLER_46_291
*2459 FILLER_46_3
*2460 FILLER_46_32
*2461 FILLER_46_50
*2462 FILLER_46_6
*2463 FILLER_46_78
*2464 FILLER_46_85
*2465 FILLER_46_88
*2466 FILLER_47_121
*2467 FILLER_47_148
*2468 FILLER_47_187
*2469 FILLER_47_190
*2470 FILLER_47_212
*2471 FILLER_47_225
*2472 FILLER_47_281
*2473 FILLER_47_3
*2474 FILLER_47_6
*2475 FILLER_47_77
*2476 FILLER_47_80
*2477 FILLER_47_83
*2478 FILLER_47_9
*2479 FILLER_48_11
*2480 FILLER_48_120
*2481 FILLER_48_123
*2482 FILLER_48_126
*2483 FILLER_48_141
*2484 FILLER_48_144
*2485 FILLER_48_147
*2486 FILLER_48_150
*2487 FILLER_48_153
*2488 FILLER_48_156
*2489 FILLER_48_179
*2490 FILLER_48_182
*2491 FILLER_48_185
*2492 FILLER_48_188
*2493 FILLER_48_191
*2494 FILLER_48_194
*2495 FILLER_48_226
*2496 FILLER_48_229
*2497 FILLER_48_232
*2498 FILLER_48_235
*2499 FILLER_48_238
*2500 FILLER_48_245
*2501 FILLER_48_248
*2502 FILLER_48_251
*2503 FILLER_48_253
*2504 FILLER_48_256
*2505 FILLER_48_259
*2506 FILLER_48_26
*2507 FILLER_48_262
*2508 FILLER_48_265
*2509 FILLER_48_268
*2510 FILLER_48_271
*2511 FILLER_48_29
*2512 FILLER_48_32
*2513 FILLER_48_35
*2514 FILLER_48_38
*2515 FILLER_48_75
*2516 FILLER_48_78
*2517 FILLER_48_81
*2518 FILLER_48_85
*2519 FILLER_48_97
*2520 FILLER_49_101
*2521 FILLER_49_113
*2522 FILLER_49_116
*2523 FILLER_49_119
*2524 FILLER_49_12
*2525 FILLER_49_122
*2526 FILLER_49_125
*2527 FILLER_49_128
*2528 FILLER_49_144
*2529 FILLER_49_147
*2530 FILLER_49_15
*2531 FILLER_49_150
*2532 FILLER_49_159
*2533 FILLER_49_162
*2534 FILLER_49_169
*2535 FILLER_49_172
*2536 FILLER_49_175
*2537 FILLER_49_178
*2538 FILLER_49_18
*2539 FILLER_49_181
*2540 FILLER_49_184
*2541 FILLER_49_187
*2542 FILLER_49_190
*2543 FILLER_49_193
*2544 FILLER_49_21
*2545 FILLER_49_213
*2546 FILLER_49_216
*2547 FILLER_49_219
*2548 FILLER_49_222
*2549 FILLER_49_225
*2550 FILLER_49_228
*2551 FILLER_49_231
*2552 FILLER_49_234
*2553 FILLER_49_237
*2554 FILLER_49_24
*2555 FILLER_49_240
*2556 FILLER_49_251
*2557 FILLER_49_253
*2558 FILLER_49_256
*2559 FILLER_49_259
*2560 FILLER_49_262
*2561 FILLER_49_265
*2562 FILLER_49_268
*2563 FILLER_49_27
*2564 FILLER_49_271
*2565 FILLER_49_274
*2566 FILLER_49_277
*2567 FILLER_49_281
*2568 FILLER_49_284
*2569 FILLER_49_287
*2570 FILLER_49_29
*2571 FILLER_49_3
*2572 FILLER_49_32
*2573 FILLER_49_35
*2574 FILLER_49_38
*2575 FILLER_49_41
*2576 FILLER_49_44
*2577 FILLER_49_47
*2578 FILLER_49_50
*2579 FILLER_49_53
*2580 FILLER_49_57
*2581 FILLER_49_6
*2582 FILLER_49_60
*2583 FILLER_49_63
*2584 FILLER_49_66
*2585 FILLER_49_69
*2586 FILLER_49_72
*2587 FILLER_49_75
*2588 FILLER_49_78
*2589 FILLER_49_81
*2590 FILLER_49_85
*2591 FILLER_49_88
*2592 FILLER_49_9
*2593 FILLER_4_100
*2594 FILLER_4_12
*2595 FILLER_4_136
*2596 FILLER_4_139
*2597 FILLER_4_141
*2598 FILLER_4_144
*2599 FILLER_4_147
*2600 FILLER_4_150
*2601 FILLER_4_153
*2602 FILLER_4_188
*2603 FILLER_4_197
*2604 FILLER_4_200
*2605 FILLER_4_210
*2606 FILLER_4_213
*2607 FILLER_4_216
*2608 FILLER_4_219
*2609 FILLER_4_222
*2610 FILLER_4_225
*2611 FILLER_4_228
*2612 FILLER_4_231
*2613 FILLER_4_234
*2614 FILLER_4_242
*2615 FILLER_4_245
*2616 FILLER_4_248
*2617 FILLER_4_251
*2618 FILLER_4_258
*2619 FILLER_4_261
*2620 FILLER_4_29
*2621 FILLER_4_3
*2622 FILLER_4_32
*2623 FILLER_4_35
*2624 FILLER_4_38
*2625 FILLER_4_41
*2626 FILLER_4_51
*2627 FILLER_4_54
*2628 FILLER_4_57
*2629 FILLER_4_6
*2630 FILLER_4_60
*2631 FILLER_4_63
*2632 FILLER_4_66
*2633 FILLER_4_69
*2634 FILLER_4_72
*2635 FILLER_4_9
*2636 FILLER_4_94
*2637 FILLER_4_97
*2638 FILLER_5_102
*2639 FILLER_5_105
*2640 FILLER_5_12
*2641 FILLER_5_133
*2642 FILLER_5_136
*2643 FILLER_5_139
*2644 FILLER_5_142
*2645 FILLER_5_145
*2646 FILLER_5_148
*2647 FILLER_5_15
*2648 FILLER_5_151
*2649 FILLER_5_154
*2650 FILLER_5_157
*2651 FILLER_5_18
*2652 FILLER_5_186
*2653 FILLER_5_189
*2654 FILLER_5_192
*2655 FILLER_5_195
*2656 FILLER_5_21
*2657 FILLER_5_233
*2658 FILLER_5_24
*2659 FILLER_5_249
*2660 FILLER_5_252
*2661 FILLER_5_255
*2662 FILLER_5_258
*2663 FILLER_5_261
*2664 FILLER_5_264
*2665 FILLER_5_267
*2666 FILLER_5_27
*2667 FILLER_5_270
*2668 FILLER_5_273
*2669 FILLER_5_276
*2670 FILLER_5_279
*2671 FILLER_5_281
*2672 FILLER_5_284
*2673 FILLER_5_287
*2674 FILLER_5_290
*2675 FILLER_5_293
*2676 FILLER_5_3
*2677 FILLER_5_30
*2678 FILLER_5_33
*2679 FILLER_5_36
*2680 FILLER_5_39
*2681 FILLER_5_42
*2682 FILLER_5_45
*2683 FILLER_5_48
*2684 FILLER_5_51
*2685 FILLER_5_54
*2686 FILLER_5_57
*2687 FILLER_5_6
*2688 FILLER_5_60
*2689 FILLER_5_63
*2690 FILLER_5_66
*2691 FILLER_5_69
*2692 FILLER_5_72
*2693 FILLER_5_75
*2694 FILLER_5_78
*2695 FILLER_5_81
*2696 FILLER_5_84
*2697 FILLER_5_87
*2698 FILLER_5_9
*2699 FILLER_5_90
*2700 FILLER_5_93
*2701 FILLER_5_96
*2702 FILLER_5_99
*2703 FILLER_6_100
*2704 FILLER_6_103
*2705 FILLER_6_106
*2706 FILLER_6_109
*2707 FILLER_6_112
*2708 FILLER_6_12
*2709 FILLER_6_123
*2710 FILLER_6_136
*2711 FILLER_6_139
*2712 FILLER_6_141
*2713 FILLER_6_144
*2714 FILLER_6_147
*2715 FILLER_6_15
*2716 FILLER_6_163
*2717 FILLER_6_166
*2718 FILLER_6_18
*2719 FILLER_6_182
*2720 FILLER_6_185
*2721 FILLER_6_188
*2722 FILLER_6_191
*2723 FILLER_6_194
*2724 FILLER_6_197
*2725 FILLER_6_201
*2726 FILLER_6_21
*2727 FILLER_6_231
*2728 FILLER_6_234
*2729 FILLER_6_24
*2730 FILLER_6_244
*2731 FILLER_6_247
*2732 FILLER_6_250
*2733 FILLER_6_253
*2734 FILLER_6_256
*2735 FILLER_6_27
*2736 FILLER_6_272
*2737 FILLER_6_29
*2738 FILLER_6_3
*2739 FILLER_6_32
*2740 FILLER_6_35
*2741 FILLER_6_38
*2742 FILLER_6_41
*2743 FILLER_6_44
*2744 FILLER_6_6
*2745 FILLER_6_64
*2746 FILLER_6_67
*2747 FILLER_6_83
*2748 FILLER_6_85
*2749 FILLER_6_88
*2750 FILLER_6_9
*2751 FILLER_7_106
*2752 FILLER_7_109
*2753 FILLER_7_113
*2754 FILLER_7_116
*2755 FILLER_7_119
*2756 FILLER_7_12
*2757 FILLER_7_122
*2758 FILLER_7_136
*2759 FILLER_7_139
*2760 FILLER_7_142
*2761 FILLER_7_15
*2762 FILLER_7_167
*2763 FILLER_7_172
*2764 FILLER_7_18
*2765 FILLER_7_185
*2766 FILLER_7_188
*2767 FILLER_7_191
*2768 FILLER_7_194
*2769 FILLER_7_218
*2770 FILLER_7_221
*2771 FILLER_7_225
*2772 FILLER_7_228
*2773 FILLER_7_231
*2774 FILLER_7_234
*2775 FILLER_7_237
*2776 FILLER_7_261
*2777 FILLER_7_264
*2778 FILLER_7_267
*2779 FILLER_7_281
*2780 FILLER_7_284
*2781 FILLER_7_3
*2782 FILLER_7_36
*2783 FILLER_7_39
*2784 FILLER_7_42
*2785 FILLER_7_45
*2786 FILLER_7_6
*2787 FILLER_7_66
*2788 FILLER_7_84
*2789 FILLER_7_9
*2790 FILLER_8_103
*2791 FILLER_8_106
*2792 FILLER_8_109
*2793 FILLER_8_112
*2794 FILLER_8_150
*2795 FILLER_8_190
*2796 FILLER_8_193
*2797 FILLER_8_197
*2798 FILLER_8_21
*2799 FILLER_8_211
*2800 FILLER_8_214
*2801 FILLER_8_222
*2802 FILLER_8_225
*2803 FILLER_8_228
*2804 FILLER_8_231
*2805 FILLER_8_234
*2806 FILLER_8_237
*2807 FILLER_8_240
*2808 FILLER_8_250
*2809 FILLER_8_253
*2810 FILLER_8_256
*2811 FILLER_8_262
*2812 FILLER_8_27
*2813 FILLER_8_286
*2814 FILLER_8_289
*2815 FILLER_8_3
*2816 FILLER_8_6
*2817 FILLER_8_61
*2818 FILLER_9_100
*2819 FILLER_9_103
*2820 FILLER_9_106
*2821 FILLER_9_113
*2822 FILLER_9_187
*2823 FILLER_9_190
*2824 FILLER_9_193
*2825 FILLER_9_196
*2826 FILLER_9_215
*2827 FILLER_9_218
*2828 FILLER_9_221
*2829 FILLER_9_225
*2830 FILLER_9_228
*2831 FILLER_9_23
*2832 FILLER_9_231
*2833 FILLER_9_234
*2834 FILLER_9_237
*2835 FILLER_9_240
*2836 FILLER_9_249
*2837 FILLER_9_252
*2838 FILLER_9_255
*2839 FILLER_9_258
*2840 FILLER_9_26
*2841 FILLER_9_261
*2842 FILLER_9_264
*2843 FILLER_9_281
*2844 FILLER_9_284
*2845 FILLER_9_287
*2846 FILLER_9_29
*2847 FILLER_9_290
*2848 FILLER_9_293
*2849 FILLER_9_3
*2850 FILLER_9_60
*2851 FILLER_9_63
*2852 FILLER_9_66
*2853 FILLER_9_69
*2854 FILLER_9_94
*2855 FILLER_9_97
*2856 PHY_EDGE_ROW_0_Left_50
*2857 PHY_EDGE_ROW_0_Right_0
*2858 PHY_EDGE_ROW_10_Left_60
*2859 PHY_EDGE_ROW_10_Right_10
*2860 PHY_EDGE_ROW_11_Left_61
*2861 PHY_EDGE_ROW_11_Right_11
*2862 PHY_EDGE_ROW_12_Left_62
*2863 PHY_EDGE_ROW_12_Right_12
*2864 PHY_EDGE_ROW_13_Left_63
*2865 PHY_EDGE_ROW_13_Right_13
*2866 PHY_EDGE_ROW_14_Left_64
*2867 PHY_EDGE_ROW_14_Right_14
*2868 PHY_EDGE_ROW_15_Left_65
*2869 PHY_EDGE_ROW_15_Right_15
*2870 PHY_EDGE_ROW_16_Left_66
*2871 PHY_EDGE_ROW_16_Right_16
*2872 PHY_EDGE_ROW_17_Left_67
*2873 PHY_EDGE_ROW_17_Right_17
*2874 PHY_EDGE_ROW_18_Left_68
*2875 PHY_EDGE_ROW_18_Right_18
*2876 PHY_EDGE_ROW_19_Left_69
*2877 PHY_EDGE_ROW_19_Right_19
*2878 PHY_EDGE_ROW_1_Left_51
*2879 PHY_EDGE_ROW_1_Right_1
*2880 PHY_EDGE_ROW_20_Left_70
*2881 PHY_EDGE_ROW_20_Right_20
*2882 PHY_EDGE_ROW_21_Left_71
*2883 PHY_EDGE_ROW_21_Right_21
*2884 PHY_EDGE_ROW_22_Left_72
*2885 PHY_EDGE_ROW_22_Right_22
*2886 PHY_EDGE_ROW_23_Left_73
*2887 PHY_EDGE_ROW_23_Right_23
*2888 PHY_EDGE_ROW_24_Left_74
*2889 PHY_EDGE_ROW_24_Right_24
*2890 PHY_EDGE_ROW_25_Left_75
*2891 PHY_EDGE_ROW_25_Right_25
*2892 PHY_EDGE_ROW_26_Left_76
*2893 PHY_EDGE_ROW_26_Right_26
*2894 PHY_EDGE_ROW_27_Left_77
*2895 PHY_EDGE_ROW_27_Right_27
*2896 PHY_EDGE_ROW_28_Left_78
*2897 PHY_EDGE_ROW_28_Right_28
*2898 PHY_EDGE_ROW_29_Left_79
*2899 PHY_EDGE_ROW_29_Right_29
*2900 PHY_EDGE_ROW_2_Left_52
*2901 PHY_EDGE_ROW_2_Right_2
*2902 PHY_EDGE_ROW_30_Left_80
*2903 PHY_EDGE_ROW_30_Right_30
*2904 PHY_EDGE_ROW_31_Left_81
*2905 PHY_EDGE_ROW_31_Right_31
*2906 PHY_EDGE_ROW_32_Left_82
*2907 PHY_EDGE_ROW_32_Right_32
*2908 PHY_EDGE_ROW_33_Left_83
*2909 PHY_EDGE_ROW_33_Right_33
*2910 PHY_EDGE_ROW_34_Left_84
*2911 PHY_EDGE_ROW_34_Right_34
*2912 PHY_EDGE_ROW_35_Left_85
*2913 PHY_EDGE_ROW_35_Right_35
*2914 PHY_EDGE_ROW_36_Left_86
*2915 PHY_EDGE_ROW_36_Right_36
*2916 PHY_EDGE_ROW_37_Left_87
*2917 PHY_EDGE_ROW_37_Right_37
*2918 PHY_EDGE_ROW_38_Left_88
*2919 PHY_EDGE_ROW_38_Right_38
*2920 PHY_EDGE_ROW_39_Left_89
*2921 PHY_EDGE_ROW_39_Right_39
*2922 PHY_EDGE_ROW_3_Left_53
*2923 PHY_EDGE_ROW_3_Right_3
*2924 PHY_EDGE_ROW_40_Left_90
*2925 PHY_EDGE_ROW_40_Right_40
*2926 PHY_EDGE_ROW_41_Left_91
*2927 PHY_EDGE_ROW_41_Right_41
*2928 PHY_EDGE_ROW_42_Left_92
*2929 PHY_EDGE_ROW_42_Right_42
*2930 PHY_EDGE_ROW_43_Left_93
*2931 PHY_EDGE_ROW_43_Right_43
*2932 PHY_EDGE_ROW_44_Left_94
*2933 PHY_EDGE_ROW_44_Right_44
*2934 PHY_EDGE_ROW_45_Left_95
*2935 PHY_EDGE_ROW_45_Right_45
*2936 PHY_EDGE_ROW_46_Left_96
*2937 PHY_EDGE_ROW_46_Right_46
*2938 PHY_EDGE_ROW_47_Left_97
*2939 PHY_EDGE_ROW_47_Right_47
*2940 PHY_EDGE_ROW_48_Left_98
*2941 PHY_EDGE_ROW_48_Right_48
*2942 PHY_EDGE_ROW_49_Left_99
*2943 PHY_EDGE_ROW_49_Right_49
*2944 PHY_EDGE_ROW_4_Left_54
*2945 PHY_EDGE_ROW_4_Right_4
*2946 PHY_EDGE_ROW_5_Left_55
*2947 PHY_EDGE_ROW_5_Right_5
*2948 PHY_EDGE_ROW_6_Left_56
*2949 PHY_EDGE_ROW_6_Right_6
*2950 PHY_EDGE_ROW_7_Left_57
*2951 PHY_EDGE_ROW_7_Right_7
*2952 PHY_EDGE_ROW_8_Left_58
*2953 PHY_EDGE_ROW_8_Right_8
*2954 PHY_EDGE_ROW_9_Left_59
*2955 PHY_EDGE_ROW_9_Right_9
*2956 TAP_TAPCELL_ROW_0_100
*2957 TAP_TAPCELL_ROW_0_101
*2958 TAP_TAPCELL_ROW_0_102
*2959 TAP_TAPCELL_ROW_0_103
*2960 TAP_TAPCELL_ROW_0_104
*2961 TAP_TAPCELL_ROW_0_105
*2962 TAP_TAPCELL_ROW_0_106
*2963 TAP_TAPCELL_ROW_0_107
*2964 TAP_TAPCELL_ROW_0_108
*2965 TAP_TAPCELL_ROW_0_109
*2966 TAP_TAPCELL_ROW_10_155
*2967 TAP_TAPCELL_ROW_10_156
*2968 TAP_TAPCELL_ROW_10_157
*2969 TAP_TAPCELL_ROW_10_158
*2970 TAP_TAPCELL_ROW_10_159
*2971 TAP_TAPCELL_ROW_11_160
*2972 TAP_TAPCELL_ROW_11_161
*2973 TAP_TAPCELL_ROW_11_162
*2974 TAP_TAPCELL_ROW_11_163
*2975 TAP_TAPCELL_ROW_11_164
*2976 TAP_TAPCELL_ROW_12_165
*2977 TAP_TAPCELL_ROW_12_166
*2978 TAP_TAPCELL_ROW_12_167
*2979 TAP_TAPCELL_ROW_12_168
*2980 TAP_TAPCELL_ROW_12_169
*2981 TAP_TAPCELL_ROW_13_170
*2982 TAP_TAPCELL_ROW_13_171
*2983 TAP_TAPCELL_ROW_13_172
*2984 TAP_TAPCELL_ROW_13_173
*2985 TAP_TAPCELL_ROW_13_174
*2986 TAP_TAPCELL_ROW_14_175
*2987 TAP_TAPCELL_ROW_14_176
*2988 TAP_TAPCELL_ROW_14_177
*2989 TAP_TAPCELL_ROW_14_178
*2990 TAP_TAPCELL_ROW_14_179
*2991 TAP_TAPCELL_ROW_15_180
*2992 TAP_TAPCELL_ROW_15_181
*2993 TAP_TAPCELL_ROW_15_182
*2994 TAP_TAPCELL_ROW_15_183
*2995 TAP_TAPCELL_ROW_15_184
*2996 TAP_TAPCELL_ROW_16_185
*2997 TAP_TAPCELL_ROW_16_186
*2998 TAP_TAPCELL_ROW_16_187
*2999 TAP_TAPCELL_ROW_16_188
*3000 TAP_TAPCELL_ROW_16_189
*3001 TAP_TAPCELL_ROW_17_190
*3002 TAP_TAPCELL_ROW_17_191
*3003 TAP_TAPCELL_ROW_17_192
*3004 TAP_TAPCELL_ROW_17_193
*3005 TAP_TAPCELL_ROW_17_194
*3006 TAP_TAPCELL_ROW_18_195
*3007 TAP_TAPCELL_ROW_18_196
*3008 TAP_TAPCELL_ROW_18_197
*3009 TAP_TAPCELL_ROW_18_198
*3010 TAP_TAPCELL_ROW_18_199
*3011 TAP_TAPCELL_ROW_19_200
*3012 TAP_TAPCELL_ROW_19_201
*3013 TAP_TAPCELL_ROW_19_202
*3014 TAP_TAPCELL_ROW_19_203
*3015 TAP_TAPCELL_ROW_19_204
*3016 TAP_TAPCELL_ROW_1_110
*3017 TAP_TAPCELL_ROW_1_111
*3018 TAP_TAPCELL_ROW_1_112
*3019 TAP_TAPCELL_ROW_1_113
*3020 TAP_TAPCELL_ROW_1_114
*3021 TAP_TAPCELL_ROW_20_205
*3022 TAP_TAPCELL_ROW_20_206
*3023 TAP_TAPCELL_ROW_20_207
*3024 TAP_TAPCELL_ROW_20_208
*3025 TAP_TAPCELL_ROW_20_209
*3026 TAP_TAPCELL_ROW_21_210
*3027 TAP_TAPCELL_ROW_21_211
*3028 TAP_TAPCELL_ROW_21_212
*3029 TAP_TAPCELL_ROW_21_213
*3030 TAP_TAPCELL_ROW_21_214
*3031 TAP_TAPCELL_ROW_22_215
*3032 TAP_TAPCELL_ROW_22_216
*3033 TAP_TAPCELL_ROW_22_217
*3034 TAP_TAPCELL_ROW_22_218
*3035 TAP_TAPCELL_ROW_22_219
*3036 TAP_TAPCELL_ROW_23_220
*3037 TAP_TAPCELL_ROW_23_221
*3038 TAP_TAPCELL_ROW_23_222
*3039 TAP_TAPCELL_ROW_23_223
*3040 TAP_TAPCELL_ROW_23_224
*3041 TAP_TAPCELL_ROW_24_225
*3042 TAP_TAPCELL_ROW_24_226
*3043 TAP_TAPCELL_ROW_24_227
*3044 TAP_TAPCELL_ROW_24_228
*3045 TAP_TAPCELL_ROW_24_229
*3046 TAP_TAPCELL_ROW_25_230
*3047 TAP_TAPCELL_ROW_25_231
*3048 TAP_TAPCELL_ROW_25_232
*3049 TAP_TAPCELL_ROW_25_233
*3050 TAP_TAPCELL_ROW_25_234
*3051 TAP_TAPCELL_ROW_26_235
*3052 TAP_TAPCELL_ROW_26_236
*3053 TAP_TAPCELL_ROW_26_237
*3054 TAP_TAPCELL_ROW_26_238
*3055 TAP_TAPCELL_ROW_26_239
*3056 TAP_TAPCELL_ROW_27_240
*3057 TAP_TAPCELL_ROW_27_241
*3058 TAP_TAPCELL_ROW_27_242
*3059 TAP_TAPCELL_ROW_27_243
*3060 TAP_TAPCELL_ROW_27_244
*3061 TAP_TAPCELL_ROW_28_245
*3062 TAP_TAPCELL_ROW_28_246
*3063 TAP_TAPCELL_ROW_28_247
*3064 TAP_TAPCELL_ROW_28_248
*3065 TAP_TAPCELL_ROW_28_249
*3066 TAP_TAPCELL_ROW_29_250
*3067 TAP_TAPCELL_ROW_29_251
*3068 TAP_TAPCELL_ROW_29_252
*3069 TAP_TAPCELL_ROW_29_253
*3070 TAP_TAPCELL_ROW_29_254
*3071 TAP_TAPCELL_ROW_2_115
*3072 TAP_TAPCELL_ROW_2_116
*3073 TAP_TAPCELL_ROW_2_117
*3074 TAP_TAPCELL_ROW_2_118
*3075 TAP_TAPCELL_ROW_2_119
*3076 TAP_TAPCELL_ROW_30_255
*3077 TAP_TAPCELL_ROW_30_256
*3078 TAP_TAPCELL_ROW_30_257
*3079 TAP_TAPCELL_ROW_30_258
*3080 TAP_TAPCELL_ROW_30_259
*3081 TAP_TAPCELL_ROW_31_260
*3082 TAP_TAPCELL_ROW_31_261
*3083 TAP_TAPCELL_ROW_31_262
*3084 TAP_TAPCELL_ROW_31_263
*3085 TAP_TAPCELL_ROW_31_264
*3086 TAP_TAPCELL_ROW_32_265
*3087 TAP_TAPCELL_ROW_32_266
*3088 TAP_TAPCELL_ROW_32_267
*3089 TAP_TAPCELL_ROW_32_268
*3090 TAP_TAPCELL_ROW_32_269
*3091 TAP_TAPCELL_ROW_33_270
*3092 TAP_TAPCELL_ROW_33_271
*3093 TAP_TAPCELL_ROW_33_272
*3094 TAP_TAPCELL_ROW_33_273
*3095 TAP_TAPCELL_ROW_33_274
*3096 TAP_TAPCELL_ROW_34_275
*3097 TAP_TAPCELL_ROW_34_276
*3098 TAP_TAPCELL_ROW_34_277
*3099 TAP_TAPCELL_ROW_34_278
*3100 TAP_TAPCELL_ROW_34_279
*3101 TAP_TAPCELL_ROW_35_280
*3102 TAP_TAPCELL_ROW_35_281
*3103 TAP_TAPCELL_ROW_35_282
*3104 TAP_TAPCELL_ROW_35_283
*3105 TAP_TAPCELL_ROW_35_284
*3106 TAP_TAPCELL_ROW_36_285
*3107 TAP_TAPCELL_ROW_36_286
*3108 TAP_TAPCELL_ROW_36_287
*3109 TAP_TAPCELL_ROW_36_288
*3110 TAP_TAPCELL_ROW_36_289
*3111 TAP_TAPCELL_ROW_37_290
*3112 TAP_TAPCELL_ROW_37_291
*3113 TAP_TAPCELL_ROW_37_292
*3114 TAP_TAPCELL_ROW_37_293
*3115 TAP_TAPCELL_ROW_37_294
*3116 TAP_TAPCELL_ROW_38_295
*3117 TAP_TAPCELL_ROW_38_296
*3118 TAP_TAPCELL_ROW_38_297
*3119 TAP_TAPCELL_ROW_38_298
*3120 TAP_TAPCELL_ROW_38_299
*3121 TAP_TAPCELL_ROW_39_300
*3122 TAP_TAPCELL_ROW_39_301
*3123 TAP_TAPCELL_ROW_39_302
*3124 TAP_TAPCELL_ROW_39_303
*3125 TAP_TAPCELL_ROW_39_304
*3126 TAP_TAPCELL_ROW_3_120
*3127 TAP_TAPCELL_ROW_3_121
*3128 TAP_TAPCELL_ROW_3_122
*3129 TAP_TAPCELL_ROW_3_123
*3130 TAP_TAPCELL_ROW_3_124
*3131 TAP_TAPCELL_ROW_40_305
*3132 TAP_TAPCELL_ROW_40_306
*3133 TAP_TAPCELL_ROW_40_307
*3134 TAP_TAPCELL_ROW_40_308
*3135 TAP_TAPCELL_ROW_40_309
*3136 TAP_TAPCELL_ROW_41_310
*3137 TAP_TAPCELL_ROW_41_311
*3138 TAP_TAPCELL_ROW_41_312
*3139 TAP_TAPCELL_ROW_41_313
*3140 TAP_TAPCELL_ROW_41_314
*3141 TAP_TAPCELL_ROW_42_315
*3142 TAP_TAPCELL_ROW_42_316
*3143 TAP_TAPCELL_ROW_42_317
*3144 TAP_TAPCELL_ROW_42_318
*3145 TAP_TAPCELL_ROW_42_319
*3146 TAP_TAPCELL_ROW_43_320
*3147 TAP_TAPCELL_ROW_43_321
*3148 TAP_TAPCELL_ROW_43_322
*3149 TAP_TAPCELL_ROW_43_323
*3150 TAP_TAPCELL_ROW_43_324
*3151 TAP_TAPCELL_ROW_44_325
*3152 TAP_TAPCELL_ROW_44_326
*3153 TAP_TAPCELL_ROW_44_327
*3154 TAP_TAPCELL_ROW_44_328
*3155 TAP_TAPCELL_ROW_44_329
*3156 TAP_TAPCELL_ROW_45_330
*3157 TAP_TAPCELL_ROW_45_331
*3158 TAP_TAPCELL_ROW_45_332
*3159 TAP_TAPCELL_ROW_45_333
*3160 TAP_TAPCELL_ROW_45_334
*3161 TAP_TAPCELL_ROW_46_335
*3162 TAP_TAPCELL_ROW_46_336
*3163 TAP_TAPCELL_ROW_46_337
*3164 TAP_TAPCELL_ROW_46_338
*3165 TAP_TAPCELL_ROW_46_339
*3166 TAP_TAPCELL_ROW_47_340
*3167 TAP_TAPCELL_ROW_47_341
*3168 TAP_TAPCELL_ROW_47_342
*3169 TAP_TAPCELL_ROW_47_343
*3170 TAP_TAPCELL_ROW_47_344
*3171 TAP_TAPCELL_ROW_48_345
*3172 TAP_TAPCELL_ROW_48_346
*3173 TAP_TAPCELL_ROW_48_347
*3174 TAP_TAPCELL_ROW_48_348
*3175 TAP_TAPCELL_ROW_48_349
*3176 TAP_TAPCELL_ROW_49_350
*3177 TAP_TAPCELL_ROW_49_351
*3178 TAP_TAPCELL_ROW_49_352
*3179 TAP_TAPCELL_ROW_49_353
*3180 TAP_TAPCELL_ROW_49_354
*3181 TAP_TAPCELL_ROW_49_355
*3182 TAP_TAPCELL_ROW_49_356
*3183 TAP_TAPCELL_ROW_49_357
*3184 TAP_TAPCELL_ROW_49_358
*3185 TAP_TAPCELL_ROW_49_359
*3186 TAP_TAPCELL_ROW_4_125
*3187 TAP_TAPCELL_ROW_4_126
*3188 TAP_TAPCELL_ROW_4_127
*3189 TAP_TAPCELL_ROW_4_128
*3190 TAP_TAPCELL_ROW_4_129
*3191 TAP_TAPCELL_ROW_5_130
*3192 TAP_TAPCELL_ROW_5_131
*3193 TAP_TAPCELL_ROW_5_132
*3194 TAP_TAPCELL_ROW_5_133
*3195 TAP_TAPCELL_ROW_5_134
*3196 TAP_TAPCELL_ROW_6_135
*3197 TAP_TAPCELL_ROW_6_136
*3198 TAP_TAPCELL_ROW_6_137
*3199 TAP_TAPCELL_ROW_6_138
*3200 TAP_TAPCELL_ROW_6_139
*3201 TAP_TAPCELL_ROW_7_140
*3202 TAP_TAPCELL_ROW_7_141
*3203 TAP_TAPCELL_ROW_7_142
*3204 TAP_TAPCELL_ROW_7_143
*3205 TAP_TAPCELL_ROW_7_144
*3206 TAP_TAPCELL_ROW_8_145
*3207 TAP_TAPCELL_ROW_8_146
*3208 TAP_TAPCELL_ROW_8_147
*3209 TAP_TAPCELL_ROW_8_148
*3210 TAP_TAPCELL_ROW_8_149
*3211 TAP_TAPCELL_ROW_9_150
*3212 TAP_TAPCELL_ROW_9_151
*3213 TAP_TAPCELL_ROW_9_152
*3214 TAP_TAPCELL_ROW_9_153
*3215 TAP_TAPCELL_ROW_9_154
*3216 _0518_
*3217 _0519_
*3218 _0520_
*3219 _0521_
*3220 _0522_
*3221 _0523_
*3222 _0524_
*3223 _0525_
*3224 _0526_
*3225 _0527_
*3226 _0528_
*3227 _0529_
*3228 _0530_
*3229 _0531_
*3230 _0532_
*3231 _0533_
*3232 _0534_
*3233 _0535_
*3234 _0536_
*3235 _0537_
*3236 _0538_
*3237 _0539_
*3238 _0540_
*3239 _0541_
*3240 _0542_
*3241 _0543_
*3242 _0544_
*3243 _0545_
*3244 _0546_
*3245 _0547_
*3246 _0548_
*3247 _0549_
*3248 _0550_
*3249 _0551_
*3250 _0552_
*3251 _0553_
*3252 _0554_
*3253 _0555_
*3254 _0556_
*3255 _0557_
*3256 _0558_
*3257 _0559_
*3258 _0560_
*3259 _0561_
*3260 _0562_
*3261 _0563_
*3262 _0564_
*3263 _0565_
*3264 _0566_
*3265 _0567_
*3266 _0568_
*3267 _0569_
*3268 _0570_
*3269 _0571_
*3270 _0572_
*3271 _0573_
*3272 _0574_
*3273 _0575_
*3274 _0576_
*3275 _0577_
*3276 _0578_
*3277 _0579_
*3278 _0580_
*3279 _0581_
*3280 _0582_
*3281 _0583_
*3282 _0584_
*3283 _0585_
*3284 _0586_
*3285 _0587_
*3286 _0588_
*3287 _0589_
*3288 _0590_
*3289 _0591_
*3290 _0592_
*3291 _0593_
*3292 _0594_
*3293 _0595_
*3294 _0596_
*3295 _0597_
*3296 _0598_
*3297 _0599_
*3298 _0600_
*3299 _0601_
*3300 _0602_
*3301 _0603_
*3302 _0604_
*3303 _0605_
*3304 _0606_
*3305 _0607_
*3306 _0608_
*3307 _0609_
*3308 _0610_
*3309 _0611_
*3310 _0612_
*3311 _0613_
*3312 _0614_
*3313 _0615_
*3314 _0616_
*3315 _0617_
*3316 _0618_
*3317 _0619_
*3318 _0620_
*3319 _0621_
*3320 _0622_
*3321 _0623_
*3322 _0624_
*3323 _0625_
*3324 _0626_
*3325 _0627_
*3326 _0628_
*3327 _0629_
*3328 _0630_
*3329 _0631_
*3330 _0632_
*3331 _0633_
*3332 _0634_
*3333 _0635_
*3334 _0636_
*3335 _0637_
*3336 _0638_
*3337 _0639_
*3338 _0640_
*3339 _0641_
*3340 _0642_
*3341 _0643_
*3342 _0644_
*3343 _0645_
*3344 _0646_
*3345 _0647_
*3346 _0648_
*3347 _0649_
*3348 _0650_
*3349 _0651_
*3350 _0652_
*3351 _0653_
*3352 _0654_
*3353 _0655_
*3354 _0656_
*3355 _0657_
*3356 _0658_
*3357 _0659_
*3358 _0660_
*3359 _0661_
*3360 _0662_
*3361 _0663_
*3362 _0664_
*3363 _0665_
*3364 _0666_
*3365 _0667_
*3366 _0668_
*3367 _0669_
*3368 _0670_
*3369 _0671_
*3370 _0672_
*3371 _0673_
*3372 _0674_
*3373 _0675_
*3374 _0676_
*3375 _0677_
*3376 _0678_
*3377 _0679_
*3378 _0680_
*3379 _0681_
*3380 _0682_
*3381 _0683_
*3382 _0684_
*3383 _0685_
*3384 _0686_
*3385 _0687_
*3386 _0688_
*3387 _0689_
*3388 _0690_
*3389 _0691_
*3390 _0692_
*3391 _0693_
*3392 _0694_
*3393 _0695_
*3394 _0696_
*3395 _0697_
*3396 _0698_
*3397 _0699_
*3398 _0700_
*3399 _0701_
*3400 _0702_
*3401 _0703_
*3402 _0704_
*3403 _0705_
*3404 _0706_
*3405 _0707_
*3406 _0708_
*3407 _0709_
*3408 _0710_
*3409 _0711_
*3410 _0712_
*3411 _0713_
*3412 _0714_
*3413 _0715_
*3414 _0716_
*3415 _0717_
*3416 _0718_
*3417 _0719_
*3418 _0720_
*3419 _0721_
*3420 _0722_
*3421 _0723_
*3422 _0724_
*3423 _0725_
*3424 _0726_
*3425 _0727_
*3426 _0728_
*3427 _0729_
*3428 _0730_
*3429 _0731_
*3430 _0732_
*3431 _0733_
*3432 _0734_
*3433 _0735_
*3434 _0736_
*3435 _0737_
*3436 _0738_
*3437 _0739_
*3438 _0740_
*3439 _0741_
*3440 _0742_
*3441 _0743_
*3442 _0744_
*3443 _0745_
*3444 _0746_
*3445 _0747_
*3446 _0748_
*3447 _0749_
*3448 _0750_
*3449 _0751_
*3450 _0752_
*3451 _0753_
*3452 _0754_
*3453 _0755_
*3454 _0756_
*3455 _0757_
*3456 _0758_
*3457 _0759_
*3458 _0760_
*3459 _0761_
*3460 _0762_
*3461 _0763_
*3462 _0764_
*3463 _0765_
*3464 _0766_
*3465 _0767_
*3466 _0768_
*3467 _0769_
*3468 _0770_
*3469 _0771_
*3470 _0772_
*3471 _0773_
*3472 _0774_
*3473 _0775_
*3474 _0776_
*3475 _0777_
*3476 _0778_
*3477 _0779_
*3478 _0780_
*3479 _0781_
*3480 _0782_
*3481 _0783_
*3482 _0784_
*3483 _0785_
*3484 _0786_
*3485 _0787_
*3486 _0788_
*3487 _0789_
*3488 _0790_
*3489 _0791_
*3490 _0792_
*3491 _0793_
*3492 _0794_
*3493 _0795_
*3494 _0796_
*3495 _0797_
*3496 _0798_
*3497 _0799_
*3498 _0800_
*3499 _0801_
*3500 _0802_
*3501 _0803_
*3502 _0804_
*3503 _0805_
*3504 _0806_
*3505 _0807_
*3506 _0808_
*3507 _0809_
*3508 _0810_
*3509 _0811_
*3510 _0812_
*3511 _0813_
*3512 _0814_
*3513 _0815_
*3514 _0816_
*3515 _0817_
*3516 _0818_
*3517 _0819_
*3518 _0820_
*3519 _0821_
*3520 _0822_
*3521 _0823_
*3522 _0824_
*3523 _0825_
*3524 _0826_
*3525 _0827_
*3526 _0828_
*3527 _0829_
*3528 _0830_
*3529 _0831_
*3530 _0832_
*3531 _0833_
*3532 _0834_
*3533 _0835_
*3534 _0836_
*3535 _0837_
*3536 _0838_
*3537 _0839_
*3538 _0840_
*3539 _0841_
*3540 _0842_
*3541 _0843_
*3542 _0844_
*3543 _0845_
*3544 _0846_
*3545 _0847_
*3546 _0848_
*3547 _0849_
*3548 _0850_
*3549 _0851_
*3550 _0852_
*3551 _0853_
*3552 _0854_
*3553 _0855_
*3554 _0856_
*3555 _0857_
*3556 _0858_
*3557 _0859_
*3558 _0860_
*3559 _0861_
*3560 _0862_
*3561 _0863_
*3562 _0864_
*3563 _0865_
*3564 _0866_
*3565 _0867_
*3566 _0868_
*3567 _0869_
*3568 _0870_
*3569 _0871_
*3570 _0872_
*3571 _0873_
*3572 _0874_
*3573 _0875_
*3574 _0876_
*3575 _0877_
*3576 _0878_
*3577 _0879_
*3578 _0880_
*3579 _0881_
*3580 _0882_
*3581 _0883_
*3582 _0884_
*3583 _0885_
*3584 _0886_
*3585 _0887_
*3586 _0888_
*3587 _0889_
*3588 _0890_
*3589 _0891_
*3590 _0892_
*3591 _0893_
*3592 _0894_
*3593 _0895_
*3594 _0896_
*3595 _0897_
*3596 _0898_
*3597 _0899_
*3598 _0900_
*3599 _0901_
*3600 _0902_
*3601 _0903_
*3602 _0904_
*3603 _0905_
*3604 _0906_
*3605 _0907_
*3606 _0908_
*3607 _0909_
*3608 _0910_
*3609 _0911_
*3610 _0912_
*3611 _0913_
*3612 _0914_
*3613 _0915_
*3614 _0916_
*3615 _0917_
*3616 _0918_
*3617 _0919_
*3618 _0920_
*3619 _0921_
*3620 _0922_
*3621 _0923_
*3622 _0924_
*3623 _0925_
*3624 _0926_
*3625 _0927_
*3626 _0928_
*3627 _0929_
*3628 _0930_
*3629 _0931_
*3630 _0932_
*3631 _0933_
*3632 _0934_
*3633 _0935_
*3634 _0936_
*3635 _0937_
*3636 _0938_
*3637 _0939_
*3638 _0940_
*3639 _0941_
*3640 _0942_
*3641 _0943_
*3642 _0944_
*3643 _0945_
*3644 _0946_
*3645 _0947_
*3646 _0948_
*3647 _0949_
*3648 _0950_
*3649 _0951_
*3650 _0952_
*3651 _0953_
*3652 _0954_
*3653 _0955_
*3654 _0956_
*3655 _0957_
*3656 _0958_
*3657 _0959_
*3658 _0960_
*3659 _0961_
*3660 _0962_
*3661 _0963_
*3662 _0964_
*3663 _0965_
*3664 _0966_
*3665 _0967_
*3666 _0968_
*3667 _0969_
*3668 _0970_
*3669 _0971_
*3670 _0972_
*3671 _0973_
*3672 _0974_
*3673 _0975_
*3674 _0976_
*3675 _0977_
*3676 _0978_
*3677 _0979_
*3678 _0980_
*3679 _0981_
*3680 _0982_
*3681 _0983_
*3682 _0984_
*3683 _0985_
*3684 _0986_
*3685 _0987_
*3686 _0988_
*3687 _0989_
*3688 _0990_
*3689 _0991_
*3690 _0992_
*3691 _0993_
*3692 _0994_
*3693 _0995_
*3694 _0996_
*3695 _0997_
*3696 _0998_
*3697 _0999_
*3698 _1000_
*3699 _1001_
*3700 _1002_
*3701 _1003_
*3702 _1004_
*3703 _1005_
*3704 _1006_
*3705 _1007_
*3706 _1008_
*3707 _1009_
*3708 _1010_
*3709 _1011_
*3710 _1012_
*3711 _1013_
*3712 _1014_
*3713 _1015_
*3714 _1016_
*3715 _1017_
*3716 _1018_
*3717 _1019_
*3718 _1020_
*3719 _1021_
*3720 _1022_
*3721 _1023_
*3722 _1024_
*3723 _1025_
*3724 _1026_
*3725 _1027_
*3726 _1028_
*3727 _1029_
*3728 _1030_
*3729 _1031_
*3730 _1032_
*3731 _1033_
*3732 _1034_
*3733 _1035_
*3734 _1036_
*3735 _1037_
*3736 _1038_
*3737 _1039_
*3738 _1040_
*3739 _1041_
*3740 _1042_
*3741 _1043_
*3742 _1044_
*3743 _1045_
*3744 _1046_
*3745 _1047_
*3746 _1048_
*3747 _1049_
*3748 _1050_
*3749 _1051_
*3750 _1052_
*3751 _1053_
*3752 _1054_
*3753 _1055_
*3754 _1056_
*3755 _1057_
*3756 _1058_
*3757 _1059_
*3758 _1060_
*3759 _1061_
*3760 _1062_
*3761 _1063_
*3762 _1064_
*3763 _1065_
*3764 _1066_
*3765 _1067_
*3766 _1068_
*3767 _1069_
*3768 _1070_
*3769 _1071_
*3770 _1072_
*3771 _1073_
*3772 _1074_
*3773 _1075_
*3774 _1076_
*3775 _1077_
*3776 _1078_
*3777 _1079_
*3778 _1080_
*3779 _1081_
*3780 _1082_
*3781 _1083_
*3782 _1084_
*3783 _1085_
*3784 _1086_
*3785 _1087_
*3786 _1088_
*3787 _1089_
*3788 _1090_
*3789 _1091_
*3790 _1092_
*3791 _1093_
*3792 _1094_
*3793 _1095_
*3794 _1096_
*3795 _1097_
*3796 _1098_
*3797 _1099_
*3798 _1100_
*3799 _1101_
*3800 _1102_
*3801 _1103_
*3802 _1104_
*3803 _1105_
*3804 _1106_
*3805 _1107_
*3806 _1108_
*3807 _1109_
*3808 _1110_
*3809 _1111_
*3810 _1112_
*3811 _1113_
*3812 _1114_
*3813 _1115_
*3814 _1116_
*3815 _1117_
*3816 _1118_
*3817 _1119_
*3818 _1120_
*3819 _1121_
*3820 _1122_
*3821 _1123_
*3822 _1124_
*3823 _1125_
*3824 _1126_
*3825 _1127_
*3826 _1128_
*3827 _1129_
*3828 _1130_
*3829 _1131_
*3830 _1132_
*3831 _1133_
*3832 _1134_
*3833 _1135_
*3834 _1136_
*3835 _1137_
*3836 _1138_
*3837 _1139_
*3838 _1140_
*3839 _1141_
*3840 _1142_
*3841 _1143_
*3842 _1144_
*3843 _1145_
*3844 _1146_
*3845 _1147_
*3846 _1148_
*3847 _1149_
*3848 _1150_
*3849 _1151_
*3850 _1152_
*3851 _1153_
*3852 _1154_
*3853 _1155_
*3854 _1156_
*3855 _1157_
*3856 _1158_
*3857 _1159_
*3858 _1160_
*3859 _1161_
*3860 _1162_
*3861 _1163_
*3862 _1164_
*3863 _1165_
*3864 _1166_
*3865 _1167_
*3866 _1168_
*3867 _1169_
*3868 _1170_
*3869 _1171_
*3870 _1172_
*3871 _1173_
*3872 _1174_
*3873 _1175_
*3874 _1176_
*3875 _1177_
*3876 _1178_
*3877 _1179_
*3878 _1180_
*3879 _1181_
*3880 _1182_
*3881 _1183_
*3882 _1184_
*3883 _1185_
*3884 _1186_
*3885 _1187_
*3886 _1188_
*3887 _1189_
*3888 _1190_
*3889 _1191_
*3890 _1192_
*3891 _1193_
*3892 _1194_
*3893 _1195_
*3894 _1196_
*3895 _1197_
*3896 _1198_
*3897 _1199_
*3898 _1200_
*3899 _1200__109
*3900 _1201_
*3901 _1202_
*3902 _1202__110
*3903 _1203_
*3904 _1204_
*3905 _1205_
*3906 _1206_
*3907 _1207_
*3908 _1208_
*3909 _1209_
*3910 _1210_
*3911 _1211_
*3912 _1212_
*3913 _1213_
*3914 _1214_
*3915 _1215_
*3916 _1216_
*3917 _1217_
*3918 _1218_
*3919 _1219_
*3920 _1220_
*3921 _1221_
*3922 _1222_
*3923 _1223_
*3924 _1224_
*3925 _1225_
*3926 _1226_
*3927 _1227_
*3928 _1228_
*3929 _1229_
*3930 _1230_
*3931 _1231_
*3932 _1232_
*3933 _1233_
*3934 _1234_
*3935 _1235_
*3936 _1236_
*3937 _1237_
*3938 _1238_
*3939 _1239_
*3940 _1240_
*3941 _1241_
*3942 _1242_
*3943 _1243_
*3944 clkbuf_0_rd_clk
*3945 clkbuf_0_wr_clk
*3946 clkbuf_2_0__f_rd_clk
*3947 clkbuf_2_1__f_rd_clk
*3948 clkbuf_2_2__f_rd_clk
*3949 clkbuf_2_3__f_rd_clk
*3950 clkbuf_4_0_0_wr_clk
*3951 clkbuf_4_10_0_wr_clk
*3952 clkbuf_4_11_0_wr_clk
*3953 clkbuf_4_12_0_wr_clk
*3954 clkbuf_4_13_0_wr_clk
*3955 clkbuf_4_14_0_wr_clk
*3956 clkbuf_4_15_0_wr_clk
*3957 clkbuf_4_1_0_wr_clk
*3958 clkbuf_4_2_0_wr_clk
*3959 clkbuf_4_3_0_wr_clk
*3960 clkbuf_4_4_0_wr_clk
*3961 clkbuf_4_5_0_wr_clk
*3962 clkbuf_4_6_0_wr_clk
*3963 clkbuf_4_7_0_wr_clk
*3964 clkbuf_4_8_0_wr_clk
*3965 clkbuf_4_9_0_wr_clk
*3966 clkbuf_5_0__f_wr_clk
*3967 clkbuf_5_10__f_wr_clk
*3968 clkbuf_5_11__f_wr_clk
*3969 clkbuf_5_12__f_wr_clk
*3970 clkbuf_5_13__f_wr_clk
*3971 clkbuf_5_14__f_wr_clk
*3972 clkbuf_5_15__f_wr_clk
*3973 clkbuf_5_16__f_wr_clk
*3974 clkbuf_5_17__f_wr_clk
*3975 clkbuf_5_18__f_wr_clk
*3976 clkbuf_5_19__f_wr_clk
*3977 clkbuf_5_1__f_wr_clk
*3978 clkbuf_5_20__f_wr_clk
*3979 clkbuf_5_21__f_wr_clk
*3980 clkbuf_5_22__f_wr_clk
*3981 clkbuf_5_23__f_wr_clk
*3982 clkbuf_5_24__f_wr_clk
*3983 clkbuf_5_25__f_wr_clk
*3984 clkbuf_5_26__f_wr_clk
*3985 clkbuf_5_27__f_wr_clk
*3986 clkbuf_5_28__f_wr_clk
*3987 clkbuf_5_29__f_wr_clk
*3988 clkbuf_5_2__f_wr_clk
*3989 clkbuf_5_30__f_wr_clk
*3990 clkbuf_5_31__f_wr_clk
*3991 clkbuf_5_3__f_wr_clk
*3992 clkbuf_5_4__f_wr_clk
*3993 clkbuf_5_5__f_wr_clk
*3994 clkbuf_5_6__f_wr_clk
*3995 clkbuf_5_7__f_wr_clk
*3996 clkbuf_5_8__f_wr_clk
*3997 clkbuf_5_9__f_wr_clk
*3998 clkload0
*3999 clkload1
*4000 clkload2
*4001 clkload3
*4002 clkload4
*4003 clkload5
*4004 clkload6
*4005 clkload7
*4006 clkload8
*4007 clkload9
*4008 fanout100
*4009 fanout101
*4010 fanout102
*4011 fanout103
*4012 fanout104
*4013 fanout105
*4014 fanout106
*4015 fanout107
*4016 fanout108
*4017 fanout59
*4018 fanout60
*4019 fanout61
*4020 fanout62
*4021 fanout63
*4022 fanout64
*4023 fanout65
*4024 fanout66
*4025 fanout68
*4026 fanout70
*4027 fanout72
*4028 fanout74
*4029 fanout75
*4030 fanout76
*4031 fanout77
*4032 fanout78
*4033 fanout79
*4034 fanout80
*4035 fanout81
*4036 fanout82
*4037 fanout83
*4038 fanout84
*4039 fanout85
*4040 fanout86
*4041 fanout87
*4042 fanout88
*4043 fanout89
*4044 fanout90
*4045 fanout91
*4046 fanout92
*4047 fanout93
*4048 fanout94
*4049 fanout95
*4050 fanout96
*4051 fanout97
*4052 fanout98
*4053 fanout99
*4054 hold111
*4055 input1
*4056 input10
*4057 input11
*4058 input12
*4059 input13
*4060 input14
*4061 input15
*4062 input16
*4063 input17
*4064 input18
*4065 input19
*4066 input2
*4067 input20
*4068 input3
*4069 input4
*4070 input5
*4071 input6
*4072 input7
*4073 input8
*4074 input9
*4075 load_slew67
*4076 load_slew69
*4077 load_slew71
*4078 load_slew73
*4079 max_cap41
*4080 max_cap42
*4081 max_cap44
*4082 max_cap45
*4083 max_cap46
*4084 max_cap47
*4085 max_cap48
*4086 max_cap50
*4087 max_cap52
*4088 max_cap53
*4089 max_cap54
*4090 output21
*4091 output22
*4092 output23
*4093 output24
*4094 output25
*4095 output26
*4096 output27
*4097 output28
*4098 output29
*4099 output30
*4100 output31
*4101 output32
*4102 wire33
*4103 wire34
*4104 wire35
*4105 wire36
*4106 wire37
*4107 wire38
*4108 wire39
*4109 wire40
*4110 wire43
*4111 wire49
*4112 wire51
*4113 wire55
*4114 wire56
*4115 wire57
*4116 wire58

*PORTS
aempty O
aempty_thresh[0] I
aempty_thresh[1] I
aempty_thresh[2] I
aempty_thresh[3] I
afull O
afull_thresh[0] I
afull_thresh[1] I
afull_thresh[2] I
afull_thresh[3] I
empty O
full O
rd_clk I
rd_data[0] O
rd_data[1] O
rd_data[2] O
rd_data[3] O
rd_data[4] O
rd_data[5] O
rd_data[6] O
rd_data[7] O
rd_en I
rd_rst_n I
wr_clk I
wr_data[0] I
wr_data[1] I
wr_data[2] I
wr_data[3] I
wr_data[4] I
wr_data[5] I
wr_data[6] I
wr_data[7] I
wr_en I
wr_rst_n I

*D_NET *3 0.00161855
*CONN
*P aempty O
*I *4116:X O *D sky130_fd_sc_hd__clkbuf_4
*CAP
1 aempty 0.000703573
2 *4116:X 0.000703573
3 aempty *3901:RESET_B 9.60337e-06
4 aempty *4056:A 0.000201804
5 aempty *4069:A 0
*RES
1 *4116:X aempty 19.3182 
*END

*D_NET *4 0.0021692
*CONN
*P aempty_thresh[0] I
*I *4055:A I *D sky130_fd_sc_hd__clkdlybuf4s25_1
*CAP
1 aempty_thresh[0] 0.000527108
2 *4055:A 0.000527108
3 *4055:A *4066:A 0.000558594
4 *4055:A *4074:A 0.000556386
*RES
1 aempty_thresh[0] *4055:A 31.3089 
*END

*D_NET *5 0.0016567
*CONN
*P aempty_thresh[1] I
*I *4066:A I *D sky130_fd_sc_hd__clkdlybuf4s25_1
*CAP
1 aempty_thresh[1] 0.000549054
2 *4066:A 0.000549054
3 *4055:A *4066:A 0.000558594
*RES
1 aempty_thresh[1] *4066:A 28.1661 
*END

*D_NET *6 0.00129358
*CONN
*P aempty_thresh[2] I
*I *4068:A I *D sky130_fd_sc_hd__clkdlybuf4s25_1
*CAP
1 aempty_thresh[2] 0.000646789
2 *4068:A 0.000646789
*RES
1 aempty_thresh[2] *4068:A 26.5232 
*END

*D_NET *7 0.000722969
*CONN
*P aempty_thresh[3] I
*I *4069:A I *D sky130_fd_sc_hd__clkdlybuf4s25_1
*CAP
1 aempty_thresh[3] 0.000350136
2 *4069:A 0.000350136
3 *4069:A *713:12 2.26973e-05
4 aempty *4069:A 0
*RES
1 aempty_thresh[3] *4069:A 18.5976 
*END

*D_NET *8 0.00106565
*CONN
*P afull O
*I *4115:X O *D sky130_fd_sc_hd__clkbuf_4
*CAP
1 afull 0.000532827
2 *4115:X 0.000532827
3 afull *4045:A 0
4 afull *4046:A 0
*RES
1 *4115:X afull 23.4866 
*END

*D_NET *9 0.00131709
*CONN
*P afull_thresh[0] I
*I *4070:A I *D sky130_fd_sc_hd__clkdlybuf4s25_1
*CAP
1 afull_thresh[0] 0.000630931
2 *4070:A 0.000630931
3 *4070:A *4071:A 5.52302e-05
*RES
1 afull_thresh[0] *4070:A 25.9964 
*END

*D_NET *10 0.00138914
*CONN
*P afull_thresh[1] I
*I *4071:A I *D sky130_fd_sc_hd__clkdlybuf4s25_1
*CAP
1 afull_thresh[1] 0.000666953
2 *4071:A 0.000666953
3 *4070:A *4071:A 5.52302e-05
*RES
1 afull_thresh[1] *4071:A 26.6929 
*END

*D_NET *11 0.00107421
*CONN
*P afull_thresh[2] I
*I *4072:A I *D sky130_fd_sc_hd__clkdlybuf4s25_1
*CAP
1 afull_thresh[2] 0.000537107
2 *4072:A 0.000537107
3 *4072:A *4073:A 0
*RES
1 afull_thresh[2] *4072:A 24.5143 
*END

*D_NET *12 0.0011533
*CONN
*P afull_thresh[3] I
*I *4073:A I *D sky130_fd_sc_hd__clkdlybuf4s25_1
*CAP
1 afull_thresh[3] 0.000576652
2 *4073:A 0.000576652
3 *4072:A *4073:A 0
*RES
1 afull_thresh[3] *4073:A 25.05 
*END

*D_NET *13 0.00158714
*CONN
*P empty O
*I *4114:X O *D sky130_fd_sc_hd__clkbuf_4
*CAP
1 empty 0.00078326
2 *4114:X 0.00078326
3 empty *710:14 2.06178e-05
4 empty *896:10 0
*RES
1 *4114:X empty 19.3182 
*END

*D_NET *14 0.00169162
*CONN
*P full O
*I *4113:X O *D sky130_fd_sc_hd__clkbuf_4
*CAP
1 full 0.00069906
2 *4113:X 0.00069906
3 full *4065:A 0.000102197
4 full *4113:A 0.000167876
5 full *637:10 2.343e-05
*RES
1 *4113:X full 26.1129 
*END

*D_NET *15 0.00688847
*CONN
*P rd_clk I
*I *3944:A I *D sky130_fd_sc_hd__clkbuf_16
*CAP
1 rd_clk 0.00230957
2 *3944:A 9.66108e-05
3 *15:30 0.00240618
4 *15:30 rd_data[3] 0.000408525
5 *15:30 *3357:B 1.33462e-05
6 *15:30 *3395:A 3.846e-05
7 *15:30 *3395:B 0.000141053
8 *15:30 *3407:B1 8.55148e-05
9 *15:30 *3937:RESET_B 0.000227055
10 *15:30 *3943:CLK 0.000216184
11 *15:30 *327:6 3.03308e-05
12 *15:30 *564:8 0.000142698
13 *15:30 *564:10 0.000218807
14 *15:30 *564:16 5.51195e-05
15 *15:30 *564:71 8.74778e-05
16 *15:30 *711:12 9.22547e-05
17 *15:30 *711:14 0.000125281
18 *15:30 *711:16 0.0001376
19 *15:30 *898:10 5.6393e-05
*RES
1 rd_clk *15:30 35.9506 
2 *15:30 *3944:A 10.9875 
*END

*D_NET *16 0.00116904
*CONN
*P rd_data[0] O
*I *4105:X O *D sky130_fd_sc_hd__clkbuf_4
*CAP
1 rd_data[0] 0.000459509
2 *4105:X 0.000459509
3 rd_data[0] rd_data[2] 0.0002186
4 rd_data[0] rd_data[4] 0
5 rd_data[0] *4094:A 2.51343e-06
6 rd_data[0] *4105:A 2.89114e-05
*RES
1 *4105:X rd_data[0] 22.1658 
*END

*D_NET *17 0.00111399
*CONN
*P rd_data[1] O
*I *4104:X O *D sky130_fd_sc_hd__clkbuf_4
*CAP
1 rd_data[1] 0.000432126
2 *4104:X 0.000432126
3 rd_data[1] *4064:A 0.00024974
*RES
1 *4104:X rd_data[1] 21.5586 
*END

*D_NET *18 0.00119888
*CONN
*P rd_data[2] O
*I *4103:X O *D sky130_fd_sc_hd__clkbuf_4
*CAP
1 rd_data[2] 0.000490142
2 *4103:X 0.000490142
3 rd_data[2] *4105:A 0
4 rd_data[0] rd_data[2] 0.0002186
*RES
1 *4103:X rd_data[2] 23.308 
*END

*D_NET *19 0.000909285
*CONN
*P rd_data[3] O
*I *4109:X O *D sky130_fd_sc_hd__clkbuf_4
*CAP
1 rd_data[3] 0.000246107
2 *4109:X 0.000246107
3 rd_data[3] *3911:D 4.08555e-06
4 rd_data[3] *4109:A 4.46186e-06
5 *15:30 rd_data[3] 0.000408525
*RES
1 *4109:X rd_data[3] 18.5976 
*END

*D_NET *20 0.00141246
*CONN
*P rd_data[4] O
*I *4108:X O *D sky130_fd_sc_hd__clkbuf_4
*CAP
1 rd_data[4] 0.000696585
2 *4108:X 0.000696585
3 rd_data[4] rd_data[5] 0
4 rd_data[4] *4108:A 1.92905e-05
5 rd_data[0] rd_data[4] 0
*RES
1 *4108:X rd_data[4] 25.8086 
*END

*D_NET *21 0.00134113
*CONN
*P rd_data[5] O
*I *4107:X O *D sky130_fd_sc_hd__clkbuf_4
*CAP
1 rd_data[5] 0.00054581
2 *4107:X 0.00054581
3 rd_data[5] rd_data[7] 0.000245823
4 rd_data[5] *3780:CLK 3.69047e-06
5 rd_data[5] *4108:A 0
6 rd_data[4] rd_data[5] 0
*RES
1 *4107:X rd_data[5] 24.1836 
*END

*D_NET *22 0.00118807
*CONN
*P rd_data[6] O
*I *4102:X O *D sky130_fd_sc_hd__clkbuf_4
*CAP
1 rd_data[6] 0.000594034
2 *4102:X 0.000594034
*RES
1 *4102:X rd_data[6] 25.6839 
*END

*D_NET *23 0.00112043
*CONN
*P rd_data[7] O
*I *4106:X O *D sky130_fd_sc_hd__clkbuf_4
*CAP
1 rd_data[7] 0.000380122
2 *4106:X 0.000380122
3 rd_data[7] *4107:A 5.71833e-05
4 rd_data[7] *4108:A 5.71833e-05
5 rd_data[5] rd_data[7] 0.000245823
*RES
1 *4106:X rd_data[7] 19.9387 
*END

*D_NET *24 0.00146037
*CONN
*P rd_en I
*I *4074:A I *D sky130_fd_sc_hd__clkdlybuf4s25_1
*CAP
1 rd_en 0.000451993
2 *4074:A 0.000451993
3 *4055:A *4074:A 0.000556386
*RES
1 rd_en *4074:A 26.5232 
*END

*D_NET *25 0.00129001
*CONN
*P rd_rst_n I
*I *4056:A I *D sky130_fd_sc_hd__clkdlybuf4s25_1
*CAP
1 rd_rst_n 0.000544102
2 *4056:A 0.000544102
3 aempty *4056:A 0.000201804
*RES
1 rd_rst_n *4056:A 25.9853 
*END

*D_NET *26 0.0183805
*CONN
*P wr_clk I
*I *3945:A I *D sky130_fd_sc_hd__clkbuf_16
*CAP
1 wr_clk 0.00657532
2 *3945:A 0
3 *26:22 0.000974916
4 *26:20 0.00755023
5 *26:20 *3467:S0 4.05012e-05
6 *26:20 *3473:A2 4.76662e-05
7 *26:20 *3530:S 0
8 *26:20 *3596:A 0.000367839
9 *26:20 *3601:S 0
10 *26:20 *3811:D 5.73484e-05
11 *26:20 *4057:A 0.000413076
12 *26:20 *4100:A 0.000251916
13 *26:20 *395:16 0.00038356
14 *26:20 *587:10 0
15 *26:20 *587:12 0
16 *26:22 *3472:A1 0.000102506
17 *26:22 *3472:A2 8.53515e-05
18 *26:22 *3508:A 0
19 *26:22 *3525:A 1.02897e-05
20 *26:22 *3571:A 0
21 *26:22 *3596:A 1.23272e-05
22 *26:22 *3737:A0 2.98373e-05
23 *26:22 *3737:A1 0.000198824
24 *26:22 *3811:D 2.07833e-05
25 *26:22 *3877:D 0
26 *26:22 *395:16 0.0010507
27 *26:22 *422:39 0
28 *26:22 *570:10 0
29 *26:22 *662:24 0.00013873
30 *26:22 *666:10 0
31 *26:22 *666:16 0
32 *26:22 *729:78 6.88155e-05
*RES
1 wr_clk *26:20 42.5275 
2 *26:20 *26:22 26.5982 
3 *26:22 *3945:A 13.8 
*END

*D_NET *27 0.00135322
*CONN
*P wr_data[0] I
*I *4057:A I *D sky130_fd_sc_hd__clkdlybuf4s25_1
*CAP
1 wr_data[0] 0.00047007
2 *4057:A 0.00047007
3 *4057:A *3880:CLK 0
4 *26:20 *4057:A 0.000413076
*RES
1 wr_data[0] *4057:A 22.8303 
*END

*D_NET *28 0.00122156
*CONN
*P wr_data[1] I
*I *4058:A I *D sky130_fd_sc_hd__clkdlybuf4s25_1
*CAP
1 wr_data[1] 0.000610781
2 *4058:A 0.000610781
*RES
1 wr_data[1] *4058:A 25.9875 
*END

*D_NET *29 0.00108687
*CONN
*P wr_data[2] I
*I *4059:A I *D sky130_fd_sc_hd__clkdlybuf4s25_1
*CAP
1 wr_data[2] 0.000543434
2 *4059:A 0.000543434
*RES
1 wr_data[2] *4059:A 24.4151 
*END

*D_NET *30 0.001207
*CONN
*P wr_data[3] I
*I *4060:A I *D sky130_fd_sc_hd__clkdlybuf4s25_1
*CAP
1 wr_data[3] 0.000602086
2 *4060:A 0.000602086
3 *4060:A *3491:A 2.8266e-06
*RES
1 wr_data[3] *4060:A 25.4607 
*END

*D_NET *31 0.00119612
*CONN
*P wr_data[4] I
*I *4061:A I *D sky130_fd_sc_hd__clkdlybuf4s25_1
*CAP
1 wr_data[4] 0.000570445
2 *4061:A 0.000570445
3 *4061:A *3488:A0 0
4 *4061:A *3488:S 5.52302e-05
*RES
1 wr_data[4] *4061:A 25.05 
*END

*D_NET *32 0.00120337
*CONN
*P wr_data[5] I
*I *4062:A I *D sky130_fd_sc_hd__clkdlybuf4s25_1
*CAP
1 wr_data[5] 0.000574209
2 *4062:A 0.000574209
3 *4062:A *672:32 5.49544e-05
*RES
1 wr_data[5] *4062:A 25.05 
*END

*D_NET *33 0.00129084
*CONN
*P wr_data[6] I
*I *4063:A I *D sky130_fd_sc_hd__clkdlybuf4s25_1
*CAP
1 wr_data[6] 0.00064542
2 *4063:A 0.00064542
*RES
1 wr_data[6] *4063:A 26.5232 
*END

*D_NET *34 0.00166466
*CONN
*P wr_data[7] I
*I *4064:A I *D sky130_fd_sc_hd__clkdlybuf4s25_1
*CAP
1 wr_data[7] 0.00059271
2 *4064:A 0.00059271
3 *4064:A *3533:A 9.21958e-05
4 *4064:A *4104:A 0.00013731
5 rd_data[1] *4064:A 0.00024974
*RES
1 wr_data[7] *4064:A 25.2589 
*END

*D_NET *35 0.00154174
*CONN
*P wr_en I
*I *4065:A I *D sky130_fd_sc_hd__clkdlybuf4s25_1
*CAP
1 wr_en 0.000719772
2 *4065:A 0.000719772
3 *4065:A *3922:CLK 0
4 *4065:A *3923:CLK 0
5 *4065:A *4113:A 0
6 full *4065:A 0.000102197
*RES
1 wr_en *4065:A 28.4139 
*END

*D_NET *36 0.000905171
*CONN
*P wr_rst_n I
*I *4067:A I *D sky130_fd_sc_hd__clkdlybuf4s25_1
*CAP
1 wr_rst_n 0.000443636
2 *4067:A 0.000443636
3 *4067:A *639:10 1.78987e-05
*RES
1 wr_rst_n *4067:A 19.8118 
*END

*D_NET *37 0.00104857
*CONN
*I *3888:D I *D sky130_fd_sc_hd__dfstp_2
*I *3401:X O *D sky130_fd_sc_hd__o311a_4
*CAP
1 *3888:D 0.000421856
2 *3401:X 0.000421856
3 *3888:D *3888:CLK 7.18509e-05
4 *3888:D *3901:RESET_B 0
5 *3888:D *3903:RESET_B 1.69115e-05
6 *3888:D *566:61 0
7 *3888:D *566:74 0.000116099
*RES
1 *3401:X *3888:D 35.6536 
*END

*D_NET *38 0.000748966
*CONN
*I *3893:D I *D sky130_fd_sc_hd__dfrtp_2
*I *3338:Y O *D sky130_fd_sc_hd__nand3_4
*CAP
1 *3893:D 0.000286915
2 *3338:Y 0.000286915
3 *3893:D *3337:A1_N 1.18451e-05
4 *3893:D *3337:A2_N 0.000128146
5 *3893:D *3338:A 0
6 *3893:D *3338:B 3.51442e-05
7 *3893:D *4115:A 0
*RES
1 *3338:Y *3893:D 33.1179 
*END

*D_NET *39 0.00175928
*CONN
*I *3760:D I *D sky130_fd_sc_hd__dfxtp_2
*I *3485:X O *D sky130_fd_sc_hd__buf_1
*CAP
1 *3760:D 0.000288292
2 *3485:X 0.000288292
3 *3760:D *3420:S0 0.000529861
4 *3760:D *3479:S0 0
5 *3760:D *3760:CLK 6.07532e-05
6 *3760:D *3856:D 5.33005e-05
7 *3760:D *488:48 4.87669e-06
8 *3760:D *631:28 0.000135986
9 *3760:D *669:24 1.76204e-05
10 *3760:D *684:27 0.000273757
11 *3760:D *684:31 0.000106542
*RES
1 *3485:X *3760:D 37.533 
*END

*D_NET *40 0.00152053
*CONN
*I *3761:D I *D sky130_fd_sc_hd__dfxtp_2
*I *3487:X O *D sky130_fd_sc_hd__buf_1
*CAP
1 *3761:D 0.0006598
2 *3487:X 0.0006598
3 *3761:D *488:27 0.000145979
4 *3761:D *593:24 5.49544e-05
*RES
1 *3487:X *3761:D 37.1937 
*END

*D_NET *41 0.000442752
*CONN
*I *3762:D I *D sky130_fd_sc_hd__dfxtp_2
*I *3489:X O *D sky130_fd_sc_hd__buf_1
*CAP
1 *3762:D 0.000169389
2 *3489:X 0.000169389
3 *3762:D *664:48 5.23735e-05
4 *3762:D *798:8 5.1601e-05
*RES
1 *3489:X *3762:D 30.658 
*END

*D_NET *42 0.00175881
*CONN
*I *3763:D I *D sky130_fd_sc_hd__dfxtp_2
*I *3491:X O *D sky130_fd_sc_hd__buf_1
*CAP
1 *3763:D 0.000715318
2 *3491:X 0.000715318
3 *3763:D *3446:A0 0
4 *3763:D *3446:A3 4.76868e-05
5 *3763:D *3490:A0 8.93347e-05
6 *3763:D *3491:A 0
7 *3763:D *3612:A0 4.88284e-05
8 *3763:D *3819:D 0
9 *3763:D *619:21 0.000142327
10 *3763:D *619:94 0
*RES
1 *3491:X *3763:D 40.6536 
*END

*D_NET *43 0.000786608
*CONN
*I *3764:D I *D sky130_fd_sc_hd__dfxtp_2
*I *3493:X O *D sky130_fd_sc_hd__buf_1
*CAP
1 *3764:D 0.000344068
2 *3493:X 0.000344068
3 *3764:D *3492:A0 0
4 *3764:D *3764:CLK 9.84729e-05
*RES
1 *3493:X *3764:D 33.408 
*END

*D_NET *44 0.000862179
*CONN
*I *3765:D I *D sky130_fd_sc_hd__dfxtp_2
*I *3495:X O *D sky130_fd_sc_hd__buf_1
*CAP
1 *3765:D 0.000288682
2 *3495:X 0.000288682
3 *3765:D *634:10 0.000149959
4 *3765:D *634:31 0.000134857
*RES
1 *3495:X *3765:D 32.7652 
*END

*D_NET *45 0.000417817
*CONN
*I *3766:D I *D sky130_fd_sc_hd__dfxtp_2
*I *3497:X O *D sky130_fd_sc_hd__buf_1
*CAP
1 *3766:D 4.67866e-05
2 *3497:X 4.67866e-05
3 *3766:D *3496:A1 1.64343e-05
4 *3766:D *3715:S 0.000154762
5 *3766:D *663:16 0.000153047
*RES
1 *3497:X *3766:D 29.7116 
*END

*D_NET *46 0.00109296
*CONN
*I *3767:D I *D sky130_fd_sc_hd__dfxtp_2
*I *3499:X O *D sky130_fd_sc_hd__buf_1
*CAP
1 *3767:D 0.000425218
2 *3499:X 0.000425218
3 *3767:D *3479:A0 9.41642e-05
4 *3767:D *605:14 0.00014836
*RES
1 *3499:X *3767:D 25.3545 
*END

*D_NET *47 0.000197812
*CONN
*I *3768:D I *D sky130_fd_sc_hd__dfxtp_2
*I *3502:X O *D sky130_fd_sc_hd__buf_2
*CAP
1 *3768:D 9.72451e-05
2 *3502:X 9.72451e-05
3 *3768:D *3768:CLK 3.32132e-06
*RES
1 *3502:X *3768:D 29.1045 
*END

*D_NET *48 0.0013727
*CONN
*I *3769:D I *D sky130_fd_sc_hd__dfxtp_2
*I *3504:X O *D sky130_fd_sc_hd__buf_2
*CAP
1 *3769:D 0.000398863
2 *3504:X 0.000398863
3 *3769:D *3435:S0 1.58163e-05
4 *3769:D *3521:A 0.000122527
5 *3769:D *3540:S 9.04776e-05
6 *3769:D *3554:S 0
7 *3769:D *3777:D 7.74068e-05
8 *3769:D *3810:CLK 0.000124012
9 *3769:D *544:116 0.000144732
*RES
1 *3504:X *3769:D 35.5687 
*END

*D_NET *49 0.000515026
*CONN
*I *3770:D I *D sky130_fd_sc_hd__dfxtp_2
*I *3506:X O *D sky130_fd_sc_hd__buf_2
*CAP
1 *3770:D 0.000150078
2 *3506:X 0.000150078
3 *3770:D *3506:A 0.000169755
4 *3770:D *3770:CLK 4.51148e-05
*RES
1 *3506:X *3770:D 21.4795 
*END

*D_NET *50 0.000438667
*CONN
*I *3771:D I *D sky130_fd_sc_hd__dfxtp_2
*I *3508:X O *D sky130_fd_sc_hd__buf_2
*CAP
1 *3771:D 0.000193759
2 *3508:X 0.000193759
3 *3771:D *3508:A 7.56452e-06
4 *3771:D *3771:CLK 4.35854e-05
*RES
1 *3508:X *3771:D 21.6045 
*END

*D_NET *51 0.00185881
*CONN
*I *3772:D I *D sky130_fd_sc_hd__dfxtp_2
*I *3510:X O *D sky130_fd_sc_hd__buf_2
*CAP
1 *3772:D 0.000472289
2 *3510:X 0.000472289
3 *3772:D *3510:A 0.000668275
4 *3772:D *3527:A 5.65955e-05
5 *3772:D *4107:A 0
6 *3772:D *609:25 0.000189363
*RES
1 *3510:X *3772:D 38.5687 
*END

*D_NET *52 0.000490657
*CONN
*I *3773:D I *D sky130_fd_sc_hd__dfxtp_2
*I *3512:X O *D sky130_fd_sc_hd__buf_2
*CAP
1 *3773:D 0.000169824
2 *3512:X 0.000169824
3 *3773:D *3788:CLK 0
4 *3773:D *360:14 0.000151009
*RES
1 *3512:X *3773:D 30.9438 
*END

*D_NET *53 0.000765786
*CONN
*I *3774:D I *D sky130_fd_sc_hd__dfxtp_2
*I *3514:X O *D sky130_fd_sc_hd__buf_2
*CAP
1 *3774:D 0.00023258
2 *3514:X 0.00023258
3 *3774:D *3806:CLK 0.000103267
4 *3774:D *3873:D 1.36318e-05
5 *3774:D *413:85 0.000183726
*RES
1 *3514:X *3774:D 31.283 
*END

*D_NET *54 0.000628376
*CONN
*I *3775:D I *D sky130_fd_sc_hd__dfxtp_2
*I *3516:X O *D sky130_fd_sc_hd__buf_2
*CAP
1 *3775:D 0.000177142
2 *3516:X 0.000177142
3 *3775:D *3516:A 0.000128119
4 *3775:D *613:18 0.000145973
*RES
1 *3516:X *3775:D 30.8723 
*END

*D_NET *55 0.000331215
*CONN
*I *3776:D I *D sky130_fd_sc_hd__dfxtp_2
*I *3519:X O *D sky130_fd_sc_hd__buf_1
*CAP
1 *3776:D 0.00011621
2 *3519:X 0.00011621
3 *3776:D *3519:A 3.08664e-05
4 *3776:D *3768:CLK 5.14943e-05
5 *3776:D *584:16 1.64343e-05
*RES
1 *3519:X *3776:D 29.6402 
*END

*D_NET *56 0.000994272
*CONN
*I *3777:D I *D sky130_fd_sc_hd__dfxtp_2
*I *3521:X O *D sky130_fd_sc_hd__buf_1
*CAP
1 *3777:D 0.000313938
2 *3521:X 0.000313938
3 *3777:D *3540:S 9.84e-05
4 *3777:D *3554:S 0
5 *3777:D *3777:CLK 0.000126137
6 *3777:D *688:85 6.44513e-05
7 *3769:D *3777:D 7.74068e-05
*RES
1 *3521:X *3777:D 34.3187 
*END

*D_NET *57 0.000353961
*CONN
*I *3778:D I *D sky130_fd_sc_hd__dfxtp_2
*I *3523:X O *D sky130_fd_sc_hd__buf_1
*CAP
1 *3778:D 0.000168763
2 *3523:X 0.000168763
3 *3778:D *3778:CLK 1.64343e-05
*RES
1 *3523:X *3778:D 29.9438 
*END

*D_NET *58 0.00035241
*CONN
*I *3779:D I *D sky130_fd_sc_hd__dfxtp_2
*I *3525:X O *D sky130_fd_sc_hd__buf_1
*CAP
1 *3779:D 0.000106509
2 *3525:X 0.000106509
3 *3779:D *3459:S0 1.32552e-05
4 *3779:D *3779:CLK 0.000126137
*RES
1 *3525:X *3779:D 20.658 
*END

*D_NET *59 0.0010475
*CONN
*I *3780:D I *D sky130_fd_sc_hd__dfxtp_2
*I *3527:X O *D sky130_fd_sc_hd__buf_1
*CAP
1 *3780:D 0.000210689
2 *3527:X 0.000210689
3 *3780:D *3527:A 4.16207e-05
4 *3780:D *3780:CLK 0.000153047
5 *3780:D *4107:A 0.00014535
6 *3780:D *4108:A 0.000181125
7 *3780:D *609:12 0.000104974
*RES
1 *3527:X *3780:D 34.6045 
*END

*D_NET *60 0.000496805
*CONN
*I *3781:D I *D sky130_fd_sc_hd__dfxtp_2
*I *3529:X O *D sky130_fd_sc_hd__buf_1
*CAP
1 *3781:D 0.000123695
2 *3529:X 0.000123695
3 *3781:D *4013:A 0.000103437
4 *3781:D *724:32 0.000145979
*RES
1 *3529:X *3781:D 30.3366 
*END

*D_NET *61 0.000997132
*CONN
*I *3782:D I *D sky130_fd_sc_hd__dfxtp_2
*I *3531:X O *D sky130_fd_sc_hd__buf_1
*CAP
1 *3782:D 0.000206095
2 *3531:X 0.000206095
3 *3782:D *3531:A 7.43578e-06
4 *3782:D *3806:CLK 0
5 *3782:D *3806:D 0.000223065
6 *3782:D *452:117 0.000345632
7 *3782:D *688:51 8.80958e-06
*RES
1 *3531:X *3782:D 33.0866 
*END

*D_NET *62 0.000283238
*CONN
*I *3783:D I *D sky130_fd_sc_hd__dfxtp_2
*I *3533:X O *D sky130_fd_sc_hd__buf_1
*CAP
1 *3783:D 0.0001354
2 *3533:X 0.0001354
3 *3783:D *3533:A 1.24368e-05
*RES
1 *3533:X *3783:D 20.658 
*END

*D_NET *63 0.00149258
*CONN
*I *3784:D I *D sky130_fd_sc_hd__dfxtp_2
*I *3537:X O *D sky130_fd_sc_hd__buf_1
*CAP
1 *3784:D 0.000536794
2 *3537:X 0.000536794
3 *3784:D *3417:A1 0.000173359
4 *3784:D *3537:A 0.000100668
5 *3784:D *3555:A 0
6 *3784:D *686:122 2.94004e-05
7 *3784:D *772:10 0.000115563
*RES
1 *3537:X *3784:D 36.3723 
*END

*D_NET *64 0.000338152
*CONN
*I *3785:D I *D sky130_fd_sc_hd__dfxtp_2
*I *3539:X O *D sky130_fd_sc_hd__buf_1
*CAP
1 *3785:D 0.000104444
2 *3539:X 0.000104444
3 *3785:D *3539:A 0.000129263
*RES
1 *3539:X *3785:D 20.658 
*END

*D_NET *65 0.000257306
*CONN
*I *3786:D I *D sky130_fd_sc_hd__dfxtp_2
*I *3541:X O *D sky130_fd_sc_hd__buf_1
*CAP
1 *3786:D 5.25593e-05
2 *3541:X 5.25593e-05
3 *3786:D *3554:S 4.96722e-05
4 *3786:D *3558:A0 0.000102515
*RES
1 *3541:X *3786:D 29.1045 
*END

*D_NET *66 0.00168256
*CONN
*I *3787:D I *D sky130_fd_sc_hd__dfxtp_2
*I *3543:X O *D sky130_fd_sc_hd__buf_1
*CAP
1 *3787:D 0.000283694
2 *3543:X 0.000283694
3 *3787:D *3561:A 0.000172884
4 *3787:D *3795:D 9.9984e-05
5 *3787:D *4049:A 0.000138306
6 *3787:D *442:24 0.000588546
7 *3787:D *442:37 0.000115453
8 *3787:D *535:26 0
*RES
1 *3543:X *3787:D 36.9973 
*END

*D_NET *67 0.000512928
*CONN
*I *3788:D I *D sky130_fd_sc_hd__dfxtp_2
*I *3545:X O *D sky130_fd_sc_hd__buf_1
*CAP
1 *3788:D 7.34825e-05
2 *3545:X 7.34825e-05
3 *3788:D *3477:A1 0.00012501
4 *3788:D *3788:CLK 8.65694e-05
5 *3788:D *544:116 0.000123295
6 *3788:D *768:10 3.10887e-05
*RES
1 *3545:X *3788:D 30.1 
*END

*D_NET *68 0.00108411
*CONN
*I *3789:D I *D sky130_fd_sc_hd__dfxtp_2
*I *3547:X O *D sky130_fd_sc_hd__buf_1
*CAP
1 *3789:D 0.000342621
2 *3547:X 0.000342621
3 *3789:D *3565:A 0.000141729
4 *3789:D *452:27 0.000188694
5 *3789:D *461:168 5.91935e-05
6 *3789:D *724:115 9.25014e-06
*RES
1 *3547:X *3789:D 34.2116 
*END

*D_NET *69 0.000275604
*CONN
*I *3790:D I *D sky130_fd_sc_hd__dfxtp_2
*I *3549:X O *D sky130_fd_sc_hd__buf_1
*CAP
1 *3790:D 8.82507e-05
2 *3549:X 8.82507e-05
3 *3790:D *3566:S 1.74816e-05
4 *3790:D *3790:CLK 3.67279e-06
5 *3790:D *635:10 7.79481e-05
*RES
1 *3549:X *3790:D 29.7116 
*END

*D_NET *70 0.000598303
*CONN
*I *3791:D I *D sky130_fd_sc_hd__dfxtp_2
*I *3551:X O *D sky130_fd_sc_hd__buf_1
*CAP
1 *3791:D 0.000245091
2 *3551:X 0.000245091
3 *3791:D *3474:S1 1.64343e-05
4 *3791:D *3603:S 1.64343e-05
5 *3791:D *3791:CLK 0
6 *3791:D *3799:D 1.99881e-05
7 *3791:D *686:35 5.52646e-05
*RES
1 *3551:X *3791:D 31.0866 
*END

*D_NET *71 0.000328029
*CONN
*I *3792:D I *D sky130_fd_sc_hd__dfxtp_2
*I *3555:X O *D sky130_fd_sc_hd__buf_1
*CAP
1 *3792:D 0.000112296
2 *3555:X 0.000112296
3 *3792:D *3792:CLK 0.000103437
*RES
1 *3555:X *3792:D 29.7473 
*END

*D_NET *72 0.00148954
*CONN
*I *3793:D I *D sky130_fd_sc_hd__dfxtp_2
*I *3557:X O *D sky130_fd_sc_hd__buf_1
*CAP
1 *3793:D 0.000325476
2 *3557:X 0.000325476
3 *3793:D *3427:S1 1.18064e-05
4 *3793:D *3556:A0 0.000400677
5 *3793:D *3557:A 5.107e-05
6 *3793:D *3591:A1 0.000101435
7 *3793:D *624:14 3.51766e-05
8 *3793:D *624:96 3.18309e-05
9 *3793:D *773:10 0.00012501
10 *3793:D *789:10 8.15843e-05
*RES
1 *3557:X *3793:D 36.6937 
*END

*D_NET *73 0.00162747
*CONN
*I *3794:D I *D sky130_fd_sc_hd__dfxtp_2
*I *3559:X O *D sky130_fd_sc_hd__buf_1
*CAP
1 *3794:D 0.000388712
2 *3559:X 0.000388712
3 *3794:D *3435:A1 0.00015136
4 *3794:D *3436:A1 0.000220108
5 *3794:D *3540:A0 0
6 *3794:D *3540:A1 0.000337658
7 *3794:D *688:85 0.000140921
*RES
1 *3559:X *3794:D 35.5509 
*END

*D_NET *74 0.00139061
*CONN
*I *3795:D I *D sky130_fd_sc_hd__dfxtp_2
*I *3561:X O *D sky130_fd_sc_hd__buf_1
*CAP
1 *3795:D 0.000306568
2 *3561:X 0.000306568
3 *3795:D *3443:A2 0.00010182
4 *3795:D *3561:A 9.04756e-05
5 *3795:D *3739:S 7.58841e-05
6 *3795:D *535:26 0.000409313
7 *3787:D *3795:D 9.9984e-05
*RES
1 *3561:X *3795:D 36.0152 
*END

*D_NET *75 0.00156648
*CONN
*I *3796:D I *D sky130_fd_sc_hd__dfxtp_2
*I *3563:X O *D sky130_fd_sc_hd__buf_1
*CAP
1 *3796:D 0.00045808
2 *3563:X 0.00045808
3 *3796:D *3453:A2 0
4 *3796:D *3477:A1 6.10115e-05
5 *3796:D *3544:A0 0
6 *3796:D *3773:CLK 7.76491e-05
7 *3796:D *3865:CLK 0.000170523
8 *3796:D *562:43 1.24368e-05
9 *3796:D *562:47 4.72818e-05
10 *3796:D *562:56 0.000118339
11 *3796:D *633:45 6.46165e-05
12 *3796:D *668:20 9.84605e-05
*RES
1 *3563:X *3796:D 38.6759 
*END

*D_NET *76 0.00156255
*CONN
*I *3797:D I *D sky130_fd_sc_hd__dfxtp_2
*I *3565:X O *D sky130_fd_sc_hd__buf_1
*CAP
1 *3797:D 0.000436189
2 *3565:X 0.000436189
3 *3797:D *3459:A2 8.00806e-05
4 *3797:D *3789:CLK 0.000248493
5 *3797:D *3803:CLK 8.89117e-05
6 *3797:D *4013:A 0.000136286
7 *3797:D *586:47 0.000127484
8 *3797:D *630:14 8.91963e-06
*RES
1 *3565:X *3797:D 37.6893 
*END

*D_NET *77 0.00125384
*CONN
*I *3798:D I *D sky130_fd_sc_hd__dfxtp_2
*I *3567:X O *D sky130_fd_sc_hd__buf_1
*CAP
1 *3798:D 0.000265627
2 *3567:X 0.000265627
3 *3798:D *3468:A1 0.000175519
4 *3798:D *3556:S 2.6913e-05
5 *3798:D *3566:S 5.33005e-05
6 *3798:D *442:37 0.000362517
7 *3798:D *602:49 1.64343e-05
8 *3798:D *635:10 2.45881e-05
9 *3798:D *667:31 1.76204e-05
10 *3798:D *722:76 4.56977e-05
*RES
1 *3567:X *3798:D 33.8009 
*END

*D_NET *78 0.00206822
*CONN
*I *3799:D I *D sky130_fd_sc_hd__dfxtp_2
*I *3569:X O *D sky130_fd_sc_hd__buf_1
*CAP
1 *3799:D 0.000380436
2 *3569:X 0.000380436
3 *3799:D *3586:A0 0.000212185
4 *3799:D *3791:CLK 0.000125717
5 *3799:D *3799:CLK 0.000336009
6 *3799:D *452:37 0.000260375
7 *3799:D *662:40 0.000100684
8 *3799:D *686:22 0
9 *3799:D *787:10 0.000252387
10 *3791:D *3799:D 1.99881e-05
*RES
1 *3569:X *3799:D 37.85 
*END

*D_NET *79 0.000323803
*CONN
*I *3800:D I *D sky130_fd_sc_hd__dfxtp_2
*I *3573:X O *D sky130_fd_sc_hd__buf_2
*CAP
1 *3800:D 0.000116979
2 *3573:X 0.000116979
3 *3800:D *3416:S1 1.76204e-05
4 *3800:D *3808:CLK 5.57914e-05
5 *3800:D *584:14 1.64343e-05
6 *3800:D *626:10 0
*RES
1 *3573:X *3800:D 30.0152 
*END

*D_NET *80 0.000192348
*CONN
*I *3801:D I *D sky130_fd_sc_hd__dfxtp_2
*I *3575:X O *D sky130_fd_sc_hd__buf_2
*CAP
1 *3801:D 9.35085e-05
2 *3575:X 9.35085e-05
3 *3801:D *686:122 5.33091e-06
*RES
1 *3575:X *3801:D 29.1045 
*END

*D_NET *81 0.000579055
*CONN
*I *3802:D I *D sky130_fd_sc_hd__dfxtp_2
*I *3577:X O *D sky130_fd_sc_hd__buf_2
*CAP
1 *3802:D 0.000235159
2 *3577:X 0.000235159
3 *3802:D *3418:S 0
4 *3802:D *3727:S 0.000108737
*RES
1 *3577:X *3802:D 32.3545 
*END

*D_NET *82 0.00097077
*CONN
*I *3803:D I *D sky130_fd_sc_hd__dfxtp_2
*I *3579:X O *D sky130_fd_sc_hd__buf_2
*CAP
1 *3803:D 0.000328267
2 *3579:X 0.000328267
3 *3803:D *3578:A0 0.000181114
4 *3803:D *3578:A1 7.4057e-06
5 *3803:D *3579:A 2.24804e-05
6 *3803:D *422:39 4.88537e-05
7 *3803:D *452:111 5.1061e-05
8 *3803:D *777:12 3.32132e-06
*RES
1 *3579:X *3803:D 32.5152 
*END

*D_NET *83 0.000552725
*CONN
*I *3804:D I *D sky130_fd_sc_hd__dfxtp_2
*I *3581:X O *D sky130_fd_sc_hd__buf_2
*CAP
1 *3804:D 7.25854e-05
2 *3581:X 7.25854e-05
3 *3804:D *3475:A 0.000194664
4 *3804:D *3481:A2 0.000193135
5 *3804:D *388:22 3.32132e-06
6 *3804:D *652:20 1.64343e-05
*RES
1 *3581:X *3804:D 30.3188 
*END

*D_NET *84 0.00202962
*CONN
*I *3805:D I *D sky130_fd_sc_hd__dfxtp_2
*I *3583:X O *D sky130_fd_sc_hd__buf_2
*CAP
1 *3805:D 0.000265292
2 *3583:X 0.000265292
3 *3805:D *3476:S0 0.000267807
4 *3805:D *3583:A 9.65075e-05
5 *3805:D *3600:A 0.000534373
6 *3805:D *3813:D 0.000363252
7 *3805:D *360:14 4.86923e-05
8 *3805:D *662:40 4.52362e-05
9 *3805:D *666:16 0.000143167
*RES
1 *3583:X *3805:D 38.2295 
*END

*D_NET *85 0.00153972
*CONN
*I *3806:D I *D sky130_fd_sc_hd__dfxtp_2
*I *3585:X O *D sky130_fd_sc_hd__buf_2
*CAP
1 *3806:D 0.000539688
2 *3585:X 0.000539688
3 *3806:D *3574:S 7.59567e-05
4 *3806:D *3806:CLK 0
5 *3806:D *452:117 0.00016132
6 *3806:D *589:10 0
7 *3806:D *589:32 0
8 *3782:D *3806:D 0.000223065
*RES
1 *3585:X *3806:D 38.2295 
*END

*D_NET *86 0.000395203
*CONN
*I *3807:D I *D sky130_fd_sc_hd__dfxtp_2
*I *3587:X O *D sky130_fd_sc_hd__buf_2
*CAP
1 *3807:D 0.000184343
2 *3587:X 0.000184343
3 *3807:D *3474:S1 2.16401e-05
4 *3807:D *3580:S 0
5 *3807:D *363:12 0
6 *3807:D *662:40 4.87669e-06
*RES
1 *3587:X *3807:D 30.2473 
*END

*D_NET *87 0.000995399
*CONN
*I *3808:D I *D sky130_fd_sc_hd__dfxtp_2
*I *3590:X O *D sky130_fd_sc_hd__buf_1
*CAP
1 *3808:D 0.000298556
2 *3590:X 0.000298556
3 *3808:D *3572:A0 0.000174377
4 *3808:D *3572:S 7.40248e-05
5 *3808:D *3590:A 8.5662e-05
6 *3808:D *584:12 6.42242e-05
*RES
1 *3590:X *3808:D 34.1937 
*END

*D_NET *88 0.00119605
*CONN
*I *3809:D I *D sky130_fd_sc_hd__dfxtp_2
*I *3592:X O *D sky130_fd_sc_hd__buf_1
*CAP
1 *3809:D 0.00029747
2 *3592:X 0.00029747
3 *3809:D *3592:A 0.00035667
4 *3809:D *624:8 0.000227927
5 *3809:D *789:10 1.65169e-05
*RES
1 *3592:X *3809:D 24.9438 
*END

*D_NET *89 0.000755826
*CONN
*I *3810:D I *D sky130_fd_sc_hd__dfxtp_2
*I *3594:X O *D sky130_fd_sc_hd__buf_1
*CAP
1 *3810:D 0.000253905
2 *3594:X 0.000253905
3 *3810:D *3434:S0 7.80092e-05
4 *3810:D *3436:A1 2.24405e-05
5 *3810:D *3559:A 0.000147566
*RES
1 *3594:X *3810:D 32.7116 
*END

*D_NET *90 0.00133463
*CONN
*I *3811:D I *D sky130_fd_sc_hd__dfxtp_2
*I *3596:X O *D sky130_fd_sc_hd__buf_1
*CAP
1 *3811:D 0.000352616
2 *3596:X 0.000352616
3 *3811:D *3596:A 0.000352326
4 *3811:D *3729:S 9.59189e-06
5 *3811:D *3795:CLK 0.000183797
6 *3811:D *422:39 0
7 *3811:D *587:12 5.54817e-06
8 *26:20 *3811:D 5.73484e-05
9 *26:22 *3811:D 2.07833e-05
*RES
1 *3596:X *3811:D 37.283 
*END

*D_NET *91 0.000343437
*CONN
*I *3812:D I *D sky130_fd_sc_hd__dfxtp_2
*I *3598:X O *D sky130_fd_sc_hd__buf_1
*CAP
1 *3812:D 0.000137888
2 *3598:X 0.000137888
3 *3812:D *3598:A 1.24368e-05
4 *3812:D *3812:CLK 5.52238e-05
*RES
1 *3598:X *3812:D 20.658 
*END

*D_NET *92 0.00130628
*CONN
*I *3813:D I *D sky130_fd_sc_hd__dfxtp_2
*I *3600:X O *D sky130_fd_sc_hd__buf_1
*CAP
1 *3813:D 0.00019598
2 *3600:X 0.00019598
3 *3813:D *3476:S0 1.15797e-05
4 *3813:D *3600:A 5.97623e-05
5 *3813:D *360:14 0.000479727
6 *3805:D *3813:D 0.000363252
*RES
1 *3600:X *3813:D 34.3723 
*END

*D_NET *93 0.000701522
*CONN
*I *3814:D I *D sky130_fd_sc_hd__dfxtp_2
*I *3602:X O *D sky130_fd_sc_hd__buf_1
*CAP
1 *3814:D 0.000224373
2 *3602:X 0.000224373
3 *3814:D *3574:S 6.63354e-05
4 *3814:D *3584:A0 7.01199e-06
5 *3814:D *3584:A1 7.99677e-06
6 *3814:D *3601:A0 9.27562e-05
7 *3814:D *3602:A 2.29112e-05
8 *3814:D *722:33 5.5764e-05
*RES
1 *3602:X *3814:D 32.3723 
*END

*D_NET *94 0.000650442
*CONN
*I *3815:D I *D sky130_fd_sc_hd__dfxtp_2
*I *3604:X O *D sky130_fd_sc_hd__buf_1
*CAP
1 *3815:D 0.000135218
2 *3604:X 0.000135218
3 *3815:D *3474:S0 0.000231818
4 *3815:D *3587:A 4.84319e-05
5 *3815:D *363:12 9.97552e-05
*RES
1 *3604:X *3815:D 31.158 
*END

*D_NET *95 0.00132952
*CONN
*I *3816:D I *D sky130_fd_sc_hd__dfxtp_2
*I *3607:X O *D sky130_fd_sc_hd__buf_2
*CAP
1 *3816:D 0.000483135
2 *3607:X 0.000483135
3 *3816:D *3607:A 8.86669e-05
4 *3816:D *3623:A0 0
5 *3816:D *3624:A 0.000203203
6 *3816:D *3640:A0 0
7 *3816:D *3641:A 5.49489e-05
8 *3816:D *608:10 1.64343e-05
9 *3816:D *812:8 0
*RES
1 *3607:X *3816:D 35.3545 
*END

*D_NET *96 0.000922763
*CONN
*I *3817:D I *D sky130_fd_sc_hd__dfxtp_2
*I *3609:X O *D sky130_fd_sc_hd__buf_2
*CAP
1 *3817:D 0.000195496
2 *3609:X 0.000195496
3 *3817:D *3975:A 0.000100374
4 *3817:D *3976:A 0.000163455
5 *3817:D *507:46 0.000175512
6 *3817:D *633:25 9.24299e-05
*RES
1 *3609:X *3817:D 32.4795 
*END

*D_NET *97 0.000359176
*CONN
*I *3818:D I *D sky130_fd_sc_hd__dfxtp_2
*I *3611:X O *D sky130_fd_sc_hd__buf_2
*CAP
1 *3818:D 0.000152088
2 *3611:X 0.000152088
3 *3818:D *3644:A1 5.49995e-05
*RES
1 *3611:X *3818:D 29.9438 
*END

*D_NET *98 0.00126911
*CONN
*I *3819:D I *D sky130_fd_sc_hd__dfxtp_2
*I *3613:X O *D sky130_fd_sc_hd__buf_2
*CAP
1 *3819:D 0.000269886
2 *3613:X 0.000269886
3 *3819:D *3446:A3 0.00015091
4 *3819:D *3491:A 0.000475254
5 *3819:D *3629:A1 5.50052e-05
6 *3819:D *3646:A1 1.64343e-05
7 *3819:D *619:21 1.52978e-05
8 *3819:D *632:14 1.64343e-05
9 *3763:D *3819:D 0
*RES
1 *3613:X *3819:D 34.4973 
*END

*D_NET *99 0.00136834
*CONN
*I *3820:D I *D sky130_fd_sc_hd__dfxtp_2
*I *3615:X O *D sky130_fd_sc_hd__buf_2
*CAP
1 *3820:D 0.000334742
2 *3615:X 0.000334742
3 *3820:D *3615:A 3.2033e-05
4 *3820:D *3631:A0 2.04401e-05
5 *3820:D *3820:CLK 7.88641e-05
6 *3820:D *3836:D 0.000101771
7 *3820:D *594:10 7.5802e-05
8 *3820:D *664:34 0.00010074
9 *3820:D *808:12 0.000289204
*RES
1 *3615:X *3820:D 34.7652 
*END

*D_NET *100 0.00141846
*CONN
*I *3821:D I *D sky130_fd_sc_hd__dfxtp_2
*I *3617:X O *D sky130_fd_sc_hd__buf_2
*CAP
1 *3821:D 0.000265397
2 *3617:X 0.000265397
3 *3821:D *3462:A3 0.000214739
4 *3821:D *3648:S 0.000150624
5 *3821:D *3837:D 9.25014e-06
6 *3821:D *591:14 0.000114754
7 *3821:D *591:18 0.000398303
8 *3821:D *633:25 0
*RES
1 *3617:X *3821:D 34.3902 
*END

*D_NET *101 0.000355914
*CONN
*I *3822:D I *D sky130_fd_sc_hd__dfxtp_2
*I *3619:X O *D sky130_fd_sc_hd__buf_2
*CAP
1 *3822:D 0.000137155
2 *3619:X 0.000137155
3 *3822:D *3619:A 0
4 *3822:D *674:8 8.16036e-05
*RES
1 *3619:X *3822:D 30.4036 
*END

*D_NET *102 0.000601857
*CONN
*I *3823:D I *D sky130_fd_sc_hd__dfxtp_2
*I *3621:X O *D sky130_fd_sc_hd__buf_2
*CAP
1 *3823:D 0.000173921
2 *3621:X 0.000173921
3 *3823:D *3621:A 0.000155023
4 *3823:D *3823:CLK 8.63855e-05
5 *3823:D *605:22 1.26059e-05
*RES
1 *3621:X *3823:D 30.9393 
*END

*D_NET *103 0.00045947
*CONN
*I *3824:D I *D sky130_fd_sc_hd__dfxtp_2
*I *3624:X O *D sky130_fd_sc_hd__buf_4
*CAP
1 *3824:D 9.98866e-05
2 *3624:X 9.98866e-05
3 *3824:D *3824:CLK 0.000131481
4 *3824:D *3832:D 0.000128216
*RES
1 *3624:X *3824:D 30.2473 
*END

*D_NET *104 0.00109474
*CONN
*I *3825:D I *D sky130_fd_sc_hd__dfxtp_2
*I *3626:X O *D sky130_fd_sc_hd__buf_4
*CAP
1 *3825:D 0.000259752
2 *3626:X 0.000259752
3 *3825:D *3478:S0 0.000183945
4 *3825:D *3626:A 0.00013662
5 *3825:D *3825:CLK 5.03707e-05
6 *3825:D *525:60 0.000204302
*RES
1 *3626:X *3825:D 35.6 
*END

*D_NET *105 0.000360406
*CONN
*I *3826:D I *D sky130_fd_sc_hd__dfxtp_2
*I *3628:X O *D sky130_fd_sc_hd__buf_4
*CAP
1 *3826:D 0.000166942
2 *3628:X 0.000166942
3 *3826:D *3826:CLK 1.64343e-05
4 *3826:D *3834:CLK 1.00887e-05
*RES
1 *3628:X *3826:D 30.6223 
*END

*D_NET *106 0.000229169
*CONN
*I *3827:D I *D sky130_fd_sc_hd__dfxtp_2
*I *3630:X O *D sky130_fd_sc_hd__buf_4
*CAP
1 *3827:D 0.000105102
2 *3630:X 0.000105102
3 *3827:D *3446:S0 1.64343e-05
4 *3827:D *3446:S1 2.53112e-06
*RES
1 *3630:X *3827:D 29.408 
*END

*D_NET *107 0.000432567
*CONN
*I *3828:D I *D sky130_fd_sc_hd__dfxtp_2
*I *3632:X O *D sky130_fd_sc_hd__buf_4
*CAP
1 *3828:D 0.000162574
2 *3632:X 0.000162574
3 *3828:D *3762:CLK 5.22622e-05
4 *3828:D *3828:CLK 5.51571e-05
*RES
1 *3632:X *3828:D 30.658 
*END

*D_NET *108 0.000833959
*CONN
*I *3829:D I *D sky130_fd_sc_hd__dfxtp_2
*I *3634:X O *D sky130_fd_sc_hd__buf_4
*CAP
1 *3829:D 0.000219594
2 *3634:X 0.000219594
3 *3829:D *3634:A 0.000197385
4 *3829:D *723:38 0.000197385
*RES
1 *3634:X *3829:D 32.783 
*END

*D_NET *109 0.000528388
*CONN
*I *3830:D I *D sky130_fd_sc_hd__dfxtp_2
*I *3636:X O *D sky130_fd_sc_hd__buf_4
*CAP
1 *3830:D 0.000176435
2 *3636:X 0.000176435
3 *3830:D *593:24 0.000175519
*RES
1 *3636:X *3830:D 31.0107 
*END

*D_NET *110 0.000395755
*CONN
*I *3831:D I *D sky130_fd_sc_hd__dfxtp_2
*I *3638:X O *D sky130_fd_sc_hd__buf_4
*CAP
1 *3831:D 0.000130948
2 *3638:X 0.000130948
3 *3831:D *3831:CLK 1.64343e-05
4 *3831:D *605:22 0.000117424
*RES
1 *3638:X *3831:D 30.6223 
*END

*D_NET *111 0.00133844
*CONN
*I *3832:D I *D sky130_fd_sc_hd__dfxtp_2
*I *3641:X O *D sky130_fd_sc_hd__buf_2
*CAP
1 *3832:D 0.000504387
2 *3641:X 0.000504387
3 *3832:D *3641:A 8.75782e-05
4 *3832:D *3824:CLK 2.47319e-05
5 *3832:D *3832:CLK 8.9145e-05
6 *3824:D *3832:D 0.000128216
*RES
1 *3641:X *3832:D 37.658 
*END

*D_NET *112 0.000379056
*CONN
*I *3833:D I *D sky130_fd_sc_hd__dfxtp_2
*I *3643:X O *D sky130_fd_sc_hd__buf_2
*CAP
1 *3833:D 9.68241e-05
2 *3643:X 9.68241e-05
3 *3833:D *3484:S 0.000101117
4 *3833:D *3643:A 5.01213e-05
5 *3833:D *488:48 2.97074e-05
6 *3833:D *623:28 4.46186e-06
*RES
1 *3643:X *3833:D 29.9259 
*END

*D_NET *113 0.000539076
*CONN
*I *3834:D I *D sky130_fd_sc_hd__dfxtp_2
*I *3645:X O *D sky130_fd_sc_hd__buf_2
*CAP
1 *3834:D 0.000201171
2 *3645:X 0.000201171
3 *3834:D *3627:A0 6.98302e-05
4 *3834:D *664:48 3.34672e-05
5 *3834:D *806:8 3.34366e-05
*RES
1 *3645:X *3834:D 31.158 
*END

*D_NET *114 0.000694254
*CONN
*I *3835:D I *D sky130_fd_sc_hd__dfxtp_2
*I *3647:X O *D sky130_fd_sc_hd__buf_2
*CAP
1 *3835:D 0.000243953
2 *3647:X 0.000243953
3 *3835:D *3462:S1 7.88091e-05
4 *3835:D *3629:S 0
5 *3835:D *3835:CLK 4.70437e-05
6 *3835:D *672:24 8.04956e-05
*RES
1 *3647:X *3835:D 31.3902 
*END

*D_NET *115 0.000902198
*CONN
*I *3836:D I *D sky130_fd_sc_hd__dfxtp_2
*I *3649:X O *D sky130_fd_sc_hd__buf_2
*CAP
1 *3836:D 0.000192088
2 *3649:X 0.000192088
3 *3836:D *3764:CLK 4.08637e-05
4 *3836:D *3820:CLK 0.000101771
5 *3836:D *594:25 0.000273617
6 *3820:D *3836:D 0.000101771
*RES
1 *3649:X *3836:D 31.9795 
*END

*D_NET *116 0.000733168
*CONN
*I *3837:D I *D sky130_fd_sc_hd__dfxtp_2
*I *3651:X O *D sky130_fd_sc_hd__buf_2
*CAP
1 *3837:D 0.00014325
2 *3651:X 0.00014325
3 *3837:D *3648:S 0.000189929
4 *3837:D *591:18 0.000188006
5 *3837:D *633:25 5.9483e-05
6 *3821:D *3837:D 9.25014e-06
*RES
1 *3651:X *3837:D 31.658 
*END

*D_NET *117 0.0013144
*CONN
*I *3838:D I *D sky130_fd_sc_hd__dfxtp_2
*I *3653:X O *D sky130_fd_sc_hd__buf_2
*CAP
1 *3838:D 0.000233328
2 *3653:X 0.000233328
3 *3838:D *3761:CLK 0.000128154
4 *3838:D *593:16 0.000230878
5 *3838:D *634:31 0.000488715
*RES
1 *3653:X *3838:D 34.8009 
*END

*D_NET *118 0.000598741
*CONN
*I *3839:D I *D sky130_fd_sc_hd__dfxtp_2
*I *3655:X O *D sky130_fd_sc_hd__buf_2
*CAP
1 *3839:D 0.000216864
2 *3655:X 0.000216864
3 *3839:D *605:22 1.02504e-05
4 *3839:D *605:28 0.000154762
*RES
1 *3655:X *3839:D 31.35 
*END

*D_NET *119 0.000321283
*CONN
*I *3840:D I *D sky130_fd_sc_hd__dfxtp_2
*I *3659:X O *D sky130_fd_sc_hd__buf_1
*CAP
1 *3840:D 0.000125748
2 *3659:X 0.000125748
3 *3840:D *3659:A 1.47872e-05
4 *3840:D *3840:CLK 5.49995e-05
*RES
1 *3659:X *3840:D 20.658 
*END

*D_NET *120 0.00120724
*CONN
*I *3841:D I *D sky130_fd_sc_hd__dfxtp_2
*I *3661:X O *D sky130_fd_sc_hd__buf_1
*CAP
1 *3841:D 0.000156075
2 *3661:X 0.000156075
3 *3841:D *3431:A2 0
4 *3841:D *3870:D 0
5 *3841:D *516:109 0.000447058
6 *3841:D *691:16 0.000448035
*RES
1 *3661:X *3841:D 33.2116 
*END

*D_NET *121 0.00149028
*CONN
*I *3842:D I *D sky130_fd_sc_hd__dfxtp_2
*I *3663:X O *D sky130_fd_sc_hd__buf_1
*CAP
1 *3842:D 0.000180608
2 *3663:X 0.000180608
3 *3842:D *3842:CLK 0.00018372
4 *3842:D *516:57 0.000603561
5 *3842:D *684:50 0.000341788
*RES
1 *3663:X *3842:D 34.8857 
*END

*D_NET *122 0.000683387
*CONN
*I *3843:D I *D sky130_fd_sc_hd__dfxtp_2
*I *3665:X O *D sky130_fd_sc_hd__buf_1
*CAP
1 *3843:D 0.00024523
2 *3665:X 0.00024523
3 *3843:D *3665:A 0
4 *3843:D *3698:A0 0
5 *3843:D *562:262 9.66305e-05
6 *3843:D *619:55 9.62971e-05
*RES
1 *3665:X *3843:D 32.3187 
*END

*D_NET *123 0.000348603
*CONN
*I *3844:D I *D sky130_fd_sc_hd__dfxtp_2
*I *3667:X O *D sky130_fd_sc_hd__buf_1
*CAP
1 *3844:D 0.000126631
2 *3667:X 0.000126631
3 *3844:D *3662:S 2.96945e-05
4 *3844:D *590:34 6.5647e-05
*RES
1 *3667:X *3844:D 20.783 
*END

*D_NET *124 0.00147227
*CONN
*I *3845:D I *D sky130_fd_sc_hd__dfxtp_2
*I *3669:X O *D sky130_fd_sc_hd__buf_1
*CAP
1 *3845:D 0.000197072
2 *3669:X 0.000197072
3 *3845:D *3685:A0 0.000173083
4 *3845:D *488:88 5.71472e-05
5 *3845:D *634:31 6.1684e-05
6 *3845:D *663:43 0.000276989
7 *3845:D *723:62 0.000200406
8 *3845:D *723:90 0.000308819
*RES
1 *3669:X *3845:D 34.533 
*END

*D_NET *125 0.000827947
*CONN
*I *3846:D I *D sky130_fd_sc_hd__dfxtp_2
*I *3671:X O *D sky130_fd_sc_hd__buf_1
*CAP
1 *3846:D 0.000251724
2 *3671:X 0.000251724
3 *3846:D *3471:A2 0.000100006
4 *3846:D *3691:B_N 1.32293e-05
5 *3846:D *507:30 1.48114e-05
6 *3846:D *516:105 9.81617e-05
7 *3846:D *721:10 9.8291e-05
*RES
1 *3671:X *3846:D 31.6938 
*END

*D_NET *126 0.000527766
*CONN
*I *3847:D I *D sky130_fd_sc_hd__dfxtp_2
*I *3673:X O *D sky130_fd_sc_hd__buf_1
*CAP
1 *3847:D 9.62408e-05
2 *3673:X 9.62408e-05
3 *3847:D *3673:A 0.000164362
4 *3847:D *3847:CLK 1.04232e-05
5 *3847:D *592:6 0.0001042
6 *3847:D *592:14 5.62995e-05
*RES
1 *3673:X *3847:D 22.0821 
*END

*D_NET *127 0.000274003
*CONN
*I *3848:D I *D sky130_fd_sc_hd__dfxtp_2
*I *3676:X O *D sky130_fd_sc_hd__buf_1
*CAP
1 *3848:D 7.07429e-05
2 *3676:X 7.07429e-05
3 *3848:D *3659:A 9.96487e-05
4 *3848:D *3709:S 1.64343e-05
5 *3848:D *625:82 1.64343e-05
*RES
1 *3676:X *3848:D 29.1045 
*END

*D_NET *128 0.00139405
*CONN
*I *3849:D I *D sky130_fd_sc_hd__dfxtp_2
*I *3678:X O *D sky130_fd_sc_hd__buf_1
*CAP
1 *3849:D 0.000200959
2 *3678:X 0.000200959
3 *3849:D *3429:S1 6.49509e-05
4 *3849:D *3678:A 0.000506988
5 *3849:D *3711:A1 0.000171505
6 *3849:D *544:32 5.52302e-05
7 *3849:D *599:22 1.64343e-05
8 *3849:D *684:8 3.25078e-05
9 *3849:D *845:10 0.000144512
*RES
1 *3678:X *3849:D 34.8009 
*END

*D_NET *129 0.000413421
*CONN
*I *3850:D I *D sky130_fd_sc_hd__dfxtp_2
*I *3680:X O *D sky130_fd_sc_hd__buf_1
*CAP
1 *3850:D 0.000130183
2 *3680:X 0.000130183
3 *3850:D *3439:A0 0
4 *3850:D *3439:S 0.000153054
*RES
1 *3680:X *3850:D 30.4036 
*END

*D_NET *130 0.000416975
*CONN
*I *3851:D I *D sky130_fd_sc_hd__dfxtp_2
*I *3682:X O *D sky130_fd_sc_hd__buf_1
*CAP
1 *3851:D 0.000104153
2 *3682:X 0.000104153
3 *3851:D *3682:A 7.48644e-05
4 *3851:D *3715:A0 2.93969e-05
5 *3851:D *3715:A1 2.85234e-05
6 *3851:D *3715:S 6.13903e-05
7 *3851:D *3851:CLK 1.00887e-05
8 *3851:D *479:8 4.40513e-06
*RES
1 *3682:X *3851:D 30.4036 
*END

*D_NET *131 0.00104192
*CONN
*I *3852:D I *D sky130_fd_sc_hd__dfxtp_2
*I *3684:X O *D sky130_fd_sc_hd__buf_1
*CAP
1 *3852:D 0.000273203
2 *3684:X 0.000273203
3 *3852:D *3454:S0 2.51935e-05
4 *3852:D *3454:S1 3.22142e-05
5 *3852:D *3456:A0 8.38262e-05
6 *3852:D *3852:CLK 9.96553e-05
7 *3852:D *380:22 8.38262e-05
8 *3852:D *590:25 6.99472e-05
9 *3852:D *690:14 3.56629e-05
10 *3852:D *690:16 6.5185e-05
*RES
1 *3684:X *3852:D 33.533 
*END

*D_NET *132 0.000798222
*CONN
*I *3853:D I *D sky130_fd_sc_hd__dfxtp_2
*I *3686:X O *D sky130_fd_sc_hd__buf_1
*CAP
1 *3853:D 0.000224381
2 *3686:X 0.000224381
3 *3853:D *3702:S 1.9245e-05
4 *3853:D *3719:A0 3.67548e-05
5 *3853:D *3845:CLK 0.00020455
6 *3853:D *597:18 8.89117e-05
*RES
1 *3686:X *3853:D 32.8321 
*END

*D_NET *133 0.000667784
*CONN
*I *3854:D I *D sky130_fd_sc_hd__dfxtp_2
*I *3688:X O *D sky130_fd_sc_hd__buf_1
*CAP
1 *3854:D 0.000236999
2 *3688:X 0.000236999
3 *3854:D *3854:CLK 0.000193787
*RES
1 *3688:X *3854:D 22.0152 
*END

*D_NET *134 0.000329049
*CONN
*I *3855:D I *D sky130_fd_sc_hd__dfxtp_2
*I *3690:X O *D sky130_fd_sc_hd__buf_1
*CAP
1 *3855:D 8.65841e-05
2 *3690:X 8.65841e-05
3 *3855:D *3988:A 0
4 *3855:D *350:57 0.000153054
5 *3855:D *592:14 2.8266e-06
*RES
1 *3690:X *3855:D 29.7116 
*END

*D_NET *135 0.000860651
*CONN
*I *3856:D I *D sky130_fd_sc_hd__dfxtp_2
*I *3693:X O *D sky130_fd_sc_hd__buf_2
*CAP
1 *3856:D 0.000224247
2 *3693:X 0.000224247
3 *3856:D *3420:S0 0
4 *3856:D *3485:A 0.000255141
5 *3856:D *628:22 0.000103716
6 *3760:D *3856:D 5.33005e-05
*RES
1 *3693:X *3856:D 32.2116 
*END

*D_NET *136 0.00103233
*CONN
*I *3857:D I *D sky130_fd_sc_hd__dfxtp_2
*I *3695:X O *D sky130_fd_sc_hd__buf_2
*CAP
1 *3857:D 0.000351584
2 *3695:X 0.000351584
3 *3857:D *3675:A1 0
4 *3857:D *3695:A 4.15914e-05
5 *3857:D *3712:A 0
6 *3857:D *690:14 5.86931e-05
7 *3857:D *837:12 0.000228876
*RES
1 *3695:X *3857:D 34.408 
*END

*D_NET *137 0.000324801
*CONN
*I *3858:D I *D sky130_fd_sc_hd__dfxtp_2
*I *3697:X O *D sky130_fd_sc_hd__buf_2
*CAP
1 *3858:D 0.000135702
2 *3697:X 0.000135702
3 *3858:D *3637:S 5.33978e-05
4 *3858:D *583:12 0
*RES
1 *3697:X *3858:D 29.9259 
*END

*D_NET *138 0.000548921
*CONN
*I *3859:D I *D sky130_fd_sc_hd__dfxtp_2
*I *3699:X O *D sky130_fd_sc_hd__buf_2
*CAP
1 *3859:D 0.000137428
2 *3699:X 0.000137428
3 *3859:D *3685:S 2.7626e-05
4 *3859:D *3827:CLK 0
5 *3859:D *516:41 8.65694e-05
6 *3859:D *598:14 9.25014e-06
7 *3859:D *685:79 0.000150618
*RES
1 *3699:X *3859:D 30.4036 
*END

*D_NET *139 0.000378365
*CONN
*I *3860:D I *D sky130_fd_sc_hd__dfxtp_2
*I *3701:X O *D sky130_fd_sc_hd__buf_2
*CAP
1 *3860:D 0.0001711
2 *3701:X 0.0001711
3 *3860:D *3662:S 4.87669e-06
4 *3860:D *516:57 1.48543e-05
5 *3860:D *590:34 1.64343e-05
6 *3860:D *822:10 0
*RES
1 *3701:X *3860:D 30.2473 
*END

*D_NET *140 0.000247263
*CONN
*I *3861:D I *D sky130_fd_sc_hd__dfxtp_2
*I *3703:X O *D sky130_fd_sc_hd__buf_2
*CAP
1 *3861:D 0.000106751
2 *3703:X 0.000106751
3 *3861:D *633:25 3.37618e-05
*RES
1 *3703:X *3861:D 29.5152 
*END

*D_NET *141 0.000537225
*CONN
*I *3862:D I *D sky130_fd_sc_hd__dfxtp_2
*I *3705:X O *D sky130_fd_sc_hd__buf_2
*CAP
1 *3862:D 9.99591e-05
2 *3705:X 9.99591e-05
3 *3862:D *3705:A 4.6361e-05
4 *3862:D *3862:CLK 0.000145973
5 *3862:D *507:42 0.000144972
*RES
1 *3705:X *3862:D 30.3366 
*END

*D_NET *142 0.000756014
*CONN
*I *3863:D I *D sky130_fd_sc_hd__dfxtp_2
*I *3707:X O *D sky130_fd_sc_hd__buf_2
*CAP
1 *3863:D 0.000148361
2 *3707:X 0.000148361
3 *3863:D *3707:A 0.000198738
4 *3863:D *3863:CLK 5.95099e-05
5 *3863:D *684:31 0.000201044
*RES
1 *3707:X *3863:D 32.8545 
*END

*D_NET *143 0.00107395
*CONN
*I *3864:D I *D sky130_fd_sc_hd__dfxtp_2
*I *3710:X O *D sky130_fd_sc_hd__buf_1
*CAP
1 *3864:D 0.000140374
2 *3710:X 0.000140374
3 *3864:D *3422:S 0.000101777
4 *3864:D *3692:A0 0.000232223
5 *3864:D *3692:S 0.000357426
6 *3864:D *402:14 0.000101777
*RES
1 *3710:X *3864:D 32.3902 
*END

*D_NET *144 0.000231573
*CONN
*I *3865:D I *D sky130_fd_sc_hd__dfxtp_2
*I *3712:X O *D sky130_fd_sc_hd__buf_1
*CAP
1 *3865:D 5.63115e-05
2 *3712:X 5.63115e-05
3 *3865:D *3675:S 1.76204e-05
4 *3865:D *3712:A 5.01213e-05
5 *3865:D *3865:CLK 3.47737e-05
6 *3865:D *684:21 1.64343e-05
*RES
1 *3712:X *3865:D 29.1045 
*END

*D_NET *145 0.000689883
*CONN
*I *3866:D I *D sky130_fd_sc_hd__dfxtp_2
*I *3714:X O *D sky130_fd_sc_hd__buf_1
*CAP
1 *3866:D 0.000168995
2 *3714:X 0.000168995
3 *3866:D *3437:A2 9.56968e-05
4 *3866:D *3696:S 2.89114e-05
5 *3866:D *3713:A0 1.12578e-05
6 *3866:D *583:12 3.93374e-05
7 *3866:D *621:10 1.12323e-05
8 *3866:D *621:16 6.54117e-05
9 *3866:D *621:96 0.000100047
*RES
1 *3714:X *3866:D 32.0687 
*END

*D_NET *146 0.000853245
*CONN
*I *3867:D I *D sky130_fd_sc_hd__dfxtp_2
*I *3716:X O *D sky130_fd_sc_hd__buf_1
*CAP
1 *3867:D 0.000237841
2 *3716:X 0.000237841
3 *3867:D *3445:S1 5.92278e-05
4 *3867:D *3716:A 0.000117381
5 *3867:D *488:65 0.000100478
6 *3867:D *663:26 0.000100478
*RES
1 *3716:X *3867:D 31.6938 
*END

*D_NET *147 0.000461962
*CONN
*I *3868:D I *D sky130_fd_sc_hd__dfxtp_2
*I *3718:X O *D sky130_fd_sc_hd__buf_1
*CAP
1 *3868:D 0.000230981
2 *3718:X 0.000230981
3 *3868:D *3437:A0 0
*RES
1 *3718:X *3868:D 31.3545 
*END

*D_NET *148 0.00109736
*CONN
*I *3869:D I *D sky130_fd_sc_hd__dfxtp_2
*I *3720:X O *D sky130_fd_sc_hd__buf_1
*CAP
1 *3869:D 0.000379135
2 *3720:X 0.000379135
3 *3869:D *562:214 0.000119466
4 *3869:D *685:34 0.00021962
*RES
1 *3720:X *3869:D 34.033 
*END

*D_NET *149 0.000882297
*CONN
*I *3870:D I *D sky130_fd_sc_hd__dfxtp_2
*I *3722:X O *D sky130_fd_sc_hd__buf_1
*CAP
1 *3870:D 0.000368084
2 *3722:X 0.000368084
3 *3870:D *599:18 0.00014613
4 *3841:D *3870:D 0
*RES
1 *3722:X *3870:D 33.6045 
*END

*D_NET *150 0.000586706
*CONN
*I *3871:D I *D sky130_fd_sc_hd__dfxtp_2
*I *3724:X O *D sky130_fd_sc_hd__buf_1
*CAP
1 *3871:D 0.000199327
2 *3724:X 0.000199327
3 *3871:D *3724:A 5.80423e-05
4 *3871:D *3871:CLK 0.00013001
*RES
1 *3724:X *3871:D 22.3009 
*END

*D_NET *151 0.000374765
*CONN
*I *3872:D I *D sky130_fd_sc_hd__dfxtp_2
*I *3728:X O *D sky130_fd_sc_hd__buf_1
*CAP
1 *3872:D 0.000108998
2 *3728:X 0.000108998
3 *3872:D *3744:S 0
4 *3872:D *626:18 5.52238e-05
5 *3872:D *628:20 0.000101545
*RES
1 *3728:X *3872:D 29.6402 
*END

*D_NET *152 0.00205116
*CONN
*I *3873:D I *D sky130_fd_sc_hd__dfxtp_2
*I *3730:X O *D sky130_fd_sc_hd__buf_1
*CAP
1 *3873:D 0.000760501
2 *3730:X 0.000760501
3 *3873:D *3730:A 4.53889e-05
4 *3873:D *3774:CLK 1.93007e-05
5 *3873:D *3970:A 8.07068e-05
6 *3873:D *587:42 0.000185034
7 *3873:D *699:52 0.000186094
8 *3774:D *3873:D 1.36318e-05
*RES
1 *3730:X *3873:D 38.3545 
*END

*D_NET *153 0.000783511
*CONN
*I *3874:D I *D sky130_fd_sc_hd__dfxtp_2
*I *3732:X O *D sky130_fd_sc_hd__buf_1
*CAP
1 *3874:D 0.000163004
2 *3732:X 0.000163004
3 *3874:D *3882:CLK 0.00014913
4 *3874:D *3882:D 0.000291939
5 *3874:D *614:52 1.64343e-05
*RES
1 *3732:X *3874:D 32.0687 
*END

*D_NET *154 0.00137831
*CONN
*I *3875:D I *D sky130_fd_sc_hd__dfxtp_2
*I *3734:X O *D sky130_fd_sc_hd__buf_1
*CAP
1 *3875:D 0.000260088
2 *3734:X 0.000260088
3 *3875:D *3517:A_N 0.000210233
4 *3875:D *3517:C 5.52238e-05
5 *3875:D *3734:A 3.75959e-05
6 *3875:D *413:54 0.000308594
7 *3875:D *422:10 2.24195e-05
8 *3875:D *662:12 8.47289e-05
9 *3875:D *687:78 0.000139337
*RES
1 *3734:X *3875:D 35.5464 
*END

*D_NET *155 0.000497782
*CONN
*I *3876:D I *D sky130_fd_sc_hd__dfxtp_2
*I *3736:X O *D sky130_fd_sc_hd__buf_1
*CAP
1 *3876:D 0.000176616
2 *3736:X 0.000176616
3 *3876:D *3450:A2 8.25843e-06
4 *3876:D *3856:CLK 2.78509e-05
5 *3876:D *609:25 0.00010844
*RES
1 *3736:X *3876:D 21.1938 
*END

*D_NET *156 0.00038183
*CONN
*I *3877:D I *D sky130_fd_sc_hd__dfxtp_2
*I *3738:X O *D sky130_fd_sc_hd__buf_1
*CAP
1 *3877:D 0.000134906
2 *3738:X 0.000134906
3 *3877:D *3458:A0 7.99677e-06
4 *3877:D *3460:A1 0
5 *3877:D *452:14 9.25014e-06
6 *3877:D *681:44 7.01199e-06
7 *3877:D *687:78 5.52238e-05
8 *3877:D *865:12 3.2534e-05
9 *26:22 *3877:D 0
*RES
1 *3738:X *3877:D 29.9438 
*END

*D_NET *157 0.00038413
*CONN
*I *3878:D I *D sky130_fd_sc_hd__dfxtp_2
*I *3740:X O *D sky130_fd_sc_hd__buf_1
*CAP
1 *3878:D 0.000162465
2 *3740:X 0.000162465
3 *3878:D *3443:S1 0
4 *3878:D *3473:A1 5.9199e-05
5 *3878:D *602:32 0
*RES
1 *3740:X *3878:D 30.4259 
*END

*D_NET *158 0.00127595
*CONN
*I *3879:D I *D sky130_fd_sc_hd__dfxtp_2
*I *3742:X O *D sky130_fd_sc_hd__buf_1
*CAP
1 *3879:D 0.000318169
2 *3742:X 0.000318169
3 *3879:D *3758:A0 0.000150618
4 *3879:D *544:61 0.000240487
5 *3879:D *628:22 0
6 *3879:D *867:8 0.000248509
*RES
1 *3742:X *3879:D 35.1045 
*END

*D_NET *159 0.000242245
*CONN
*I *3880:D I *D sky130_fd_sc_hd__dfxtp_2
*I *3745:X O *D sky130_fd_sc_hd__buf_1
*CAP
1 *3880:D 0.000121123
2 *3745:X 0.000121123
*RES
1 *3745:X *3880:D 29.5152 
*END

*D_NET *160 0.00244606
*CONN
*I *3881:D I *D sky130_fd_sc_hd__dfxtp_2
*I *3747:X O *D sky130_fd_sc_hd__buf_1
*CAP
1 *3881:D 0.000362914
2 *3747:X 0.000362914
3 *3881:D *3476:S0 0.000401677
4 *3881:D *3503:A0 0.000451352
5 *3881:D *3746:A0 7.71871e-05
6 *3881:D *3747:A 0.000108163
7 *3881:D *4026:A 0.00015739
8 *3881:D *624:42 0.000195562
9 *3881:D *749:10 0.000328904
*RES
1 *3747:X *3881:D 40.658 
*END

*D_NET *161 0.00208281
*CONN
*I *3882:D I *D sky130_fd_sc_hd__dfxtp_2
*I *3749:X O *D sky130_fd_sc_hd__buf_1
*CAP
1 *3882:D 0.000364553
2 *3749:X 0.000364553
3 *3882:D *3748:A0 0.00050054
4 *3882:D *3882:CLK 8.08376e-05
5 *3882:D *614:37 5.4031e-05
6 *3882:D *622:12 5.72374e-05
7 *3882:D *628:22 0
8 *3882:D *862:10 0.000369118
9 *3874:D *3882:D 0.000291939
*RES
1 *3749:X *3882:D 40.033 
*END

*D_NET *162 0.000504206
*CONN
*I *3883:D I *D sky130_fd_sc_hd__dfxtp_2
*I *3751:X O *D sky130_fd_sc_hd__buf_1
*CAP
1 *3883:D 0.00011478
2 *3751:X 0.00011478
3 *3883:D *3442:A2 0.000148531
4 *3883:D *3751:A 8.11485e-05
5 *3883:D *3883:CLK 1.64343e-05
6 *3883:D *395:16 0
7 *3883:D *729:78 2.85321e-05
*RES
1 *3751:X *3883:D 30.2473 
*END

*D_NET *163 0.00117017
*CONN
*I *3884:D I *D sky130_fd_sc_hd__dfxtp_2
*I *3753:X O *D sky130_fd_sc_hd__buf_1
*CAP
1 *3884:D 0.000343091
2 *3753:X 0.000343091
3 *3884:D *3441:A 5.68713e-05
4 *3884:D *3510:A 0.000369818
5 *3884:D *609:60 5.7298e-05
6 *3884:D *636:17 0
*RES
1 *3753:X *3884:D 34.908 
*END

*D_NET *164 0.000245816
*CONN
*I *3885:D I *D sky130_fd_sc_hd__dfxtp_2
*I *3755:X O *D sky130_fd_sc_hd__buf_1
*CAP
1 *3885:D 6.95287e-05
2 *3755:X 6.95287e-05
3 *3885:D *3755:A 0.000103437
4 *3885:D *668:12 3.32132e-06
*RES
1 *3755:X *3885:D 29.1045 
*END

*D_NET *165 0.00211615
*CONN
*I *3886:D I *D sky130_fd_sc_hd__dfxtp_2
*I *3757:X O *D sky130_fd_sc_hd__buf_1
*CAP
1 *3886:D 0.000840947
2 *3757:X 0.000840947
3 *3886:D *3757:A 4.01768e-05
4 *3886:D *3886:CLK 1.64343e-05
5 *3886:D *4050:A 4.01768e-05
6 *3886:D *667:27 0.000194073
7 *3886:D *722:6 9.4578e-05
8 *3886:D *722:8 8.25843e-06
9 *3886:D *722:16 4.05548e-05
*RES
1 *3757:X *3886:D 39.6223 
*END

*D_NET *166 0.000434298
*CONN
*I *3887:D I *D sky130_fd_sc_hd__dfxtp_2
*I *3759:X O *D sky130_fd_sc_hd__buf_1
*CAP
1 *3887:D 0.000102328
2 *3759:X 0.000102328
3 *3887:D *4098:A 2.31078e-05
4 *3887:D *636:17 0.000103267
5 *3887:D *668:41 0.000103267
*RES
1 *3759:X *3887:D 29.9259 
*END

*D_NET *167 0.000900337
*CONN
*I *3257:A2 I *D sky130_fd_sc_hd__a21o_2
*I *3217:A I *D sky130_fd_sc_hd__nand2_2
*I *3216:Y O *D sky130_fd_sc_hd__nand3b_2
*CAP
1 *3257:A2 0
2 *3217:A 5.18497e-05
3 *3216:Y 0.000169746
4 *167:6 0.000221596
5 *3217:A *442:14 0.00015234
6 *3217:A *727:10 7.83462e-05
7 *167:6 *3257:A1 4.27338e-05
8 *167:6 *3257:B1 0.000183726
*RES
1 *3216:Y *167:6 12.3 
2 *167:6 *3217:A 20.2464 
3 *167:6 *3257:A2 9.3 
*END

*D_NET *168 0.00149186
*CONN
*I *3221:A I *D sky130_fd_sc_hd__nand2_4
*I *3217:Y O *D sky130_fd_sc_hd__nand2_2
*CAP
1 *3221:A 0.000406935
2 *3217:Y 0.000406935
3 *3221:A *442:14 9.24299e-05
4 *3221:A *727:10 0.000585561
*RES
1 *3217:Y *3221:A 36.7786 
*END

*D_NET *169 0.00608722
*CONN
*I *3369:A1 I *D sky130_fd_sc_hd__o2111a_2
*I *3226:A1 I *D sky130_fd_sc_hd__o21ai_2
*I *3220:A I *D sky130_fd_sc_hd__nand4_2
*I *3255:A I *D sky130_fd_sc_hd__xor2_2
*I *3257:A1 I *D sky130_fd_sc_hd__a21o_2
*I *3218:Y O *D sky130_fd_sc_hd__inv_2
*CAP
1 *3369:A1 6.03747e-05
2 *3226:A1 2.04634e-05
3 *3220:A 0.000944731
4 *3255:A 0
5 *3257:A1 0.000472189
6 *3218:Y 0.00050814
7 *169:48 0.000103775
8 *169:35 0.00140951
9 *169:10 0.00053849
10 *3220:A *3220:C 0.000266479
11 *3220:A *3222:A 4.16984e-05
12 *3220:A *3222:B 2.47724e-05
13 *3220:A *3222:D 0.000235473
14 *3220:A *172:6 0.000108528
15 *3226:A1 *172:6 5.52302e-05
16 *3257:A1 *3257:B1 0.000314257
17 *3257:A1 *3258:B 4.87854e-05
18 *3369:A1 *3369:A2 5.33978e-05
19 *3369:A1 *3372:A1 5.90911e-05
20 *3369:A1 *3942:CLK 1.24402e-05
21 *3369:A1 *729:20 0.000190815
22 *169:10 *3255:B 4.79842e-05
23 *169:10 *681:22 5.57914e-05
24 *169:10 *729:20 0
25 *169:35 *3942:CLK 9.73841e-05
26 *169:35 *729:20 0.000270943
27 *169:48 *3942:CLK 2.97756e-05
28 *169:48 *729:20 7.39741e-05
29 *167:6 *3257:A1 4.27338e-05
*RES
1 *3218:Y *169:10 20.2464 
2 *169:10 *3257:A1 17.6571 
3 *169:10 *3255:A 9.3 
4 *3218:Y *169:35 21.0857 
5 *169:35 *3220:A 26.1571 
6 *169:35 *169:48 1.03571 
7 *169:48 *3226:A1 14.3357 
8 *169:48 *3369:A1 16.3536 
*END

*D_NET *170 0.00202422
*CONN
*I *3222:A I *D sky130_fd_sc_hd__nand4_2
*I *3220:B I *D sky130_fd_sc_hd__nand4_2
*I *3249:A1 I *D sky130_fd_sc_hd__a21oi_2
*I *3256:A1 I *D sky130_fd_sc_hd__a311o_2
*I *3219:Y O *D sky130_fd_sc_hd__inv_2
*CAP
1 *3222:A 0.000114148
2 *3220:B 0
3 *3249:A1 0.000160499
4 *3256:A1 0.000133568
5 *3219:Y 0.000133568
6 *170:39 0.000171049
7 *170:22 0.0002174
8 *3222:A *3220:C 7.27536e-05
9 *3222:A *3220:D 5.52302e-05
10 *3222:A *3222:B 0.000311196
11 *3222:A *3222:D 2.47631e-06
12 *3249:A1 *3219:A 6.95085e-05
13 *3249:A1 *3249:A2 5.03772e-05
14 *3249:A1 *696:8 0
15 *3256:A1 *3219:A 2.45626e-05
16 *3256:A1 *683:38 0.000137931
17 *3256:A1 *683:44 1.02504e-05
18 *3256:A1 *726:25 0.000145753
19 *170:39 *726:25 0.000127439
20 *170:39 *727:10 4.48113e-05
21 *3220:A *3222:A 4.16984e-05
*RES
1 *3219:Y *3256:A1 30.4929 
2 *3219:Y *170:22 9.3 
3 *170:22 *3249:A1 12.3357 
4 *170:22 *170:39 10.6429 
5 *170:39 *3220:B 9.3 
6 *170:39 *3222:A 13.1571 
*END

*D_NET *171 0.000468371
*CONN
*I *3221:B I *D sky130_fd_sc_hd__nand2_4
*I *3220:Y O *D sky130_fd_sc_hd__nand4_2
*CAP
1 *3221:B 8.13194e-05
2 *3220:Y 8.13194e-05
3 *3221:B *3228:A_N 0.000152033
4 *3221:B *683:38 0.0001537
*RES
1 *3220:Y *3221:B 30.0821 
*END

*D_NET *172 0.00106879
*CONN
*I *3226:A2 I *D sky130_fd_sc_hd__o21ai_2
*I *3369:A2 I *D sky130_fd_sc_hd__o2111a_2
*I *3222:Y O *D sky130_fd_sc_hd__nand4_2
*CAP
1 *3226:A2 7.71995e-05
2 *3369:A2 3.82669e-05
3 *3222:Y 0.000256063
4 *172:6 0.000371529
5 *3226:A2 *3340:B 0
6 *3226:A2 *176:14 0
7 *3369:A2 *3942:CLK 0.000103267
8 *172:6 *3222:D 5.30637e-06
9 *3220:A *172:6 0.000108528
10 *3226:A1 *172:6 5.52302e-05
11 *3369:A1 *3369:A2 5.33978e-05
*RES
1 *3222:Y *172:6 13.9429 
2 *172:6 *3369:A2 19.6393 
3 *172:6 *3226:A2 10.5679 
*END

*D_NET *173 0.0147768
*CONN
*I *3225:A I *D sky130_fd_sc_hd__nand2_2
*I *3257:B1 I *D sky130_fd_sc_hd__a21o_2
*I *3231:A1 I *D sky130_fd_sc_hd__o21ai_2
*I *3421:A I *D sky130_fd_sc_hd__clkbuf_1
*I *3463:S I *D sky130_fd_sc_hd__mux2_2
*I *3447:S I *D sky130_fd_sc_hd__mux2_2
*I *3223:Y O *D sky130_fd_sc_hd__inv_2
*CAP
1 *3225:A 0.00017882
2 *3257:B1 0.000382492
3 *3231:A1 4.56665e-05
4 *3421:A 0
5 *3463:S 0.000170231
6 *3447:S 0.000201981
7 *3223:Y 0.000657909
8 *173:71 0.000654979
9 *173:60 0.00075015
10 *173:29 0.00141361
11 *173:10 0.00264307
12 *173:8 0.00124481
13 *3225:A *874:6 0.000113295
14 *3231:A1 *3231:B1 7.25873e-06
15 *3231:A1 *729:54 4.84159e-05
16 *3257:B1 *3224:B 7.27028e-05
17 *3257:B1 *3224:D 0.000224599
18 *3257:B1 *3259:A 0.000128146
19 *3257:B1 *681:22 2.11543e-05
20 *3257:B1 *683:44 0
21 *3257:B1 *697:19 1.19309e-05
22 *3257:B1 *715:31 2.31791e-05
23 *3257:B1 *726:25 0
24 *3447:S *632:25 0.000340466
25 *3463:S *3635:S 3.14003e-05
26 *3463:S *562:248 7.17807e-05
27 *3463:S *685:18 5.49657e-05
28 *173:8 *681:22 2.59355e-05
29 *173:10 *3553:A 5.92161e-05
30 *173:10 *373:14 0
31 *173:10 *632:25 0.00284157
32 *173:10 *683:59 0.000496863
33 *173:10 *869:14 0.000462835
34 *173:29 *3635:S 5.33005e-05
35 *173:29 *4087:A 3.14948e-05
36 *173:29 *562:204 0.000218197
37 *173:60 *681:22 0.000423724
38 *173:60 *726:25 0
39 *173:71 *681:22 0.000172672
40 *173:71 *726:25 0
41 *3257:A1 *3257:B1 0.000314257
42 *167:6 *3257:B1 0.000183726
*RES
1 *3223:Y *173:8 14.3357 
2 *173:8 *173:10 36.25 
3 *173:10 *3447:S 18.7107 
4 *173:10 *173:29 24.0714 
5 *173:29 *3463:S 21.6036 
6 *173:29 *3421:A 9.3 
7 *3223:Y *173:60 24.9607 
8 *173:60 *3231:A1 14.7464 
9 *173:60 *173:71 2.25 
10 *173:71 *3257:B1 24.3 
11 *173:71 *3225:A 17.2286 
*END

*D_NET *174 0.00092248
*CONN
*I *3225:B I *D sky130_fd_sc_hd__nand2_2
*I *3231:A2 I *D sky130_fd_sc_hd__o21ai_2
*I *3224:Y O *D sky130_fd_sc_hd__nand4b_2
*CAP
1 *3225:B 0
2 *3231:A2 0.000177333
3 *3224:Y 0.000110878
4 *174:10 0.00028821
5 *3231:A2 *3904:CLK 5.50052e-05
6 *3231:A2 *3935:D 6.09945e-05
7 *3231:A2 *180:20 6.80946e-05
8 *3231:A2 *681:22 0
9 *3231:A2 *729:54 5.23735e-05
10 *174:10 *3935:D 2.19684e-05
11 *174:10 *642:30 1.40415e-05
12 *174:10 *681:22 7.35817e-05
13 *174:10 *729:20 0
14 *174:10 *873:8 0
*RES
1 *3224:Y *174:10 16.2821 
2 *174:10 *3231:A2 17.7286 
3 *174:10 *3225:B 13.8 
*END

*D_NET *175 0.00244995
*CONN
*I *3369:D1 I *D sky130_fd_sc_hd__o2111a_2
*I *3226:B1 I *D sky130_fd_sc_hd__o21ai_2
*I *3260:B I *D sky130_fd_sc_hd__xor2_2
*I *3225:Y O *D sky130_fd_sc_hd__nand2_2
*CAP
1 *3369:D1 0.000152994
2 *3226:B1 0
3 *3260:B 0.000744993
4 *3225:Y 0.000133133
5 *175:22 0.000764855
6 *3260:B *874:6 3.69047e-06
7 *3260:B *874:21 0.000102776
8 *3369:D1 *3369:B1 2.85234e-05
9 *3369:D1 *3372:A1 5.49995e-05
10 *3369:D1 *3942:CLK 0
11 *3369:D1 *178:27 0
12 *3369:D1 *272:8 7.43001e-05
13 *175:22 *3909:RESET_B 0.000150625
14 *175:22 *3942:CLK 0
15 *175:22 *3942:D 0
16 *175:22 *178:27 0
17 *175:22 *712:24 0.000189448
18 *175:22 *729:46 0
19 *175:22 *873:8 0
20 *175:22 *874:21 4.96155e-05
*RES
1 *3225:Y *3260:B 12.2554 
2 *3260:B *175:22 17.0446 
3 *175:22 *3226:B1 13.8 
4 *175:22 *3369:D1 17.1929 
*END

*D_NET *176 0.00524168
*CONN
*I *3370:A I *D sky130_fd_sc_hd__and3_2
*I *3227:A I *D sky130_fd_sc_hd__inv_2
*I *3373:A I *D sky130_fd_sc_hd__and3_2
*I *3226:Y O *D sky130_fd_sc_hd__o21ai_2
*CAP
1 *3370:A 0
2 *3227:A 0.000299937
3 *3373:A 0
4 *3226:Y 0.000753099
5 *176:27 0.000631207
6 *176:14 0.00108437
7 *3227:A *3370:C 5.37741e-06
8 *3227:A *3941:RESET_B 0.00033405
9 *176:14 *3340:A 0.000271026
10 *176:14 *3340:B 3.43495e-05
11 *176:14 *3359:B 3.29297e-05
12 *176:14 *3364:C1 6.14702e-06
13 *176:14 *3373:B 6.13903e-05
14 *176:14 *3373:C 5.24684e-06
15 *176:14 *271:10 9.99853e-05
16 *176:14 *281:10 8.11955e-05
17 *176:14 *287:10 0.000404795
18 *176:14 *561:13 0
19 *176:14 *895:22 2.89114e-05
20 *176:14 *895:24 0.000139522
21 *176:27 *3359:B 0.000116183
22 *176:27 *3374:C 7.6644e-05
23 *176:27 *281:10 0.000286734
24 *176:27 *281:38 9.22948e-05
25 *176:27 *304:22 4.01319e-05
26 *176:27 *733:37 0.000356152
27 *3226:A2 *176:14 0
*RES
1 *3226:Y *176:14 29.6929 
2 *176:14 *3373:A 13.8 
3 *176:14 *176:27 12.8929 
4 *176:27 *3227:A 24.3357 
5 *176:27 *3370:A 9.3 
*END

*D_NET *177 0.00209003
*CONN
*I *3229:D I *D sky130_fd_sc_hd__nand4_4
*I *3250:A I *D sky130_fd_sc_hd__nor2_8
*I *3366:A1_N I *D sky130_fd_sc_hd__a2bb2oi_2
*I *3228:X O *D sky130_fd_sc_hd__and3b_4
*CAP
1 *3229:D 4.85818e-05
2 *3250:A 0.000106971
3 *3366:A1_N 0.000186345
4 *3228:X 2.53543e-05
5 *177:10 0.000496048
6 *177:6 0.000276669
7 *3229:D *3228:C 9.58689e-05
8 *3229:D *683:30 2.85321e-05
9 *3229:D *683:38 9.86486e-06
10 *3250:A *3250:B 0
11 *3250:A *3468:S 0.00015134
12 *3250:A *726:12 0
13 *3366:A1_N *3473:A1 0.000139009
14 *177:6 *3228:A_N 2.85234e-05
15 *177:6 *3228:C 9.84673e-05
16 *177:6 *683:38 1.35553e-05
17 *177:10 *3468:S 0.000384899
18 *177:10 *726:12 0
*RES
1 *3228:X *177:6 10.2464 
2 *177:6 *177:10 9.48214 
3 *177:10 *3366:A1_N 17.2286 
4 *177:10 *3250:A 16.3536 
5 *177:6 *3229:D 10.675 
*END

*D_NET *178 0.00938555
*CONN
*I *3390:A I *D sky130_fd_sc_hd__and3_2
*I *3234:B I *D sky130_fd_sc_hd__xnor2_4
*I *3232:A I *D sky130_fd_sc_hd__nand2_2
*I *3384:A I *D sky130_fd_sc_hd__and4_2
*I *3229:Y O *D sky130_fd_sc_hd__nand4_4
*CAP
1 *3390:A 2.2712e-05
2 *3234:B 0.000392562
3 *3232:A 0
4 *3384:A 0.000589812
5 *3229:Y 0.000264326
6 *178:27 0.00126075
7 *178:6 0.00169961
8 *3234:B *3233:A 5.49489e-05
9 *3234:B *3407:B1 0
10 *3234:B *180:33 0.00116404
11 *3234:B *181:23 0.000607304
12 *3234:B *561:59 9.24299e-05
13 *3384:A *3359:B 7.09928e-05
14 *3384:A *3359:C 0.000180145
15 *3384:A *3391:A1 0.000360971
16 *3384:A *3391:A2 2.38501e-05
17 *3384:A *304:22 0.000345104
18 *178:6 *3352:B 0.0001826
19 *178:6 *3352:C 2.71191e-05
20 *178:6 *3941:CLK 0.000221058
21 *178:6 *284:10 0.000474073
22 *178:6 *291:10 0.000440705
23 *178:6 *729:20 1.29901e-05
24 *178:27 *3232:B 5.65955e-05
25 *178:27 *3233:A 5.49544e-05
26 *178:27 *3352:A 4.16876e-06
27 *178:27 *3352:B 3.12359e-05
28 *178:27 *3352:C 0.000468863
29 *178:27 *3359:A 1.21398e-05
30 *178:27 *180:33 1.32056e-05
31 *178:27 *271:10 6.93435e-05
32 *178:27 *271:21 2.51903e-05
33 *178:27 *272:8 0
34 *178:27 *894:25 0.000161746
35 *3369:D1 *178:27 0
36 *175:22 *178:27 0
*RES
1 *3229:Y *178:6 17.6393 
2 *178:6 *3384:A 22.9964 
3 *178:6 *178:27 25.9107 
4 *178:27 *3232:A 9.3 
5 *178:27 *3234:B 31.7643 
6 *3384:A *3390:A 19.1357 
*END

*D_NET *179 0.000765804
*CONN
*I *3231:B1 I *D sky130_fd_sc_hd__o21ai_2
*I *3423:A I *D sky130_fd_sc_hd__buf_1
*I *3230:Y O *D sky130_fd_sc_hd__inv_2
*CAP
1 *3231:B1 9.09998e-05
2 *3423:A 0.000120451
3 *3230:Y 0
4 *179:4 0.000211451
5 *3231:B1 *729:54 2.80345e-05
6 *3231:B1 *729:78 5.66971e-05
7 *3423:A *726:25 0.00015244
8 *3423:A *729:78 9.84729e-05
9 *3231:A1 *3231:B1 7.25873e-06
*RES
1 *3230:Y *179:4 9.3 
2 *179:4 *3423:A 21.1929 
3 *179:4 *3231:B1 11.0679 
*END

*D_NET *180 0.0115268
*CONN
*I *3390:B I *D sky130_fd_sc_hd__and3_2
*I *3384:B I *D sky130_fd_sc_hd__and4_2
*I *3261:B I *D sky130_fd_sc_hd__xor2_2
*I *3232:B I *D sky130_fd_sc_hd__nand2_2
*I *3231:Y O *D sky130_fd_sc_hd__o21ai_2
*CAP
1 *3390:B 0.000206269
2 *3384:B 0
3 *3261:B 0.000459189
4 *3232:B 5.09523e-05
5 *3231:Y 0.00138424
6 *180:42 0.000684222
7 *180:33 0.00171891
8 *180:20 0.00221696
9 *3232:B *3233:A 2.90487e-05
10 *3232:B *3942:D 5.49489e-05
11 *3261:B *3404:B 0.00015244
12 *3261:B *3407:B1 0
13 *3261:B *3937:D 3.45899e-05
14 *3261:B *561:59 0
15 *3261:B *897:10 9.36295e-05
16 *3261:B *897:19 0.000393182
17 *3390:B *3384:C 1.25924e-05
18 *3390:B *3387:A1_N 2.53112e-06
19 *3390:B *3391:A1 0.000226266
20 *3390:B *327:29 0.00011858
21 *180:20 *3909:RESET_B 0
22 *180:20 *3942:D 0.000351554
23 *180:20 *563:10 4.35849e-05
24 *180:20 *681:22 4.69377e-05
25 *180:20 *894:25 0.000526979
26 *180:42 *3384:C 3.34634e-05
27 *180:42 *3385:B 0.000145441
28 *180:42 *3407:B1 0
29 *180:42 *277:60 2.11693e-05
30 *180:42 *327:29 0.000898021
31 *180:42 *897:19 0.000232226
32 *180:42 *897:43 8.69051e-05
33 *3231:A2 *180:20 6.80946e-05
34 *3234:B *180:33 0.00116404
35 *178:27 *3232:B 5.65955e-05
36 *178:27 *180:33 1.32056e-05
*RES
1 *3231:Y *180:20 36.4355 
2 *180:20 *3232:B 10.675 
3 *180:20 *180:33 19 
4 *180:33 *3261:B 16.1607 
5 *180:33 *180:42 14.3929 
6 *180:42 *3384:B 13.8 
7 *180:42 *3390:B 17.6214 
*END

*D_NET *181 0.00544529
*CONN
*I *3385:A I *D sky130_fd_sc_hd__and3_2
*I *3388:A I *D sky130_fd_sc_hd__and3_2
*I *3233:A I *D sky130_fd_sc_hd__inv_2
*I *3232:Y O *D sky130_fd_sc_hd__nand2_2
*CAP
1 *3385:A 0
2 *3388:A 9.60526e-05
3 *3233:A 0.000122028
4 *3232:Y 0
5 *181:23 0.0013011
6 *181:4 0.00132707
7 *3233:A *3942:D 3.18747e-05
8 *3388:A *3384:C 5.62306e-05
9 *3388:A *3384:D 5.50052e-05
10 *3388:A *3385:C 9.15842e-06
11 *3388:A *3391:A1 1.84865e-05
12 *3388:A *278:47 2.45881e-05
13 *181:23 *3349:A 5.49995e-05
14 *181:23 *3350:B 9.84673e-05
15 *181:23 *3350:C 5.66971e-05
16 *181:23 *3355:D 0
17 *181:23 *3385:C 0.000214087
18 *181:23 *3390:C 0.000438411
19 *181:23 *3405:A 0
20 *181:23 *282:10 0.000101771
21 *181:23 *290:18 0.000252692
22 *181:23 *561:13 0.000440311
23 *181:23 *566:10 0
24 *3232:B *3233:A 2.90487e-05
25 *3234:B *3233:A 5.49489e-05
26 *3234:B *181:23 0.000607304
27 *178:27 *3233:A 5.49544e-05
*RES
1 *3232:Y *181:4 9.3 
2 *181:4 *3233:A 11.9071 
3 *181:4 *181:23 37.8393 
4 *181:23 *3388:A 20.4786 
5 *181:23 *3385:A 9.3 
*END

*D_NET *182 0.000653066
*CONN
*I *3236:A I *D sky130_fd_sc_hd__buf_6
*I *3235:X O *D sky130_fd_sc_hd__and3b_2
*CAP
1 *3236:A 0.000160577
2 *3235:X 0.000160577
3 *3236:A *3920:CLK 0
4 *3236:A *603:8 5.33334e-05
5 *3236:A *643:16 3.80953e-06
6 *3236:A *708:39 0.000126439
7 *3236:A *884:14 0.000148331
*RES
1 *3235:X *3236:A 30.9036 
*END

*D_NET *183 0.00555818
*CONN
*I *3242:A1 I *D sky130_fd_sc_hd__a21oi_4
*I *3244:A3 I *D sky130_fd_sc_hd__a31o_2
*I *3269:A I *D sky130_fd_sc_hd__buf_1
*I *3243:D I *D sky130_fd_sc_hd__nand4_2
*I *3241:A2 I *D sky130_fd_sc_hd__a21oi_4
*I *3239:A2 I *D sky130_fd_sc_hd__a21oi_4
*I *3236:X O *D sky130_fd_sc_hd__buf_6
*CAP
1 *3242:A1 0.000287361
2 *3244:A3 0.000100322
3 *3269:A 0
4 *3243:D 1.21804e-05
5 *3241:A2 0.000399922
6 *3239:A2 0.000253477
7 *3236:X 0
8 *183:38 0.000145932
9 *183:23 0.000428665
10 *183:4 0.000536151
11 *3239:A2 *3241:A1 5.26091e-05
12 *3239:A2 *3412:B 0
13 *3239:A2 *3413:A 5.7616e-05
14 *3239:A2 *885:10 0.000583453
15 *3241:A2 *3241:A1 5.49544e-05
16 *3241:A2 *3412:B 1.93007e-05
17 *3241:A2 *3986:A 4.16438e-05
18 *3241:A2 *706:44 3.71614e-05
19 *3242:A1 *3241:A1 2.62395e-05
20 *3242:A1 *3241:B1 0.000137983
21 *3242:A1 *3412:B 0.000260574
22 *3242:A1 *3925:CLK 1.40034e-05
23 *3242:A1 *187:8 0.000260272
24 *3242:A1 *187:14 1.76039e-05
25 *3242:A1 *202:10 0.000530229
26 *3243:D *3243:B 5.49489e-05
27 *3243:D *3987:A 5.49489e-05
28 *3244:A3 *3243:B 0.000127651
29 *3244:A3 *3244:A2 0.000122284
30 *3244:A3 *3267:A 2.45012e-05
31 *3244:A3 *3987:A 0.000180951
32 *3244:A3 *189:8 0.000122284
33 *3244:A3 *202:8 2.28598e-05
34 *183:23 *3243:B 0.000272325
35 *183:23 *188:83 9.83388e-05
36 *183:23 *637:10 5.1061e-05
37 *183:23 *708:86 0.000140933
38 *183:38 *3244:A2 5.79582e-06
39 *183:38 *3986:A 1.3457e-05
40 *183:38 *706:44 8.18233e-06
*RES
1 *3236:X *183:4 9.3 
2 *183:4 *3239:A2 25.7107 
3 *183:4 *183:23 10.5179 
4 *183:23 *3241:A2 16.2821 
5 *183:23 *183:38 5.23214 
6 *183:38 *3243:D 9.83571 
7 *183:38 *3269:A 9.3 
8 *183:38 *3244:A3 22.0143 
9 *3241:A2 *3242:A1 37.4214 
*END

*D_NET *184 0.00610376
*CONN
*I *3482:D I *D sky130_fd_sc_hd__and4bb_2
*I *3285:A I *D sky130_fd_sc_hd__and4_4
*I *3262:A1 I *D sky130_fd_sc_hd__a21o_2
*I *3251:A I *D sky130_fd_sc_hd__and3_2
*I *3238:A1 I *D sky130_fd_sc_hd__a31oi_2
*I *3252:A1 I *D sky130_fd_sc_hd__a21oi_2
*I *3237:Y O *D sky130_fd_sc_hd__inv_2
*CAP
1 *3482:D 0.000364618
2 *3285:A 0
3 *3262:A1 0.000208799
4 *3251:A 7.25413e-05
5 *3238:A1 0
6 *3252:A1 0.000208059
7 *3237:Y 0.000573472
8 *184:40 0.000397943
9 *184:36 0.000116603
10 *184:18 0.000591208
11 *184:10 0.000592004
12 *3251:A *3708:B 9.90367e-05
13 *3251:A *218:39 4.08637e-05
14 *3251:A *869:71 4.58194e-05
15 *3252:A1 *3238:A2 6.72467e-05
16 *3252:A1 *3238:A3 0.000160898
17 *3252:A1 *3238:B1 0
18 *3252:A1 *3252:A2 5.62995e-05
19 *3252:A1 *3285:D 5.33005e-05
20 *3252:A1 *3708:A_N 0
21 *3252:A1 *194:10 0.000186662
22 *3262:A1 *3252:B1 0.00012401
23 *3262:A1 *3262:B1 0.00022459
24 *3262:A1 *3264:A 0.000112777
25 *3262:A1 *3285:D 5.41797e-06
26 *3482:D *3237:A 9.60939e-05
27 *3482:D *3482:B_N 0.000225609
28 *3482:D *3482:C 5.52238e-05
29 *3482:D *707:6 5.33005e-05
30 *3482:D *708:41 2.28499e-05
31 *3482:D *708:45 0.000164903
32 *184:10 *3237:A 6.42145e-05
33 *184:10 *3285:B 2.49484e-05
34 *184:10 *193:14 0
35 *184:10 *708:41 6.42095e-05
36 *184:10 *708:45 2.89114e-05
37 *184:18 *3237:A 3.07555e-05
38 *184:18 *3238:A2 5.06269e-05
39 *184:18 *3238:B1 8.49024e-05
40 *184:18 *3262:B1 2.58997e-05
41 *184:18 *3285:D 9.01775e-06
42 *184:18 *3929:CLK 7.83659e-05
43 *184:18 *185:21 6.05161e-06
44 *184:18 *218:39 0.000247291
45 *184:18 *714:34 0
46 *184:18 *714:52 0
47 *184:40 *3235:C 8.23523e-05
48 *184:40 *3285:D 5.52302e-05
49 *184:40 *218:39 0.000263524
50 *184:40 *637:14 1.21258e-05
51 *184:40 *869:71 5.51819e-05
*RES
1 *3237:Y *184:10 17.2107 
2 *184:10 *184:18 11.375 
3 *184:18 *3252:A1 14.6929 
4 *184:18 *3238:A1 9.3 
5 *184:10 *184:36 4.5 
6 *184:36 *184:40 3.42857 
7 *184:40 *3251:A 11.0857 
8 *184:40 *3262:A1 22.1214 
9 *184:36 *3285:A 9.3 
10 *3237:Y *3482:D 25.7071 
*END

*D_NET *185 0.00342673
*CONN
*I *3239:B1 I *D sky130_fd_sc_hd__a21oi_4
*I *3265:B I *D sky130_fd_sc_hd__xnor2_2
*I *4089:A I *D sky130_fd_sc_hd__clkbuf_2
*I *3263:A1 I *D sky130_fd_sc_hd__a22o_2
*I *3238:Y O *D sky130_fd_sc_hd__a31oi_2
*CAP
1 *3239:B1 0
2 *3265:B 0.000316212
3 *4089:A 0
4 *3263:A1 0.000134086
5 *3238:Y 0
6 *185:31 0.000707523
7 *185:21 0.000565078
8 *185:4 0.000307852
9 *3263:A1 *3238:B1 5.83304e-05
10 *3263:A1 *3929:CLK 0.000171375
11 *3263:A1 *4034:A 4.87953e-05
12 *3263:A1 *218:39 5.84267e-05
13 *3265:B *643:16 0.000401744
14 *185:21 *3238:B1 2.59355e-05
15 *185:21 *3285:D 1.21258e-05
16 *185:21 *714:34 5.33433e-05
17 *185:31 *3929:CLK 3.06878e-06
18 *185:31 *3930:D 0.000140933
19 *185:31 *3931:CLK 0.000126439
20 *185:31 *603:10 0.000122047
21 *185:31 *643:16 1.82657e-05
22 *185:31 *714:34 0.000131481
23 *185:31 *714:52 1.76135e-05
24 *184:18 *185:21 6.05161e-06
*RES
1 *3238:Y *185:4 9.3 
2 *185:4 *3263:A1 21.4964 
3 *185:4 *185:21 3.01786 
4 *185:21 *185:31 16.1964 
5 *185:31 *4089:A 9.3 
6 *185:31 *3265:B 16.4071 
7 *185:21 *3239:B1 9.3 
*END

*D_NET *186 0.00394981
*CONN
*I *3242:A2 I *D sky130_fd_sc_hd__a21oi_4
*I *3277:A2 I *D sky130_fd_sc_hd__a22o_2
*I *3334:A2 I *D sky130_fd_sc_hd__a221o_2
*I *3240:X O *D sky130_fd_sc_hd__and2_2
*CAP
1 *3242:A2 2.87843e-05
2 *3277:A2 8.3637e-06
3 *3334:A2 0.000119507
4 *3240:X 0.000205509
5 *186:10 0.000525599
6 *186:6 0.000632021
7 *3242:A2 *3242:B1 2.59355e-05
8 *3277:A2 *3277:B1 1.46576e-05
9 *3334:A2 *3334:A1 7.38748e-05
10 *3334:A2 *3334:B1 1.33343e-05
11 *3334:A2 *187:14 0.00015421
12 *3334:A2 *187:35 9.39604e-05
13 *3334:A2 *205:23 1.57155e-05
14 *3334:A2 *210:10 3.80904e-05
15 *186:6 *3242:B1 0.000223173
16 *186:6 *706:14 9.41114e-05
17 *186:10 *3334:A1 2.45046e-05
18 *186:10 *187:14 0.00111138
19 *186:10 *202:10 0.000547078
*RES
1 *3240:X *186:6 13.5321 
2 *186:6 *186:10 18.8929 
3 *186:10 *3334:A2 17.3402 
4 *186:10 *3277:A2 13.9473 
5 *186:6 *3242:A2 9.83571 
*END

*D_NET *187 0.00666874
*CONN
*I *3266:B I *D sky130_fd_sc_hd__xnor2_2
*I *3242:B1 I *D sky130_fd_sc_hd__a21oi_4
*I *3298:A2 I *D sky130_fd_sc_hd__o22ai_2
*I *3310:A1 I *D sky130_fd_sc_hd__o221ai_2
*I *3334:C1 I *D sky130_fd_sc_hd__a221o_2
*I *3241:Y O *D sky130_fd_sc_hd__a21oi_4
*CAP
1 *3266:B 0.000106752
2 *3242:B1 0.000172175
3 *3298:A2 0
4 *3310:A1 0.000184178
5 *3334:C1 0.000155057
6 *3241:Y 0
7 *187:35 0.000322958
8 *187:14 0.000988322
9 *187:8 0.00114135
10 *187:6 0.000381443
11 *3242:B1 *706:14 9.41642e-05
12 *3266:B *3330:B 0
13 *3266:B *3925:CLK 0
14 *3266:B *202:10 3.84385e-05
15 *3266:B *202:54 2.19778e-05
16 *3310:A1 *3298:B1 5.7616e-05
17 *3310:A1 *3310:A2 0.000105163
18 *3310:A1 *3310:B2 1.3701e-05
19 *3310:A1 *205:40 5.59013e-05
20 *3310:A1 *231:14 8.10293e-05
21 *3334:C1 *3334:A1 6.46382e-05
22 *3334:C1 *3334:B2 1.25686e-05
23 *187:8 *3330:B 0
24 *187:8 *3931:RESET_B 0.000150625
25 *187:8 *4035:A 5.33978e-05
26 *187:8 *202:10 2.60158e-05
27 *187:14 *3291:A1 6.13812e-05
28 *187:14 *3334:A1 1.98839e-05
29 *187:14 *3334:B1 7.49387e-06
30 *187:14 *4035:A 0.000134748
31 *187:14 *202:10 4.038e-06
32 *187:14 *205:17 0
33 *187:14 *205:23 0
34 *187:14 *206:18 2.2927e-05
35 *187:14 *210:10 7.83659e-05
36 *187:35 *3298:B1 2.31791e-05
37 *187:35 *3334:A1 3.34295e-05
38 *187:35 *3334:B2 2.26424e-05
39 *187:35 *205:40 0.000129868
40 *187:35 *210:10 1.67773e-05
41 *3242:A1 *187:8 0.000260272
42 *3242:A1 *187:14 1.76039e-05
43 *3242:A2 *3242:B1 2.59355e-05
44 *3334:A2 *187:14 0.00015421
45 *3334:A2 *187:35 9.39604e-05
46 *186:6 *3242:B1 0.000223173
47 *186:10 *187:14 0.00111138
*RES
1 *3241:Y *187:6 13.8 
2 *187:6 *187:8 7.41071 
3 *187:8 *187:14 22.2679 
4 *187:14 *3334:C1 11.9429 
5 *187:14 *187:35 8.32143 
6 *187:35 *3310:A1 17.9607 
7 *187:35 *3298:A2 13.8 
8 *187:8 *3242:B1 17.3536 
9 *187:6 *3266:B 16.05 
*END

*D_NET *188 0.0087764
*CONN
*I *3300:A I *D sky130_fd_sc_hd__and3_4
*I *3301:A1 I *D sky130_fd_sc_hd__a21oi_2
*I *3267:C I *D sky130_fd_sc_hd__and3_2
*I *3588:A I *D sky130_fd_sc_hd__buf_2
*I *3247:B I *D sky130_fd_sc_hd__xor2_2
*I *3245:A I *D sky130_fd_sc_hd__and2_2
*I *3243:Y O *D sky130_fd_sc_hd__nand4_2
*CAP
1 *3300:A 7.12435e-05
2 *3301:A1 0
3 *3267:C 4.70455e-05
4 *3588:A 0.000356346
5 *3247:B 0
6 *3245:A 0
7 *3243:Y 0.000900057
8 *188:83 0.000788701
9 *188:43 0.000593936
10 *188:33 0.000679227
11 *188:12 0.000577191
12 *3267:C *3267:B 9.33978e-07
13 *3300:A *3300:B 0.000183726
14 *3300:A *3301:A2 5.49995e-05
15 *3300:A *3301:B1 5.50052e-05
16 *3300:A *234:12 1.47872e-05
17 *3588:A *3268:A2 0.000357004
18 *3588:A *3268:B1_N 6.16864e-05
19 *3588:A *3908:D 0.000334674
20 *3588:A *3927:D 0.000354851
21 *3588:A *3990:A 0.000103041
22 *3588:A *374:10 8.48112e-05
23 *3588:A *903:21 3.51442e-05
24 *188:12 *3241:A1 0
25 *188:12 *3243:C 0.00016774
26 *188:12 *3244:A1 5.48781e-05
27 *188:12 *3245:B 5.33005e-05
28 *188:12 *3412:B 8.50765e-05
29 *188:33 *3244:A1 0.000111628
30 *188:33 *3245:B 0.000111855
31 *188:33 *3412:B 4.08637e-05
32 *188:33 *4031:A 0.000188563
33 *188:33 *572:10 1.60846e-05
34 *188:33 *702:33 0.00010831
35 *188:43 *3267:A 9.21972e-06
36 *188:43 *3267:B 0.000167489
37 *188:43 *3268:B1_N 0.000280519
38 *188:43 *3990:A 9.25014e-06
39 *188:43 *903:21 9.95404e-05
40 *188:83 *3243:B 3.88213e-05
41 *188:83 *3301:A2 3.34366e-05
42 *188:83 *189:8 0.00104024
43 *188:83 *202:8 9.58126e-05
44 *188:83 *706:44 0.000311021
45 *183:23 *188:83 9.83388e-05
*RES
1 *3243:Y *188:12 21.9964 
2 *188:12 *3245:A 9.3 
3 *188:12 *188:33 17.3929 
4 *188:33 *188:43 12.1964 
5 *188:43 *3247:B 4.5 
6 *188:43 *3588:A 25.3179 
7 *188:33 *3267:C 9.83571 
8 *3243:Y *188:83 34.675 
9 *188:83 *3301:A1 9.3 
10 *188:83 *3300:A 11.4786 
*END

*D_NET *189 0.00569999
*CONN
*I *3245:B I *D sky130_fd_sc_hd__and2_2
*I *3267:A I *D sky130_fd_sc_hd__and3_2
*I *3300:B I *D sky130_fd_sc_hd__and3_4
*I *3301:A2 I *D sky130_fd_sc_hd__a21oi_2
*I *3244:X O *D sky130_fd_sc_hd__a31o_2
*CAP
1 *3245:B 0.000163634
2 *3267:A 0.000224959
3 *3300:B 0.000143751
4 *3301:A2 0.00010098
5 *3244:X 0.000163634
6 *189:8 0.000654551
7 *189:6 0.00063478
8 *3245:B *3243:C 0.000137561
9 *3245:B *3412:B 1.98839e-05
10 *3245:B *202:54 0.000224514
11 *3245:B *702:27 0.000271233
12 *3245:B *702:33 9.58181e-05
13 *3267:A *3266:A 3.02801e-05
14 *3267:A *3267:B 2.69483e-05
15 *3267:A *702:14 0.000174073
16 *3300:B *3301:B1 4.11486e-05
17 *3301:A2 *202:10 1.60607e-05
18 *189:8 *3241:B1 0.00016384
19 *189:8 *3244:A2 1.08359e-05
20 *189:8 *3266:A 6.14524e-05
21 *189:8 *202:10 0.000140284
22 *189:8 *202:54 1.50181e-05
23 *189:8 *706:8 0.000173083
24 *189:8 *706:34 0.000356439
25 *189:8 *706:44 2.16719e-05
26 *3244:A3 *3267:A 2.45012e-05
27 *3244:A3 *189:8 0.000122284
28 *3300:A *3300:B 0.000183726
29 *3300:A *3301:A2 5.49995e-05
30 *188:12 *3245:B 5.33005e-05
31 *188:33 *3245:B 0.000111855
32 *188:43 *3267:A 9.21972e-06
33 *188:83 *3301:A2 3.34366e-05
34 *188:83 *189:8 0.00104024
*RES
1 *3244:X *189:6 13.8 
2 *189:6 *189:8 15.9107 
3 *189:8 *3301:A2 15.8893 
4 *189:8 *3300:B 16.3893 
5 *189:6 *3267:A 18.6393 
6 *3244:X *3245:B 24.4929 
*END

*D_NET *190 0.00138101
*CONN
*I *3246:A I *D sky130_fd_sc_hd__buf_1
*I *3245:X O *D sky130_fd_sc_hd__and2_2
*CAP
1 *3246:A 0.000432684
2 *3245:X 0.000432684
3 *3246:A *3932:D 0
4 *3246:A *4031:A 4.45458e-05
5 *3246:A *202:54 9.75171e-05
6 *3246:A *562:302 7.07407e-05
7 *3246:A *562:308 3.92589e-05
8 *3246:A *573:14 0.000222878
9 *3246:A *606:10 0
10 *3246:A *885:10 4.0698e-05
*RES
1 *3245:X *3246:A 36.7071 
*END

*D_NET *191 0.00496803
*CONN
*I *3332:B I *D sky130_fd_sc_hd__xor2_2
*I *3248:A I *D sky130_fd_sc_hd__inv_2
*I *3330:B I *D sky130_fd_sc_hd__xnor2_2
*I *3247:X O *D sky130_fd_sc_hd__xor2_2
*CAP
1 *3332:B 5.14844e-05
2 *3248:A 2.52229e-05
3 *3330:B 0.00114034
4 *3247:X 0.000206068
5 *191:10 0.00132015
6 *3248:A *3933:CLK 5.52238e-05
7 *3330:B *3271:A 4.88637e-05
8 *3330:B *3271:B 0.000144773
9 *3330:B *3413:B 0.000197984
10 *3330:B *3921:CLK 0
11 *3330:B *3925:CLK 0.000315798
12 *3330:B *3925:D 4.95514e-05
13 *3330:B *3931:RESET_B 0
14 *3330:B *3933:RESET_B 0
15 *3330:B *4032:A 4.07423e-05
16 *3330:B *4035:A 0
17 *3330:B *204:10 9.90431e-05
18 *3330:B *607:22 0
19 *3330:B *717:14 8.40012e-05
20 *3330:B *717:29 0.000839168
21 *3332:B *886:16 0.000174805
22 *3332:B *887:12 0.000116481
23 *3332:B *887:14 5.83233e-05
24 *191:10 *3268:A2 0
25 *191:10 *3916:D 0
26 *191:10 *3933:RESET_B 0
27 *191:10 *607:18 0
28 *3266:B *3330:B 0
29 *187:8 *3330:B 0
*RES
1 *3247:X *191:10 17.1036 
2 *191:10 *3330:B 40.0143 
3 *191:10 *3248:A 14.3357 
4 *3330:B *3332:B 20.55 
*END

*D_NET *192 0.00148041
*CONN
*I *4088:A I *D sky130_fd_sc_hd__buf_2
*I *3255:B I *D sky130_fd_sc_hd__xor2_2
*I *3249:Y O *D sky130_fd_sc_hd__a21oi_2
*CAP
1 *4088:A 0
2 *3255:B 0.000263183
3 *3249:Y 0.000161176
4 *192:8 0.000424359
5 *3255:B *681:22 0
6 *3255:B *687:24 0
7 *3255:B *729:20 0
8 *192:8 *3249:A2 6.05161e-06
9 *192:8 *4027:A 5.52238e-05
10 *192:8 *642:45 8.43535e-06
11 *192:8 *675:10 0.000355002
12 *192:8 *696:8 0.000158991
13 *169:10 *3255:B 4.79842e-05
*RES
1 *3249:Y *192:8 13.9607 
2 *192:8 *3255:B 13.9821 
3 *192:8 *4088:A 9.3 
*END

*D_NET *193 0.00946717
*CONN
*I *3605:D_N I *D sky130_fd_sc_hd__nor4b_4
*I *3253:A I *D sky130_fd_sc_hd__or2_2
*I *3295:A1 I *D sky130_fd_sc_hd__o211ai_2
*I *3674:C I *D sky130_fd_sc_hd__and4bb_2
*I *3552:D I *D sky130_fd_sc_hd__and4b_2
*I *3743:D I *D sky130_fd_sc_hd__and4bb_2
*I *3251:X O *D sky130_fd_sc_hd__and3_2
*CAP
1 *3605:D_N 0.000377475
2 *3253:A 0
3 *3295:A1 0.000128065
4 *3674:C 0
5 *3552:D 0.000106877
6 *3743:D 0
7 *3251:X 0.000112596
8 *193:51 0.000380647
9 *193:45 0.000844305
10 *193:18 0.000134387
11 *193:14 0.00118177
12 *193:8 0.0014811
13 *3295:A1 *3295:A2 0.000193825
14 *3295:A1 *194:10 1.99099e-05
15 *3295:A1 *195:10 0.000413757
16 *3552:D *3552:B 5.33005e-05
17 *3552:D *3725:A_N 0.000195152
18 *3552:D *700:105 5.33005e-05
19 *3552:D *701:10 0.000185183
20 *3552:D *701:84 5.1588e-05
21 *3552:D *705:78 4.48931e-05
22 *3605:D_N *3252:B1 6.54117e-05
23 *3605:D_N *3262:A2 5.52302e-05
24 *3605:D_N *3262:B1 0.000139332
25 *3605:D_N *3263:A2 0.000392019
26 *3605:D_N *3264:A 0.000102374
27 *3605:D_N *3285:D 5.41797e-06
28 *3605:D_N *869:14 1.98839e-05
29 *193:8 *3708:B 0.000268396
30 *193:8 *218:39 0.000139913
31 *193:8 *637:16 0.000304387
32 *193:14 *3237:A 0
33 *193:14 *3264:A 0.000333925
34 *193:14 *3285:B 6.8646e-06
35 *193:14 *3674:B_N 9.75171e-05
36 *193:14 *3691:A_N 0.000105216
37 *193:14 *498:16 3.18747e-05
38 *193:14 *714:52 0
39 *193:18 *701:10 7.89362e-05
40 *193:18 *705:78 7.74135e-05
41 *193:45 *3263:A2 3.24989e-05
42 *193:45 *3264:A 1.87004e-05
43 *193:45 *3285:B 8.00806e-05
44 *193:45 *3285:D 9.64979e-05
45 *193:45 *218:39 0.000142372
46 *193:51 *3263:A2 0.000300388
47 *193:51 *3264:A 1.46717e-05
48 *193:51 *194:10 0
49 *193:51 *195:10 8.25512e-05
50 *193:51 *218:39 0.000517167
51 *184:10 *193:14 0
*RES
1 *3251:X *193:8 17.6214 
2 *193:8 *193:14 21.7857 
3 *193:14 *193:18 5.53571 
4 *193:18 *3743:D 13.8 
5 *193:18 *3552:D 17.4964 
6 *193:14 *3674:C 9.3 
7 *193:8 *193:45 4.86607 
8 *193:45 *193:51 12.0982 
9 *193:51 *3295:A1 23.5857 
10 *193:51 *3253:A 9.3 
11 *193:45 *3605:D_N 26.9106 
*END

*D_NET *194 0.00194067
*CONN
*I *3253:B I *D sky130_fd_sc_hd__or2_2
*I *3295:A2 I *D sky130_fd_sc_hd__o211ai_2
*I *3252:Y O *D sky130_fd_sc_hd__a21oi_2
*CAP
1 *3253:B 0
2 *3295:A2 0.000350527
3 *3252:Y 0.000321814
4 *194:10 0.000672341
5 *3295:A2 *632:25 0
6 *194:10 *3264:A 0.000175512
7 *194:10 *195:10 2.00751e-05
8 *194:10 *632:25 0
9 *3252:A1 *194:10 0.000186662
10 *3295:A1 *3295:A2 0.000193825
11 *3295:A1 *194:10 1.99099e-05
12 *193:51 *194:10 0
*RES
1 *3252:Y *194:10 20.2464 
2 *194:10 *3295:A2 20.6571 
3 *194:10 *3253:B 13.8 
*END

*D_NET *195 0.00427574
*CONN
*I *3263:B1 I *D sky130_fd_sc_hd__a22o_2
*I *3254:A I *D sky130_fd_sc_hd__inv_2
*I *3326:A2 I *D sky130_fd_sc_hd__o22ai_2
*I *3253:X O *D sky130_fd_sc_hd__or2_2
*CAP
1 *3263:B1 0.000128968
2 *3254:A 1.55834e-05
3 *3326:A2 0.000137666
4 *3253:X 0
5 *195:10 0.000780558
6 *195:4 0.000756276
7 *3254:A *3979:A 5.52238e-05
8 *3254:A *4000:A 1.92789e-05
9 *3263:B1 *3929:CLK 9.24491e-05
10 *3263:B1 *218:39 0.000175526
11 *3326:A2 *3325:B1 0
12 *3326:A2 *3326:A1 6.48957e-05
13 *3326:A2 *3326:B2 4.46186e-06
14 *195:10 *3294:B1 4.42555e-05
15 *195:10 *3318:B1 0.00021189
16 *195:10 *3320:A1_N 0.000202128
17 *195:10 *3320:A2_N 1.00375e-05
18 *195:10 *3325:B1 0
19 *195:10 *3326:A1 9.48769e-05
20 *195:10 *3929:RESET_B 4.35748e-05
21 *195:10 *4000:A 0.000153047
22 *195:10 *218:39 5.59778e-05
23 *195:10 *225:17 8.13261e-06
24 *195:10 *226:12 0.000335217
25 *195:10 *249:8 0.000319962
26 *195:10 *250:8 4.93749e-05
27 *3295:A1 *195:10 0.000413757
28 *193:51 *195:10 8.25512e-05
29 *194:10 *195:10 2.00751e-05
*RES
1 *3253:X *195:4 9.3 
2 *195:4 *195:10 25.1964 
3 *195:10 *3326:A2 16.5857 
4 *195:10 *3254:A 14.3357 
5 *195:4 *3263:B1 21.4964 
*END

*D_NET *196 0.000817863
*CONN
*I *3258:A I *D sky130_fd_sc_hd__and2_2
*I *3256:X O *D sky130_fd_sc_hd__a311o_2
*CAP
1 *3258:A 0.000164468
2 *3256:X 0.000164468
3 *3258:A *3444:S 6.05161e-06
4 *3258:A *683:44 5.33433e-05
5 *3258:A *726:25 0.000110208
6 *3258:A *727:10 0.000319323
*RES
1 *3256:X *3258:A 32.6179 
*END

*D_NET *197 0.000590313
*CONN
*I *3258:B I *D sky130_fd_sc_hd__and2_2
*I *3257:X O *D sky130_fd_sc_hd__a21o_2
*CAP
1 *3258:B 0.000117724
2 *3257:X 0.000117724
3 *3258:B *683:44 0.00015304
4 *3258:B *726:25 0.00015304
5 *3257:A1 *3258:B 4.87854e-05
*RES
1 *3257:X *3258:B 30.4929 
*END

*D_NET *198 0.000437901
*CONN
*I *3259:A I *D sky130_fd_sc_hd__buf_2
*I *3258:X O *D sky130_fd_sc_hd__and2_2
*CAP
1 *3259:A 0.00013652
2 *3258:X 0.00013652
3 *3259:A *3224:B 3.67142e-05
4 *3259:A *726:25 0
5 *3257:B1 *3259:A 0.000128146
*RES
1 *3258:X *3259:A 30.1893 
*END

*D_NET *199 0.00227966
*CONN
*I *3263:A2 I *D sky130_fd_sc_hd__a22o_2
*I *3262:X O *D sky130_fd_sc_hd__a21o_2
*CAP
1 *3263:A2 0.000303948
2 *3262:X 0.000303948
3 *3263:A2 *3238:B1 0.000216755
4 *3263:A2 *3262:B1 0.000107996
5 *3263:A2 *3264:A 6.39901e-05
6 *3263:A2 *3285:D 0.000215699
7 *3263:A2 *4034:A 3.2127e-05
8 *3263:A2 *869:14 0.000310292
9 *3605:D_N *3263:A2 0.000392019
10 *193:45 *3263:A2 3.24989e-05
11 *193:51 *3263:A2 0.000300388
*RES
1 *3262:X *3263:A2 37.3321 
*END

*D_NET *200 0.00276611
*CONN
*I *3264:A I *D sky130_fd_sc_hd__buf_6
*I *3263:X O *D sky130_fd_sc_hd__a22o_2
*CAP
1 *3264:A 0.000613865
2 *3263:X 0.000613865
3 *3264:A *3252:B1 5.0133e-05
4 *3264:A *3285:D 0.000314964
5 *3264:A *3691:A_N 8.46768e-05
6 *3264:A *4034:A 5.52302e-05
7 *3264:A *202:54 2.85234e-05
8 *3264:A *632:25 0
9 *3264:A *707:29 0.000182901
10 *3262:A1 *3264:A 0.000112777
11 *3263:A2 *3264:A 6.39901e-05
12 *3605:D_N *3264:A 0.000102374
13 *193:14 *3264:A 0.000333925
14 *193:45 *3264:A 1.87004e-05
15 *193:51 *3264:A 1.46717e-05
16 *194:10 *3264:A 0.000175512
*RES
1 *3263:X *3264:A 47.3997 
*END

*D_NET *201 0.00168915
*CONN
*I *3268:B1_N I *D sky130_fd_sc_hd__o21ba_2
*I *3267:X O *D sky130_fd_sc_hd__and3_2
*CAP
1 *3268:B1_N 0.000530376
2 *3267:X 0.000530376
3 *3268:B1_N *3268:A2 5.49489e-05
4 *3268:B1_N *3990:A 0.000202842
5 *3268:B1_N *374:10 2.84026e-05
6 *3588:A *3268:B1_N 6.16864e-05
7 *188:43 *3268:B1_N 0.000280519
*RES
1 *3267:X *3268:B1_N 39.7964 
*END

*D_NET *202 0.0182445
*CONN
*I *3639:C I *D sky130_fd_sc_hd__and4bb_2
*I *3622:D_N I *D sky130_fd_sc_hd__nor4b_4
*I *3500:D I *D sky130_fd_sc_hd__and4bb_2
*I *3517:C I *D sky130_fd_sc_hd__nand4b_1
*I *3570:D I *D sky130_fd_sc_hd__and4b_2
*I *3691:C I *D sky130_fd_sc_hd__and4bb_2
*I *3277:A1 I *D sky130_fd_sc_hd__a22o_2
*I *3334:A1 I *D sky130_fd_sc_hd__a221o_2
*I *3269:X O *D sky130_fd_sc_hd__buf_1
*CAP
1 *3639:C 7.70325e-05
2 *3622:D_N 0.000156066
3 *3500:D 8.09429e-05
4 *3517:C 0.000177775
5 *3570:D 2.84912e-05
6 *3691:C 0
7 *3277:A1 5.27689e-05
8 *3334:A1 0.000199859
9 *3269:X 0.000121393
10 *202:104 0.000501151
11 *202:78 0.000587712
12 *202:65 0.00054751
13 *202:56 0.000240091
14 *202:54 0.00269152
15 *202:10 0.00109295
16 *202:8 0.00333512
17 *3277:A1 *3277:B1 2.89114e-05
18 *3334:A1 *3334:B1 2.59355e-05
19 *3334:A1 *3334:B2 0.000175512
20 *3500:D *3500:B_N 5.49544e-05
21 *3500:D *3500:C 5.33005e-05
22 *3500:D *3517:B 8.46829e-05
23 *3500:D *707:91 1.46231e-05
24 *3517:C *3517:B 0.000351347
25 *3517:C *3571:A 0.000150618
26 *3517:C *413:54 0.000153627
27 *3517:C *422:10 4.58194e-05
28 *3517:C *681:44 1.32552e-05
29 *3517:C *687:78 2.14757e-05
30 *3570:D *352:34 5.52302e-05
31 *3622:D_N *3715:S 8.32242e-05
32 *3622:D_N *525:29 0.000187726
33 *3622:D_N *721:12 0.000142327
34 *3639:C *470:10 9.41642e-05
35 *202:8 *3243:B 5.49489e-05
36 *202:8 *3987:A 6.09804e-05
37 *202:10 *3241:B1 8.68569e-05
38 *202:10 *3280:B1 3.41939e-05
39 *202:10 *3291:A3 0.000148651
40 *202:10 *706:8 8.9163e-05
41 *202:10 *706:34 0.000193184
42 *202:54 *3243:C 0.000137561
43 *202:54 *3266:A 0.000171335
44 *202:54 *3411:A 0.000356677
45 *202:54 *3411:B 9.30929e-05
46 *202:54 *3412:B 0.000149028
47 *202:54 *3925:CLK 0
48 *202:54 *498:22 0.000180124
49 *202:54 *600:8 0.000395382
50 *202:54 *702:14 8.02652e-05
51 *202:54 *702:27 1.35465e-05
52 *202:54 *721:10 2.18021e-05
53 *202:56 *516:24 1.22852e-05
54 *202:56 *516:105 1.34741e-05
55 *202:56 *663:16 2.42406e-05
56 *202:56 *721:10 0.000128378
57 *202:65 *3471:A2 7.7674e-05
58 *202:65 *3691:B_N 0.000332255
59 *202:65 *516:105 1.25275e-05
60 *202:65 *721:10 0.000301185
61 *202:78 *3471:A1 1.94945e-05
62 *202:78 *3471:A2 1.25477e-05
63 *202:78 *3517:D 1.46624e-05
64 *202:78 *3571:A 0
65 *202:78 *3691:B_N 2.63844e-05
66 *202:78 *413:20 0.000245349
67 *202:78 *562:204 0
68 *202:78 *700:12 2.44286e-05
69 *202:78 *700:40 0.000264141
70 *202:78 *703:107 6.8646e-06
71 *202:104 *525:29 0.000352362
72 *202:104 *663:16 0.000114529
73 *202:104 *721:10 5.88556e-05
74 *202:104 *721:12 0.000229076
75 *3242:A1 *202:10 0.000530229
76 *3244:A3 *202:8 2.28598e-05
77 *3245:B *202:54 0.000224514
78 *3246:A *202:54 9.75171e-05
79 *3264:A *202:54 2.85234e-05
80 *3266:B *202:10 3.84385e-05
81 *3266:B *202:54 2.19778e-05
82 *3301:A2 *202:10 1.60607e-05
83 *3334:A2 *3334:A1 7.38748e-05
84 *3334:C1 *3334:A1 6.46382e-05
85 *3875:D *3517:C 5.52238e-05
86 *186:10 *3334:A1 2.45046e-05
87 *186:10 *202:10 0.000547078
88 *187:8 *202:10 2.60158e-05
89 *187:14 *3334:A1 1.98839e-05
90 *187:14 *202:10 4.038e-06
91 *187:35 *3334:A1 3.34295e-05
92 *188:83 *202:8 9.58126e-05
93 *189:8 *202:10 0.000140284
94 *189:8 *202:54 1.50181e-05
*RES
1 *3269:X *202:8 16.3893 
2 *202:8 *202:10 23.1964 
3 *202:10 *3334:A1 18.4607 
4 *202:10 *3277:A1 14.7643 
5 *202:8 *202:54 47.9554 
6 *202:54 *202:56 1.79464 
7 *202:56 *3691:C 13.8 
8 *202:56 *202:65 6.80357 
9 *202:65 *3570:D 14.3357 
10 *202:65 *202:78 12.8214 
11 *202:78 *3517:C 23.7821 
12 *202:78 *3500:D 11.0679 
13 *202:54 *202:104 8.09821 
14 *202:104 *3622:D_N 18.2107 
15 *202:104 *3639:C 14.7464 
*END

*D_NET *203 0.00140679
*CONN
*I *3281:B I *D sky130_fd_sc_hd__nand3_2
*I *3272:A I *D sky130_fd_sc_hd__nand3_2
*I *3299:A I *D sky130_fd_sc_hd__nand2_2
*I *3270:X O *D sky130_fd_sc_hd__or2_4
*CAP
1 *3281:B 0
2 *3272:A 6.4404e-05
3 *3299:A 5.24179e-05
4 *3270:X 5.07628e-05
5 *203:19 0.000139992
6 *203:6 0.000178768
7 *3272:A *3272:B 0.000146261
8 *3272:A *233:16 0.000170026
9 *3299:A *3299:B 5.49995e-05
10 *3299:A *233:16 5.84941e-05
11 *3299:A *234:12 1.98839e-05
12 *203:6 *3299:B 5.33005e-05
13 *203:6 *234:12 6.62144e-05
14 *203:19 *3272:B 1.00887e-05
15 *203:19 *204:12 0.000182771
16 *203:19 *233:16 0.000158407
*RES
1 *3270:X *203:6 10.6571 
2 *203:6 *3299:A 10.675 
3 *203:6 *203:19 7.05357 
4 *203:19 *3272:A 16.05 
5 *203:19 *3281:B 13.8 
*END

*D_NET *204 0.00188064
*CONN
*I *3299:B I *D sky130_fd_sc_hd__nand2_2
*I *3281:C I *D sky130_fd_sc_hd__nand3_2
*I *3272:B I *D sky130_fd_sc_hd__nand3_2
*I *3271:Y O *D sky130_fd_sc_hd__nand2_2
*CAP
1 *3299:B 4.67157e-05
2 *3281:C 0
3 *3272:B 0.000124485
4 *3271:Y 0.00022668
5 *204:12 0.000262043
6 *204:10 0.000410954
7 *3272:B *3272:C 1.02301e-05
8 *3272:B *3278:B 4.40806e-05
9 *3272:B *211:6 0.000136727
10 *3272:B *233:16 5.23822e-05
11 *3272:B *886:22 1.62025e-05
12 *204:10 *3414:A 0
13 *204:10 *4035:A 0
14 *204:12 *3278:B 3.67279e-06
15 *204:12 *3414:A 0
16 *3272:A *3272:B 0.000146261
17 *3299:A *3299:B 5.49995e-05
18 *3330:B *204:10 9.90431e-05
19 *203:6 *3299:B 5.33005e-05
20 *203:19 *3272:B 1.00887e-05
21 *203:19 *204:12 0.000182771
*RES
1 *3271:Y *204:10 17.6036 
2 *204:10 *204:12 2.85714 
3 *204:12 *3272:B 17.5321 
4 *204:12 *3281:C 13.8 
5 *204:10 *3299:B 14.7464 
*END

*D_NET *205 0.00836265
*CONN
*I *3277:B1 I *D sky130_fd_sc_hd__a22o_2
*I *3304:B I *D sky130_fd_sc_hd__and3_4
*I *3284:B I *D sky130_fd_sc_hd__nand3_4
*I *3306:B I *D sky130_fd_sc_hd__and3_2
*I *3305:A1 I *D sky130_fd_sc_hd__a21oi_2
*I *3334:B1 I *D sky130_fd_sc_hd__a221o_2
*I *3288:A I *D sky130_fd_sc_hd__nand3_2
*I *3272:Y O *D sky130_fd_sc_hd__nand3_2
*CAP
1 *3277:B1 0.000268019
2 *3304:B 0.000106932
3 *3284:B 9.81214e-05
4 *3306:B 0.00010513
5 *3305:A1 2.5702e-05
6 *3334:B1 6.029e-05
7 *3288:A 0.000311293
8 *3272:Y 0
9 *205:68 0.000287297
10 *205:55 0.000549339
11 *205:40 0.000971346
12 *205:23 0.000920981
13 *205:17 0.000828458
14 *205:4 0.000594717
15 *3284:B *3284:A 5.45307e-05
16 *3288:A *3272:C 5.49995e-05
17 *3288:A *3280:B1 0.000480187
18 *3288:A *3291:A1 5.66971e-05
19 *3288:A *3291:A2 0.000127921
20 *3288:A *3291:B1 0.000100165
21 *3288:A *224:14 0.000139596
22 *3304:B *3284:C 5.65955e-05
23 *3304:B *3304:C 0.00013017
24 *3305:A1 *3305:B1 5.49489e-05
25 *3306:B *260:20 0.000138571
26 *205:23 *3310:B1 0
27 *205:23 *3336:A1 0.000188586
28 *205:23 *3336:A3 0
29 *205:23 *210:10 0
30 *205:40 *3298:B1 6.16936e-05
31 *205:40 *3305:B1 0.000142856
32 *205:40 *3310:B1 0
33 *205:40 *3313:A2 0.000123903
34 *205:40 *3314:B 0.000153054
35 *205:40 *210:10 0.000127446
36 *205:40 *242:23 0
37 *205:40 *596:42 7.86072e-05
38 *205:55 *3309:A1 5.36422e-05
39 *205:55 *3309:A2 6.97972e-05
40 *205:55 *3309:B1 4.7716e-06
41 *205:55 *209:35 0
42 *205:55 *260:20 0.000308595
43 *205:55 *596:42 0
44 *205:68 *3284:A 0.000119705
45 *205:68 *3304:A 7.6997e-05
46 *205:68 *209:35 3.91783e-05
47 *3277:A1 *3277:B1 2.89114e-05
48 *3277:A2 *3277:B1 1.46576e-05
49 *3310:A1 *205:40 5.59013e-05
50 *3334:A1 *3334:B1 2.59355e-05
51 *3334:A2 *3334:B1 1.33343e-05
52 *3334:A2 *205:23 1.57155e-05
53 *187:14 *3334:B1 7.49387e-06
54 *187:14 *205:17 0
55 *187:14 *205:23 0
56 *187:35 *205:40 0.000129868
*RES
1 *3272:Y *205:4 9.3 
2 *205:4 *3288:A 18.0679 
3 *205:4 *205:17 9.48214 
4 *205:17 *205:23 9.94643 
5 *205:23 *3334:B1 10.2464 
6 *205:23 *205:40 22.0714 
7 *205:40 *3305:A1 9.83571 
8 *205:40 *205:55 15.1607 
9 *205:55 *3306:B 10.6571 
10 *205:55 *205:68 11.25 
11 *205:68 *3284:B 11.0857 
12 *205:68 *3304:B 11.4786 
13 *205:17 *3277:B1 18.05 
*END

*D_NET *206 0.00492386
*CONN
*I *3276:A I *D sky130_fd_sc_hd__nand3_4
*I *3281:A I *D sky130_fd_sc_hd__nand3_2
*I *3290:B1 I *D sky130_fd_sc_hd__o21a_2
*I *3291:A1 I *D sky130_fd_sc_hd__o31ai_2
*I *3273:Y O *D sky130_fd_sc_hd__inv_2
*CAP
1 *3276:A 9.50053e-05
2 *3281:A 1.34337e-05
3 *3290:B1 0.000440891
4 *3291:A1 8.69067e-05
5 *3273:Y 0
6 *206:18 0.000624529
7 *206:8 0.000362641
8 *206:4 0.000347482
9 *3276:A *209:12 4.51148e-05
10 *3290:B1 *3290:A2 0.000244513
11 *3290:B1 *212:6 4.17702e-05
12 *3290:B1 *212:8 0.000208634
13 *3290:B1 *213:6 2.95944e-05
14 *3291:A1 *3280:A1 2.29031e-05
15 *3291:A1 *3291:A2 5.49995e-05
16 *206:8 *3273:A 5.4775e-05
17 *206:8 *3278:B 0.000268042
18 *206:8 *3279:A 0.000221978
19 *206:8 *209:12 0.00103591
20 *206:8 *212:6 0.000170276
21 *206:8 *887:33 1.38323e-05
22 *206:18 *3280:A1 1.48252e-05
23 *206:18 *3280:A2 3.49456e-06
24 *206:18 *3290:A1 5.50052e-05
25 *206:18 *209:12 0.000160224
26 *206:18 *212:6 0.000166068
27 *3288:A *3291:A1 5.66971e-05
28 *187:14 *3291:A1 6.13812e-05
29 *187:14 *206:18 2.2927e-05
*RES
1 *3273:Y *206:4 9.3 
2 *206:4 *206:8 10.4107 
3 *206:8 *206:18 7.96429 
4 *206:18 *3291:A1 15.9786 
5 *206:18 *3290:B1 19.9964 
6 *206:8 *3281:A 9.72857 
7 *206:4 *3276:A 11.0679 
*END

*D_NET *207 0.000233049
*CONN
*I *3276:B I *D sky130_fd_sc_hd__nand3_4
*I *3274:X O *D sky130_fd_sc_hd__or2b_2
*CAP
1 *3276:B 0.00011148
2 *3274:X 0.00011148
3 *3276:B *3276:C 1.00887e-05
*RES
1 *3274:X *3276:B 29.5464 
*END

*D_NET *208 0.000429256
*CONN
*I *3276:C I *D sky130_fd_sc_hd__nand3_4
*I *3275:X O *D sky130_fd_sc_hd__or2b_2
*CAP
1 *3276:C 0.000209584
2 *3275:X 0.000209584
3 *3276:B *3276:C 1.00887e-05
*RES
1 *3275:X *3276:C 30.725 
*END

*D_NET *209 0.0117363
*CONN
*I *3288:B I *D sky130_fd_sc_hd__nand3_2
*I *3334:B2 I *D sky130_fd_sc_hd__a221o_2
*I *3277:B2 I *D sky130_fd_sc_hd__a22o_2
*I *3305:A2 I *D sky130_fd_sc_hd__a21oi_2
*I *3304:C I *D sky130_fd_sc_hd__and3_4
*I *3284:C I *D sky130_fd_sc_hd__nand3_4
*I *3306:C I *D sky130_fd_sc_hd__and3_2
*I *3276:Y O *D sky130_fd_sc_hd__nand3_4
*CAP
1 *3288:B 2.9238e-05
2 *3334:B2 0.000201403
3 *3277:B2 0
4 *3305:A2 9.08734e-05
5 *3304:C 6.67085e-05
6 *3284:C 1.39964e-05
7 *3306:C 0.000110198
8 *3276:Y 0.000837785
9 *209:62 0.000467241
10 *209:35 0.000318685
11 *209:20 0.000391463
12 *209:16 0.000436648
13 *209:14 0.000679643
14 *209:12 0.000978337
15 *3284:C *3304:A 1.83053e-05
16 *3288:B *224:14 5.33005e-05
17 *3304:C *3304:A 1.83136e-05
18 *3305:A2 *3305:B1 0.000141734
19 *3306:C *260:20 3.45159e-05
20 *209:12 *3290:A1 0.000413233
21 *209:12 *213:6 0.000356287
22 *209:12 *214:10 0.00100051
23 *209:12 *216:20 4.42509e-05
24 *209:12 *907:10 0.000212585
25 *209:14 *216:20 0.000374259
26 *209:14 *907:10 0.000387357
27 *209:16 *3304:A 3.27526e-05
28 *209:16 *216:20 0.000950312
29 *209:16 *907:10 0.000589031
30 *209:16 *907:12 0.000139202
31 *209:16 *907:14 0.00021006
32 *209:20 *3304:A 0.000124083
33 *209:20 *216:20 0.000125736
34 *209:35 *3304:A 0.0001927
35 *209:35 *260:20 1.76096e-05
36 *3276:A *209:12 4.51148e-05
37 *3304:B *3284:C 5.65955e-05
38 *3304:B *3304:C 0.00013017
39 *3334:A1 *3334:B2 0.000175512
40 *3334:C1 *3334:B2 1.25686e-05
41 *187:35 *3334:B2 2.26424e-05
42 *205:55 *209:35 0
43 *205:68 *209:35 3.91783e-05
44 *206:8 *209:12 0.00103591
45 *206:18 *209:12 0.000160224
*RES
1 *3276:Y *209:12 36.925 
2 *209:12 *209:14 4.98214 
3 *209:14 *209:16 12.5714 
4 *209:16 *209:20 6.14286 
5 *209:20 *3306:C 10.6571 
6 *209:20 *209:35 13.4107 
7 *209:35 *3284:C 9.83571 
8 *209:35 *3304:C 11.0679 
9 *209:16 *3305:A2 15.5679 
10 *209:14 *209:62 8.73214 
11 *209:62 *3277:B2 9.3 
12 *209:62 *3334:B2 21.8223 
13 *209:12 *3288:B 14.3357 
*END

*D_NET *210 0.000981614
*CONN
*I *3310:A2 I *D sky130_fd_sc_hd__o221ai_2
*I *3298:A1 I *D sky130_fd_sc_hd__o22ai_2
*I *3277:X O *D sky130_fd_sc_hd__a22o_2
*CAP
1 *3310:A2 2.79701e-05
2 *3298:A1 0
3 *3277:X 0.000186581
4 *210:10 0.000214551
5 *3310:A2 *231:14 0.000186669
6 *210:10 *3310:B1 0
7 *3310:A1 *3310:A2 0.000105163
8 *3334:A2 *210:10 3.80904e-05
9 *187:14 *210:10 7.83659e-05
10 *187:35 *210:10 1.67773e-05
11 *205:23 *210:10 0
12 *205:40 *210:10 0.000127446
*RES
1 *3277:X *210:10 22.3714 
2 *210:10 *3298:A1 9.3 
3 *210:10 *3310:A2 11.0679 
*END

*D_NET *211 0.00271572
*CONN
*I *3290:A1 I *D sky130_fd_sc_hd__o21a_2
*I *3280:A1 I *D sky130_fd_sc_hd__o21ai_4
*I *3291:A2 I *D sky130_fd_sc_hd__o31ai_2
*I *3278:Y O *D sky130_fd_sc_hd__nor2_2
*CAP
1 *3290:A1 0.000135186
2 *3280:A1 0.000237916
3 *3291:A2 0.000198071
4 *3278:Y 0.000278447
5 *211:6 0.000579248
6 *3290:A1 *3290:A2 0.000144729
7 *3290:A1 *212:6 2.24718e-05
8 *3290:A1 *212:8 0.000112045
9 *3290:A1 *213:6 5.66971e-05
10 *3291:A2 *3272:C 1.32293e-05
11 *211:6 *3272:C 7.15503e-05
12 *211:6 *233:16 3.24049e-05
13 *211:6 *886:22 8.10737e-06
14 *3272:B *211:6 0.000136727
15 *3288:A *3291:A2 0.000127921
16 *3291:A1 *3280:A1 2.29031e-05
17 *3291:A1 *3291:A2 5.49995e-05
18 *206:18 *3280:A1 1.48252e-05
19 *206:18 *3290:A1 5.50052e-05
20 *209:12 *3290:A1 0.000413233
*RES
1 *3278:Y *211:6 13.1214 
2 *211:6 *3291:A2 13.1571 
3 *211:6 *3280:A1 19.9429 
4 *3280:A1 *3290:A1 23.7964 
*END

*D_NET *212 0.00252805
*CONN
*I *3280:A2 I *D sky130_fd_sc_hd__o21ai_4
*I *3291:A3 I *D sky130_fd_sc_hd__o31ai_2
*I *3290:A2 I *D sky130_fd_sc_hd__o21a_2
*I *3279:X O *D sky130_fd_sc_hd__and2_4
*CAP
1 *3280:A2 1.98239e-05
2 *3291:A3 4.7513e-05
3 *3290:A2 6.11636e-05
4 *3279:X 0.000325076
5 *212:8 0.000174107
6 *212:6 0.00041033
7 *3290:A2 *213:6 2.37306e-05
8 *3291:A3 *3280:B1 0.000148651
9 *212:6 *3278:B 5.50052e-05
10 *3290:A1 *3290:A2 0.000144729
11 *3290:A1 *212:6 2.24718e-05
12 *3290:A1 *212:8 0.000112045
13 *3290:B1 *3290:A2 0.000244513
14 *3290:B1 *212:6 4.17702e-05
15 *3290:B1 *212:8 0.000208634
16 *202:10 *3291:A3 0.000148651
17 *206:8 *212:6 0.000170276
18 *206:18 *3280:A2 3.49456e-06
19 *206:18 *212:6 0.000166068
*RES
1 *3279:X *212:6 15.5857 
2 *212:6 *212:8 2.17857 
3 *212:8 *3290:A2 11.9071 
4 *212:8 *3291:A3 20.2464 
5 *212:6 *3280:A2 9.72857 
*END

*D_NET *213 0.00666881
*CONN
*I *3292:C I *D sky130_fd_sc_hd__nand3_4
*I *3286:A1 I *D sky130_fd_sc_hd__a311oi_1
*I *3282:A1 I *D sky130_fd_sc_hd__a21oi_2
*I *3312:B I *D sky130_fd_sc_hd__and3_2
*I *3307:A1 I *D sky130_fd_sc_hd__a311o_2
*I *3287:B I *D sky130_fd_sc_hd__nand3_2
*I *3280:Y O *D sky130_fd_sc_hd__o21ai_4
*CAP
1 *3292:C 0
2 *3286:A1 0.000165166
3 *3282:A1 0
4 *3312:B 0.000211221
5 *3307:A1 7.38506e-05
6 *3287:B 5.18263e-05
7 *3280:Y 0.000164295
8 *213:50 0.000795206
9 *213:23 0.000793328
10 *213:21 0.000496077
11 *213:19 0.000449799
12 *213:6 0.000470503
13 *3286:A1 *3286:A3 9.90367e-05
14 *3287:B *3287:A 5.33005e-05
15 *3287:B *214:10 4.84073e-05
16 *3287:B *220:14 1.02301e-05
17 *3287:B *223:6 1.47872e-05
18 *3307:A1 *3307:A3 8.86969e-05
19 *3307:A1 *214:26 4.36551e-06
20 *3307:A1 *216:20 0
21 *3307:A1 *596:42 4.5539e-05
22 *3312:B *3298:B2 0.000225314
23 *3312:B *3312:C 4.25716e-05
24 *3312:B *230:8 0.00014285
25 *3312:B *596:42 1.08359e-05
26 *213:6 *3287:A 4.25684e-05
27 *213:6 *214:10 0.000162068
28 *213:6 *223:6 0.000119493
29 *213:19 *216:10 3.14003e-05
30 *213:19 *216:16 0.00012249
31 *213:19 *885:12 1.30914e-05
32 *213:19 *885:18 6.90976e-05
33 *213:21 *3307:A3 2.24646e-05
34 *213:21 *216:20 0
35 *213:21 *885:29 0.000393429
36 *213:23 *3307:A3 0.000275362
37 *213:23 *216:20 0
38 *213:50 *3298:B2 7.83587e-05
39 *213:50 *3307:A3 5.99599e-07
40 *213:50 *214:26 5.49489e-05
41 *213:50 *215:8 0.00014285
42 *213:50 *216:20 0
43 *213:50 *596:42 0.000217075
44 *3290:A1 *213:6 5.66971e-05
45 *3290:A2 *213:6 2.37306e-05
46 *3290:B1 *213:6 2.95944e-05
47 *209:12 *213:6 0.000356287
*RES
1 *3280:Y *213:6 15.5857 
2 *213:6 *3287:B 10.675 
3 *213:6 *213:19 9.78571 
4 *213:19 *213:21 5.28571 
5 *213:21 *213:23 3.61607 
6 *213:23 *3307:A1 15.8 
7 *213:23 *213:50 17.6696 
8 *213:50 *3312:B 18.3179 
9 *213:50 *3282:A1 13.8 
10 *213:21 *3286:A1 16.4071 
11 *213:19 *3292:C 13.8 
*END

*D_NET *214 0.00808473
*CONN
*I *3287:C I *D sky130_fd_sc_hd__nand3_2
*I *3292:A I *D sky130_fd_sc_hd__nand3_4
*I *3286:A2 I *D sky130_fd_sc_hd__a311oi_1
*I *3282:A2 I *D sky130_fd_sc_hd__a21oi_2
*I *3312:C I *D sky130_fd_sc_hd__and3_2
*I *3307:A2 I *D sky130_fd_sc_hd__a311o_2
*I *3281:Y O *D sky130_fd_sc_hd__nand3_2
*CAP
1 *3287:C 0
2 *3292:A 6.64392e-05
3 *3286:A2 0
4 *3282:A2 2.87549e-05
5 *3312:C 0.000109294
6 *3307:A2 2.81271e-05
7 *3281:Y 0.00102066
8 *214:37 0.000388835
9 *214:26 0.000637097
10 *214:14 0.000529608
11 *214:12 0.000358386
12 *214:10 0.00114119
13 *3282:A2 *596:42 7.71367e-05
14 *3307:A2 *240:10 9.84097e-05
15 *3307:A2 *596:42 4.82865e-05
16 *214:10 *220:14 5.33005e-05
17 *214:10 *223:6 2.57826e-06
18 *214:10 *884:16 7.11068e-05
19 *214:10 *885:12 7.96661e-05
20 *214:12 *3317:B1 5.51716e-05
21 *214:12 *676:10 8.06491e-05
22 *214:12 *884:16 0.000172285
23 *214:12 *885:12 0.000162196
24 *214:12 *885:18 0.000221886
25 *214:14 *3307:A3 2.10446e-05
26 *214:14 *676:10 9.01893e-05
27 *214:14 *676:12 0.000121606
28 *214:14 *676:16 2.58997e-05
29 *214:14 *885:18 9.15842e-06
30 *214:14 *885:29 0.000137781
31 *214:26 *3307:A3 7.56799e-05
32 *214:26 *3307:B1 0.000162606
33 *214:26 *3307:C1 9.34004e-05
34 *214:26 *216:20 3.71887e-05
35 *214:26 *219:10 0
36 *214:26 *240:10 2.12912e-05
37 *214:26 *596:42 0.000107076
38 *214:26 *676:16 6.75007e-05
39 *214:37 *3282:B1 0.000228514
40 *214:37 *240:10 4.33899e-05
41 *214:37 *596:42 9.84763e-05
42 *3287:B *214:10 4.84073e-05
43 *3307:A1 *214:26 4.36551e-06
44 *3312:B *3312:C 4.25716e-05
45 *209:12 *214:10 0.00100051
46 *213:6 *214:10 0.000162068
47 *213:50 *214:26 5.49489e-05
*RES
1 *3281:Y *214:10 28.925 
2 *214:10 *214:12 4.98214 
3 *214:12 *214:14 5.58929 
4 *214:14 *214:26 21.7143 
5 *214:26 *3307:A2 10.2554 
6 *214:26 *214:37 4.66071 
7 *214:37 *3312:C 19.9429 
8 *214:37 *3282:A2 10.0411 
9 *214:14 *3286:A2 13.8 
10 *214:12 *3292:A 14.7464 
11 *214:10 *3287:C 13.8 
*END

*D_NET *215 0.00171446
*CONN
*I *3298:B1 I *D sky130_fd_sc_hd__o22ai_2
*I *3313:A2 I *D sky130_fd_sc_hd__o21ai_2
*I *3282:Y O *D sky130_fd_sc_hd__a21oi_2
*CAP
1 *3298:B1 0.000216349
2 *3313:A2 6.46308e-05
3 *3282:Y 0.000103857
4 *215:8 0.000384837
5 *3298:B1 *3298:B2 9.12446e-05
6 *3298:B1 *231:14 6.05161e-06
7 *3313:A2 *3298:B2 1.08359e-05
8 *3313:A2 *596:42 0.000202835
9 *215:8 *596:42 0.000224577
10 *3310:A1 *3298:B1 5.7616e-05
11 *187:35 *3298:B1 2.31791e-05
12 *205:40 *3298:B1 6.16936e-05
13 *205:40 *3313:A2 0.000123903
14 *213:50 *215:8 0.00014285
*RES
1 *3282:Y *215:8 16.3893 
2 *215:8 *3313:A2 16.6571 
3 *215:8 *3298:B1 18.55 
*END

*D_NET *216 0.0100584
*CONN
*I *3413:A I *D sky130_fd_sc_hd__xor2_2
*I *3287:A I *D sky130_fd_sc_hd__nand3_2
*I *3291:B1 I *D sky130_fd_sc_hd__o31ai_2
*I *3306:A I *D sky130_fd_sc_hd__and3_2
*I *3284:A I *D sky130_fd_sc_hd__nand3_4
*I *3283:Y O *D sky130_fd_sc_hd__inv_2
*CAP
1 *3413:A 0.000871757
2 *3287:A 2.99037e-05
3 *3291:B1 0.000342315
4 *3306:A 0
5 *3284:A 0.00028741
6 *3283:Y 4.31953e-05
7 *216:20 0.0011061
8 *216:16 0.00142695
9 *216:10 0.000646379
10 *216:8 0.00126548
11 *3284:A *3304:A 4.78405e-05
12 *3284:A *3308:B1 0
13 *3287:A *223:6 4.84159e-05
14 *3291:B1 *224:14 0.000441411
15 *3413:A *3931:CLK 0.00027275
16 *3413:A *3931:D 0
17 *3413:A *3931:RESET_B 0.000131765
18 *3413:A *714:34 0.000163293
19 *3413:A *885:10 5.49257e-05
20 *216:8 *4034:A 1.92789e-05
21 *216:10 *885:10 3.40128e-05
22 *216:10 *885:12 0.000315381
23 *216:10 *907:10 0
24 *216:16 *224:14 0.000312898
25 *216:16 *885:12 6.35976e-05
26 *216:20 *3304:A 1.21309e-05
27 *216:20 *3307:A3 7.67094e-06
28 *216:20 *4112:A 0
29 *3239:A2 *3413:A 5.7616e-05
30 *3284:B *3284:A 5.45307e-05
31 *3287:B *3287:A 5.33005e-05
32 *3288:A *3291:B1 0.000100165
33 *3307:A1 *216:20 0
34 *205:68 *3284:A 0.000119705
35 *209:12 *216:20 4.42509e-05
36 *209:14 *216:20 0.000374259
37 *209:16 *216:20 0.000950312
38 *209:20 *216:20 0.000125736
39 *213:6 *3287:A 4.25684e-05
40 *213:19 *216:10 3.14003e-05
41 *213:19 *216:16 0.00012249
42 *213:21 *216:20 0
43 *213:23 *216:20 0
44 *213:50 *216:20 0
45 *214:26 *216:20 3.71887e-05
*RES
1 *3283:Y *216:8 14.3357 
2 *216:8 *216:10 8.32143 
3 *216:10 *216:16 9.14286 
4 *216:16 *216:20 24.3571 
5 *216:20 *3284:A 19.675 
6 *216:20 *3306:A 13.8 
7 *216:16 *3291:B1 15.2107 
8 *216:10 *3287:A 14.7464 
9 *216:8 *3413:A 29.8893 
*END

*D_NET *217 0.00444536
*CONN
*I *3297:A1 I *D sky130_fd_sc_hd__a22oi_4
*I *3325:A2 I *D sky130_fd_sc_hd__a21oi_2
*I *3296:B1 I *D sky130_fd_sc_hd__a2bb2o_4
*I *3318:B1 I *D sky130_fd_sc_hd__a2bb2oi_2
*I *3284:Y O *D sky130_fd_sc_hd__nand3_4
*CAP
1 *3297:A1 0.000154807
2 *3325:A2 0
3 *3296:B1 0
4 *3318:B1 0.000127129
5 *3284:Y 0.000166912
6 *217:22 0.000486325
7 *217:12 0.00050802
8 *217:8 0.000470544
9 *3297:A1 *4112:A 0
10 *3297:A1 *230:8 2.89016e-05
11 *3297:A1 *240:10 0.000112926
12 *3318:B1 *3296:B2 9.1235e-05
13 *3318:B1 *3320:A2_N 0.00020042
14 *3318:B1 *3325:B1 1.00375e-05
15 *217:8 *3308:B1 6.74158e-05
16 *217:8 *3308:B2 0.000104395
17 *217:8 *240:10 9.56968e-05
18 *217:12 *3322:B1 0.00018372
19 *217:12 *3325:A1 0.000312215
20 *217:12 *4112:A 0.000126572
21 *217:22 *3296:A1_N 3.32631e-05
22 *217:22 *3296:B2 3.18676e-05
23 *217:22 *3307:B1 0.000104236
24 *217:22 *3325:B1 5.88692e-05
25 *217:22 *3327:B2 0.000200413
26 *217:22 *229:10 0.000332245
27 *217:22 *229:12 0.000225307
28 *195:10 *3318:B1 0.00021189
*RES
1 *3284:Y *217:8 18.4786 
2 *217:8 *217:12 8.73214 
3 *217:12 *217:22 19.125 
4 *217:22 *3318:B1 23.2821 
5 *217:22 *3296:B1 9.3 
6 *217:12 *3325:A2 9.3 
7 *217:8 *3297:A1 17.1929 
*END

*D_NET *218 0.0105201
*CONN
*I *3318:A1_N I *D sky130_fd_sc_hd__a2bb2oi_2
*I *3286:B1 I *D sky130_fd_sc_hd__a311oi_1
*I *3296:A1_N I *D sky130_fd_sc_hd__a2bb2o_4
*I *3307:B1 I *D sky130_fd_sc_hd__a311o_2
*I *3708:B I *D sky130_fd_sc_hd__nand3b_2
*I *3285:X O *D sky130_fd_sc_hd__and4_4
*CAP
1 *3318:A1_N 8.56505e-05
2 *3286:B1 0.000367339
3 *3296:A1_N 7.89996e-05
4 *3307:B1 0.000510104
5 *3708:B 0.000502795
6 *3285:X 0
7 *218:43 0.000681386
8 *218:41 0.000506399
9 *218:39 0.000955445
10 *218:4 0.00132581
11 *3286:B1 *3286:C1 2.27416e-05
12 *3286:B1 *3320:B1 6.05161e-06
13 *3307:B1 *3325:B1 0.00027438
14 *3307:B1 *4000:A 0.000145116
15 *3307:B1 *228:10 0
16 *3307:B1 *240:10 0.000130414
17 *3318:A1_N *251:10 2.59355e-05
18 *3708:B *3656:B 5.52302e-05
19 *3708:B *3708:A_N 0.0001927
20 *3708:B *373:14 0.000151664
21 *3708:B *705:32 0
22 *3708:B *705:60 0
23 *3708:B *707:29 1.58163e-05
24 *3708:B *707:33 0.00015153
25 *218:39 *3238:B1 0.000175505
26 *218:39 *3285:B 5.58941e-05
27 *218:39 *3294:B1 5.41504e-05
28 *218:39 *3295:B1 6.66813e-05
29 *218:39 *3317:B1 0.000148514
30 *218:39 *3320:B2 0.000381241
31 *218:39 *3929:CLK 0.000201151
32 *218:39 *3929:RESET_B 0.000191082
33 *218:39 *225:30 8.33468e-05
34 *218:39 *637:14 1.98839e-05
35 *218:39 *637:16 6.57815e-05
36 *218:41 *3296:B2 2.82057e-05
37 *218:41 *3320:B2 0.000148911
38 *218:41 *225:30 5.80706e-06
39 *218:41 *251:10 9.30093e-05
40 *218:43 *3320:B2 8.07951e-05
41 *218:43 *3325:B1 0.000167691
42 *218:43 *228:10 0
43 *218:43 *251:10 5.83304e-05
44 *3251:A *3708:B 9.90367e-05
45 *3251:A *218:39 4.08637e-05
46 *3263:A1 *218:39 5.84267e-05
47 *3263:B1 *218:39 0.000175526
48 *184:18 *218:39 0.000247291
49 *184:40 *218:39 0.000263524
50 *193:8 *3708:B 0.000268396
51 *193:8 *218:39 0.000139913
52 *193:45 *218:39 0.000142372
53 *193:51 *218:39 0.000517167
54 *195:10 *218:39 5.59778e-05
55 *214:26 *3307:B1 0.000162606
56 *217:22 *3296:A1_N 3.32631e-05
57 *217:22 *3307:B1 0.000104236
*RES
1 *3285:X *218:4 9.3 
2 *218:4 *3708:B 30.1214 
3 *218:4 *218:39 32.2857 
4 *218:39 *218:41 1.94643 
5 *218:41 *218:43 2.85714 
6 *218:43 *3307:B1 26.1036 
7 *218:43 *3296:A1_N 15.175 
8 *218:41 *3286:B1 18.0321 
9 *218:39 *3318:A1_N 15.1571 
*END

*D_NET *219 0.00292252
*CONN
*I *4112:A I *D sky130_fd_sc_hd__clkdlybuf4s25_1
*I *3325:A1 I *D sky130_fd_sc_hd__a21oi_2
*I *3286:Y O *D sky130_fd_sc_hd__a311oi_1
*CAP
1 *4112:A 0.000382894
2 *3325:A1 0.000201906
3 *3286:Y 0.000308287
4 *219:10 0.000893088
5 *3325:A1 *3322:B1 4.43256e-05
6 *219:10 *3307:A3 0
7 *219:10 *3307:C1 0
8 *219:10 *228:10 0.000183248
9 *219:10 *228:16 8.24414e-05
10 *219:10 *240:10 0.000320038
11 *219:10 *596:42 0
12 *219:10 *676:16 6.75007e-05
13 *3297:A1 *4112:A 0
14 *214:26 *219:10 0
15 *216:20 *4112:A 0
16 *217:12 *3325:A1 0.000312215
17 *217:12 *4112:A 0.000126572
*RES
1 *3286:Y *219:10 27.2286 
2 *219:10 *3325:A1 13.55 
3 *219:10 *4112:A 24.675 
*END

*D_NET *220 0.00261774
*CONN
*I *3316:B I *D sky130_fd_sc_hd__nand3_2
*I *3289:A I *D sky130_fd_sc_hd__nand3_2
*I *3287:Y O *D sky130_fd_sc_hd__nand3_2
*CAP
1 *3316:B 0.000300164
2 *3289:A 0
3 *3287:Y 0.000374097
4 *220:14 0.000674261
5 *3316:B *3289:B 5.46383e-06
6 *3316:B *3294:A2 9.41642e-05
7 *3316:B *3295:B1 0.000228684
8 *3316:B *3316:A 5.33005e-05
9 *3316:B *3316:C 0.000210726
10 *220:14 *3317:A1 1.00887e-05
11 *220:14 *223:6 6.46152e-05
12 *220:14 *223:12 0.000121891
13 *220:14 *224:31 0.000150476
14 *220:14 *228:10 0.00026628
15 *3287:B *220:14 1.02301e-05
16 *214:10 *220:14 5.33005e-05
*RES
1 *3287:Y *220:14 25.4071 
2 *220:14 *3289:A 9.3 
3 *220:14 *3316:B 15.6214 
*END

*D_NET *221 0.00244207
*CONN
*I *3289:B I *D sky130_fd_sc_hd__nand3_2
*I *3316:C I *D sky130_fd_sc_hd__nand3_2
*I *3288:Y O *D sky130_fd_sc_hd__nand3_2
*CAP
1 *3289:B 1.95116e-05
2 *3316:C 0.000356016
3 *3288:Y 0.000213032
4 *221:6 0.000588559
5 *3316:C *3294:A2 9.41642e-05
6 *3316:C *3295:B1 1.35465e-05
7 *3316:C *3295:C1 5.33005e-05
8 *3316:C *3316:A 5.49544e-05
9 *3316:C *3317:B1 0.000235188
10 *3316:C *224:14 7.25873e-06
11 *221:6 *3288:C 0.000182811
12 *221:6 *3317:B1 0.000210433
13 *221:6 *224:14 0.000197102
14 *3316:B *3289:B 5.46383e-06
15 *3316:B *3316:C 0.000210726
*RES
1 *3288:Y *221:6 14.7643 
2 *221:6 *3316:C 17.2464 
3 *221:6 *3289:B 9.72857 
*END

*D_NET *222 0.00099765
*CONN
*I *3295:B1 I *D sky130_fd_sc_hd__o211ai_2
*I *3289:Y O *D sky130_fd_sc_hd__nand3_2
*CAP
1 *3295:B1 0.000263624
2 *3289:Y 0.000263624
3 *3295:B1 *3320:B2 0.000126416
4 *3295:B1 *224:14 3.50746e-05
5 *3316:B *3295:B1 0.000228684
6 *3316:C *3295:B1 1.35465e-05
7 *218:39 *3295:B1 6.66813e-05
*RES
1 *3289:Y *3295:B1 32.2607 
*END

*D_NET *223 0.00279173
*CONN
*I *3319:A1 I *D sky130_fd_sc_hd__o211a_2
*I *3294:A1 I *D sky130_fd_sc_hd__o211ai_2
*I *3317:A1 I *D sky130_fd_sc_hd__o211ai_2
*I *3290:X O *D sky130_fd_sc_hd__o21a_2
*CAP
1 *3319:A1 4.82938e-05
2 *3294:A1 0
3 *3317:A1 8.84375e-05
4 *3290:X 0.000714204
5 *223:12 0.000183112
6 *223:6 0.000857172
7 *3317:A1 *3317:A2 0.000213716
8 *3317:A1 *224:31 9.15842e-06
9 *3317:A1 *228:10 0.000105638
10 *3319:A1 *224:31 5.07692e-05
11 *223:6 *224:31 1.44983e-05
12 *223:12 *224:31 0.000124865
13 *3287:A *223:6 4.84159e-05
14 *3287:B *223:6 1.47872e-05
15 *213:6 *223:6 0.000119493
16 *214:10 *223:6 2.57826e-06
17 *220:14 *3317:A1 1.00887e-05
18 *220:14 *223:6 6.46152e-05
19 *220:14 *223:12 0.000121891
*RES
1 *3290:X *223:6 18.05 
2 *223:6 *223:12 6.67857 
3 *223:12 *3317:A1 16.6571 
4 *223:12 *3294:A1 13.8 
5 *223:6 *3319:A1 10.4875 
*END

*D_NET *224 0.00425531
*CONN
*I *3294:A2 I *D sky130_fd_sc_hd__o211ai_2
*I *3317:A2 I *D sky130_fd_sc_hd__o211ai_2
*I *3319:A2 I *D sky130_fd_sc_hd__o211a_2
*I *3291:Y O *D sky130_fd_sc_hd__o31ai_2
*CAP
1 *3294:A2 2.99504e-05
2 *3317:A2 0.000130166
3 *3319:A2 0
4 *3291:Y 0.000448064
5 *224:31 0.000343307
6 *224:14 0.000631255
7 *3317:A2 *3295:C1 5.36422e-05
8 *3317:A2 *3320:B2 8.09674e-05
9 *3317:A2 *225:6 5.49995e-05
10 *224:14 *3288:C 0.000182811
11 *224:14 *3319:B1 1.00887e-05
12 *224:14 *3319:C1 3.6236e-05
13 *224:14 *228:10 0.00012249
14 *224:31 *3295:C1 0.000161741
15 *224:31 *3320:B2 1.12578e-05
16 *224:31 *228:10 1.98839e-05
17 *3288:A *224:14 0.000139596
18 *3288:B *224:14 5.33005e-05
19 *3291:B1 *224:14 0.000441411
20 *3295:B1 *224:14 3.50746e-05
21 *3316:B *3294:A2 9.41642e-05
22 *3316:C *3294:A2 9.41642e-05
23 *3316:C *224:14 7.25873e-06
24 *3317:A1 *3317:A2 0.000213716
25 *3317:A1 *224:31 9.15842e-06
26 *3319:A1 *224:31 5.07692e-05
27 *216:16 *224:14 0.000312898
28 *220:14 *224:31 0.000150476
29 *221:6 *224:14 0.000197102
30 *223:6 *224:31 1.44983e-05
31 *223:12 *224:31 0.000124865
*RES
1 *3291:Y *224:14 30.7643 
2 *224:14 *3319:A2 9.3 
3 *224:14 *224:31 9.80357 
4 *224:31 *3317:A2 17.1929 
5 *224:31 *3294:A2 14.7464 
*END

*D_NET *225 0.00320014
*CONN
*I *3319:C1 I *D sky130_fd_sc_hd__o211a_2
*I *3318:B2 I *D sky130_fd_sc_hd__a2bb2oi_2
*I *3296:B2 I *D sky130_fd_sc_hd__a2bb2o_4
*I *3294:B1 I *D sky130_fd_sc_hd__o211ai_2
*I *3317:C1 I *D sky130_fd_sc_hd__o211ai_2
*I *3292:Y O *D sky130_fd_sc_hd__nand3_4
*CAP
1 *3319:C1 0.000174271
2 *3318:B2 0
3 *3296:B2 0.000132072
4 *3294:B1 6.85105e-05
5 *3317:C1 3.73289e-05
6 *3292:Y 0.000432997
7 *225:30 0.0002239
8 *225:17 0.000165423
9 *225:6 0.00030114
10 *3294:B1 *3317:B1 5.4396e-05
11 *3294:B1 *3929:RESET_B 4.29537e-05
12 *3296:B2 *3320:A2_N 0.000223599
13 *3296:B2 *3325:B1 0.000202842
14 *3296:B2 *250:8 9.25014e-06
15 *3296:B2 *251:10 0.00014209
16 *3319:C1 *3319:B1 5.54817e-06
17 *3319:C1 *676:10 0.000358982
18 *225:30 *3317:B1 4.44437e-05
19 *225:30 *250:8 0.000142152
20 *3317:A2 *225:6 5.49995e-05
21 *3318:B1 *3296:B2 9.1235e-05
22 *195:10 *3294:B1 4.42555e-05
23 *195:10 *225:17 8.13261e-06
24 *217:22 *3296:B2 3.18676e-05
25 *218:39 *3294:B1 5.41504e-05
26 *218:39 *225:30 8.33468e-05
27 *218:41 *3296:B2 2.82057e-05
28 *218:41 *225:30 5.80706e-06
29 *224:14 *3319:C1 3.6236e-05
*RES
1 *3292:Y *225:6 13.1214 
2 *225:6 *3317:C1 9.83571 
3 *225:6 *225:17 4.77679 
4 *225:17 *3294:B1 16.2018 
5 *225:17 *225:30 3.24107 
6 *225:30 *3296:B2 19.3179 
7 *225:30 *3318:B2 13.8 
8 *3292:Y *3319:C1 32.2786 
*END

*D_NET *226 0.00157891
*CONN
*I *3294:C1 I *D sky130_fd_sc_hd__o211ai_2
*I *3316:A I *D sky130_fd_sc_hd__nand3_2
*I *3293:Y O *D sky130_fd_sc_hd__inv_2
*CAP
1 *3294:C1 0
2 *3316:A 1.45588e-05
3 *3293:Y 0.000297062
4 *226:12 0.000311621
5 *226:12 *3929:CLK 0.000178503
6 *226:12 *3929:RESET_B 0.000333688
7 *3316:B *3316:A 5.33005e-05
8 *3316:C *3316:A 5.49544e-05
9 *195:10 *226:12 0.000335217
*RES
1 *3293:Y *226:12 26.0857 
2 *226:12 *3316:A 9.83571 
3 *226:12 *3294:C1 9.3 
*END

*D_NET *227 0.000722234
*CONN
*I *3295:C1 I *D sky130_fd_sc_hd__o211ai_2
*I *3294:Y O *D sky130_fd_sc_hd__o211ai_2
*CAP
1 *3295:C1 9.15807e-05
2 *3294:Y 9.15807e-05
3 *3295:C1 *3317:B1 5.50052e-05
4 *3295:C1 *3320:B2 0.000215383
5 *3316:C *3295:C1 5.33005e-05
6 *3317:A2 *3295:C1 5.36422e-05
7 *224:31 *3295:C1 0.000161741
*RES
1 *3294:Y *3295:C1 30.9929 
*END

*D_NET *228 0.00448552
*CONN
*I *3297:B1 I *D sky130_fd_sc_hd__a22oi_4
*I *3321:B1 I *D sky130_fd_sc_hd__o211ai_2
*I *3323:A I *D sky130_fd_sc_hd__nand2_2
*I *3308:A1_N I *D sky130_fd_sc_hd__o2bb2ai_2
*I *3295:Y O *D sky130_fd_sc_hd__o211ai_2
*CAP
1 *3297:B1 0
2 *3321:B1 0
3 *3323:A 0
4 *3308:A1_N 0.000150817
5 *3295:Y 0.00101807
6 *228:18 0.000269187
7 *228:16 0.00034926
8 *228:10 0.00124896
9 *3308:A1_N *3308:A2_N 5.07159e-05
10 *3308:A1_N *3308:B2 8.13261e-06
11 *228:10 *3319:B1 3.11713e-05
12 *228:10 *3320:B2 4.97967e-05
13 *228:10 *229:10 0.000119276
14 *228:10 *676:10 0
15 *228:10 *676:12 0
16 *228:10 *676:16 0
17 *228:16 *3308:B2 4.1331e-06
18 *228:16 *3322:B1 0.000101545
19 *228:16 *229:10 4.1331e-06
20 *228:16 *229:12 5.80217e-05
21 *228:16 *240:10 6.57244e-05
22 *228:18 *3308:A2_N 0
23 *228:18 *3308:B2 7.63354e-05
24 *228:18 *260:20 0.000100248
25 *3307:B1 *228:10 0
26 *3317:A1 *228:10 0.000105638
27 *218:43 *228:10 0
28 *219:10 *228:10 0.000183248
29 *219:10 *228:16 8.24414e-05
30 *220:14 *228:10 0.00026628
31 *224:14 *228:10 0.00012249
32 *224:31 *228:10 1.98839e-05
*RES
1 *3295:Y *228:10 33.7107 
2 *228:10 *228:16 5.64286 
3 *228:16 *228:18 2.85714 
4 *228:18 *3308:A1_N 17.0143 
5 *228:18 *3323:A 13.8 
6 *228:16 *3321:B1 13.8 
7 *228:10 *3297:B1 13.8 
*END

*D_NET *229 0.0027572
*CONN
*I *3297:B2 I *D sky130_fd_sc_hd__a22oi_4
*I *3321:C1 I *D sky130_fd_sc_hd__o211ai_2
*I *3308:A2_N I *D sky130_fd_sc_hd__o2bb2ai_2
*I *3296:X O *D sky130_fd_sc_hd__a2bb2o_4
*CAP
1 *3297:B2 0
2 *3321:C1 3.7022e-05
3 *3308:A2_N 0.000302301
4 *3296:X 0.000216891
5 *229:12 0.000501169
6 *229:10 0.000378737
7 *3308:A2_N *3323:B 0.000146991
8 *3308:A2_N *3327:B2 3.99305e-05
9 *3308:A2_N *260:20 3.18309e-05
10 *3308:A2_N *718:81 9.61273e-05
11 *229:10 *3296:A2_N 9.76689e-05
12 *229:12 *3322:B1 3.5707e-05
13 *229:12 *3327:B2 8.31314e-05
14 *3308:A1_N *3308:A2_N 5.07159e-05
15 *217:22 *229:10 0.000332245
16 *217:22 *229:12 0.000225307
17 *228:10 *229:10 0.000119276
18 *228:16 *229:10 4.1331e-06
19 *228:16 *229:12 5.80217e-05
20 *228:18 *3308:A2_N 0
*RES
1 *3296:X *229:10 19.9429 
2 *229:10 *229:12 4.98214 
3 *229:12 *3308:A2_N 20.55 
4 *229:12 *3321:C1 14.3357 
5 *229:10 *3297:B2 13.8 
*END

*D_NET *230 0.00359979
*CONN
*I *3313:B1 I *D sky130_fd_sc_hd__o21ai_2
*I *3298:B2 I *D sky130_fd_sc_hd__o22ai_2
*I *3297:Y O *D sky130_fd_sc_hd__a22oi_4
*CAP
1 *3313:B1 0.00022211
2 *3298:B2 0.000165138
3 *3297:Y 0.000754838
4 *230:8 0.00114209
5 *3298:B2 *596:42 0.000248493
6 *3313:B1 *3313:A1 6.05161e-06
7 *230:8 *3297:A2 0.000395195
8 *230:8 *3312:A 6.24351e-05
9 *230:8 *3313:A1 2.59355e-05
10 *3297:A1 *230:8 2.89016e-05
11 *3298:B1 *3298:B2 9.12446e-05
12 *3312:B *3298:B2 0.000225314
13 *3312:B *230:8 0.00014285
14 *3313:A2 *3298:B2 1.08359e-05
15 *213:50 *3298:B2 7.83587e-05
*RES
1 *3297:Y *230:8 22.175 
2 *230:8 *3298:B2 23.8893 
3 *230:8 *3313:B1 12.6214 
*END

*D_NET *231 0.00305642
*CONN
*I *3303:A I *D sky130_fd_sc_hd__nand2_2
*I *3331:A1 I *D sky130_fd_sc_hd__a211o_2
*I *3333:A1 I *D sky130_fd_sc_hd__a21oi_2
*I *3298:Y O *D sky130_fd_sc_hd__o22ai_2
*CAP
1 *3303:A 0
2 *3331:A1 0.000134547
3 *3333:A1 0
4 *3298:Y 0.000657954
5 *231:29 0.000279786
6 *231:14 0.000803192
7 *3331:A1 *3331:A2 0.000158242
8 *3331:A1 *236:10 2.89016e-05
9 *231:14 *3310:B2 4.51495e-05
10 *231:14 *3310:C1 0.000137983
11 *231:14 *3311:B 4.72487e-05
12 *231:14 *3337:B1 5.33433e-05
13 *231:14 *234:18 3.17148e-05
14 *231:14 *236:10 5.16583e-05
15 *231:29 *3331:A2 5.52302e-05
16 *231:29 *3333:A2 0.000177948
17 *231:29 *233:37 0
18 *231:29 *234:18 1.721e-05
19 *231:29 *235:8 1.02504e-05
20 *231:29 *236:10 9.23111e-05
21 *3298:B1 *231:14 6.05161e-06
22 *3310:A1 *231:14 8.10293e-05
23 *3310:A2 *231:14 0.000186669
*RES
1 *3298:Y *231:14 26.175 
2 *231:14 *3333:A1 13.8 
3 *231:14 *231:29 8.42857 
4 *231:29 *3331:A1 12.7464 
5 *231:29 *3303:A 9.3 
*END

*D_NET *232 0.00068025
*CONN
*I *3300:C I *D sky130_fd_sc_hd__and3_4
*I *3301:B1 I *D sky130_fd_sc_hd__a21oi_2
*I *3299:Y O *D sky130_fd_sc_hd__nand2_2
*CAP
1 *3300:C 0
2 *3301:B1 8.42806e-05
3 *3299:Y 0.000108092
4 *232:6 0.000192373
5 *3301:B1 *234:12 9.21611e-05
6 *232:6 *233:16 3.11088e-05
7 *232:6 *234:12 7.60811e-05
8 *3300:A *3301:B1 5.50052e-05
9 *3300:B *3301:B1 4.11486e-05
*RES
1 *3299:Y *232:6 11.8893 
2 *232:6 *3301:B1 11.4964 
3 *232:6 *3300:C 9.3 
*END

*D_NET *233 0.00526276
*CONN
*I *3331:B1 I *D sky130_fd_sc_hd__a211o_2
*I *3333:B1 I *D sky130_fd_sc_hd__a21oi_2
*I *3335:A I *D sky130_fd_sc_hd__or2_2
*I *3310:B1 I *D sky130_fd_sc_hd__o221ai_2
*I *3302:A I *D sky130_fd_sc_hd__nor2_2
*I *3300:X O *D sky130_fd_sc_hd__and3_4
*CAP
1 *3331:B1 0
2 *3333:B1 0
3 *3335:A 0
4 *3310:B1 0.000198026
5 *3302:A 2.13113e-05
6 *3300:X 0.00044854
7 *233:43 0.000451719
8 *233:37 0.000411571
9 *233:29 0.000357666
10 *233:16 0.000669639
11 *3310:B1 *3310:C1 3.51442e-05
12 *3310:B1 *3336:A1 7.3237e-05
13 *3310:B1 *3336:A3 8.33655e-05
14 *233:16 *3278:A 0.000112536
15 *233:16 *3302:B 5.33005e-05
16 *233:16 *234:12 0.000185403
17 *233:16 *886:22 0.000527937
18 *233:29 *3275:B_N 0.000139331
19 *233:29 *3278:A 2.38501e-05
20 *233:29 *3331:C1 0.000354625
21 *233:29 *3337:A1_N 0.000123048
22 *233:37 *3331:C1 1.02504e-05
23 *233:37 *3333:A2 0
24 *233:37 *3337:A1_N 6.26653e-05
25 *233:37 *3337:A2_N 2.32517e-05
26 *233:37 *236:10 3.56976e-05
27 *233:43 *3333:A2 8.85034e-05
28 *233:43 *3336:A1 2.14658e-05
29 *233:43 *3337:A2_N 1.92905e-05
30 *233:43 *234:18 0.000228558
31 *3272:A *233:16 0.000170026
32 *3272:B *233:16 5.23822e-05
33 *3299:A *233:16 5.84941e-05
34 *203:19 *233:16 0.000158407
35 *205:23 *3310:B1 0
36 *205:40 *3310:B1 0
37 *210:10 *3310:B1 0
38 *211:6 *233:16 3.24049e-05
39 *231:29 *233:37 0
40 *232:6 *233:16 3.11088e-05
*RES
1 *3300:X *233:16 30.6393 
2 *233:16 *3302:A 9.72857 
3 *233:16 *233:29 10.9464 
4 *233:29 *233:37 8.125 
5 *233:37 *233:43 5.60714 
6 *233:43 *3310:B1 22.2107 
7 *233:43 *3335:A 9.3 
8 *233:37 *3333:B1 9.3 
9 *233:29 *3331:B1 13.8 
*END

*D_NET *234 0.00551311
*CONN
*I *3302:B I *D sky130_fd_sc_hd__nor2_2
*I *3335:B I *D sky130_fd_sc_hd__or2_2
*I *3310:B2 I *D sky130_fd_sc_hd__o221ai_2
*I *3301:Y O *D sky130_fd_sc_hd__a21oi_2
*CAP
1 *3302:B 1.69531e-05
2 *3335:B 0
3 *3310:B2 0.000266306
4 *3301:Y 0.000953905
5 *234:18 0.000705442
6 *234:12 0.00140999
7 *3302:B *3278:A 5.33005e-05
8 *3310:B2 *3310:C1 7.02611e-05
9 *3310:B2 *3311:A 0
10 *3310:B2 *3311:B 9.80173e-05
11 *3310:B2 *3336:A1 0.000171375
12 *3310:B2 *3336:A3 9.11365e-06
13 *3310:B2 *3337:B1 0
14 *3310:B2 *236:10 0
15 *234:12 *3270:A 5.23735e-05
16 *234:12 *3414:A 0.000251756
17 *234:12 *235:8 5.51716e-05
18 *234:18 *3333:A2 0.000177948
19 *234:18 *3336:A3 0
20 *234:18 *235:8 0.000377029
21 *3299:A *234:12 1.98839e-05
22 *3300:A *234:12 1.47872e-05
23 *3301:B1 *234:12 9.21611e-05
24 *3310:A1 *3310:B2 1.3701e-05
25 *203:6 *234:12 6.62144e-05
26 *231:14 *3310:B2 4.51495e-05
27 *231:14 *234:18 3.17148e-05
28 *231:29 *234:18 1.721e-05
29 *232:6 *234:12 7.60811e-05
30 *233:16 *3302:B 5.33005e-05
31 *233:16 *234:12 0.000185403
32 *233:43 *234:18 0.000228558
*RES
1 *3301:Y *234:12 28.2821 
2 *234:12 *234:18 14.6964 
3 *234:18 *3310:B2 24.175 
4 *234:18 *3335:B 9.3 
5 *234:12 *3302:B 14.3357 
*END

*D_NET *235 0.00421877
*CONN
*I *3414:A I *D sky130_fd_sc_hd__and4_4
*I *3331:A2 I *D sky130_fd_sc_hd__a211o_2
*I *3303:B I *D sky130_fd_sc_hd__nand2_2
*I *3333:A2 I *D sky130_fd_sc_hd__a21oi_2
*I *3302:Y O *D sky130_fd_sc_hd__nor2_2
*CAP
1 *3414:A 0.000420219
2 *3331:A2 0.000259589
3 *3303:B 0
4 *3333:A2 0.000122043
5 *3302:Y 0
6 *235:23 0.000259589
7 *235:8 0.00033271
8 *235:6 0.000630886
9 *3414:A *3414:B 3.32631e-05
10 *3414:A *717:14 9.71197e-05
11 *3414:A *886:16 0.00053268
12 *3414:A *886:22 7.89362e-05
13 *235:8 *3331:C1 0
14 *235:8 *886:22 9.96553e-05
15 *3331:A1 *3331:A2 0.000158242
16 *204:10 *3414:A 0
17 *204:12 *3414:A 0
18 *231:29 *3331:A2 5.52302e-05
19 *231:29 *3333:A2 0.000177948
20 *231:29 *235:8 1.02504e-05
21 *233:37 *3333:A2 0
22 *233:43 *3333:A2 8.85034e-05
23 *234:12 *3414:A 0.000251756
24 *234:12 *235:8 5.51716e-05
25 *234:18 *3333:A2 0.000177948
26 *234:18 *235:8 0.000377029
*RES
1 *3302:Y *235:6 13.8 
2 *235:6 *235:8 5.58929 
3 *235:8 *3333:A2 17.425 
4 *235:8 *235:23 4.5 
5 *235:23 *3303:B 9.3 
6 *235:23 *3331:A2 13.9786 
7 *235:6 *3414:A 23.675 
*END

*D_NET *236 0.00106307
*CONN
*I *3337:B2 I *D sky130_fd_sc_hd__a2bb2oi_2
*I *3311:A I *D sky130_fd_sc_hd__nand2_2
*I *3303:Y O *D sky130_fd_sc_hd__nand2_2
*CAP
1 *3337:B2 0
2 *3311:A 0.000134555
3 *3303:Y 0.000235185
4 *236:10 0.00036974
5 *3311:A *3311:B 5.26091e-05
6 *3311:A *3336:B1 1.76039e-05
7 *3311:A *3337:B1 0
8 *3311:A *3338:A 0
9 *236:10 *3337:A1_N 0
10 *236:10 *3338:A 0
11 *236:10 *3338:C 4.48113e-05
12 *3310:B2 *3311:A 0
13 *3310:B2 *236:10 0
14 *3331:A1 *236:10 2.89016e-05
15 *231:14 *236:10 5.16583e-05
16 *231:29 *236:10 9.23111e-05
17 *233:37 *236:10 3.56976e-05
*RES
1 *3303:Y *236:10 18.8179 
2 *236:10 *3311:A 16.6571 
3 *236:10 *3337:B2 13.8 
*END

*D_NET *237 0.000452436
*CONN
*I *3309:A1 I *D sky130_fd_sc_hd__o21ai_4
*I *3304:X O *D sky130_fd_sc_hd__and3_4
*CAP
1 *3309:A1 0.0001208
2 *3304:X 0.0001208
3 *3309:A1 *3309:B1 6.13812e-05
4 *3309:A1 *260:20 9.58126e-05
5 *205:55 *3309:A1 5.36422e-05
*RES
1 *3304:X *3309:A1 30.1893 
*END

*D_NET *238 0.0002166
*CONN
*I *3309:A2 I *D sky130_fd_sc_hd__o21ai_4
*I *3305:Y O *D sky130_fd_sc_hd__a21oi_2
*CAP
1 *3309:A2 4.63508e-05
2 *3305:Y 4.63508e-05
3 *3309:A2 *3309:B1 1.02504e-05
4 *3309:A2 *596:42 4.38511e-05
5 *205:55 *3309:A2 6.97972e-05
*RES
1 *3305:Y *3309:A2 29.2429 
*END

*D_NET *239 0.000927731
*CONN
*I *3308:B1 I *D sky130_fd_sc_hd__o2bb2ai_2
*I *3321:A1 I *D sky130_fd_sc_hd__o211ai_2
*I *3306:X O *D sky130_fd_sc_hd__and3_2
*CAP
1 *3308:B1 0.000266324
2 *3321:A1 4.43827e-05
3 *3306:X 5.81736e-05
4 *239:6 0.000368881
5 *3321:A1 *260:20 5.23735e-05
6 *239:6 *260:20 7.01807e-05
7 *3284:A *3308:B1 0
8 *217:8 *3308:B1 6.74158e-05
*RES
1 *3306:X *239:6 10.6571 
2 *239:6 *3321:A1 10.2464 
3 *239:6 *3308:B1 23.2821 
*END

*D_NET *240 0.00291869
*CONN
*I *3321:A2 I *D sky130_fd_sc_hd__o211ai_2
*I *3308:B2 I *D sky130_fd_sc_hd__o2bb2ai_2
*I *3307:X O *D sky130_fd_sc_hd__a311o_2
*CAP
1 *3321:A2 0
2 *3308:B2 0.000278651
3 *3307:X 0.000557797
4 *240:10 0.000836448
5 *3308:B2 *3309:B1 0.000143633
6 *3308:B2 *718:81 2.12733e-05
7 *3297:A1 *240:10 0.000112926
8 *3307:A2 *240:10 9.84097e-05
9 *3307:B1 *240:10 0.000130414
10 *3308:A1_N *3308:B2 8.13261e-06
11 *214:26 *240:10 2.12912e-05
12 *214:37 *240:10 4.33899e-05
13 *217:8 *3308:B2 0.000104395
14 *217:8 *240:10 9.56968e-05
15 *219:10 *240:10 0.000320038
16 *228:16 *3308:B2 4.1331e-06
17 *228:16 *240:10 6.57244e-05
18 *228:18 *3308:B2 7.63354e-05
*RES
1 *3307:X *240:10 25.3536 
2 *240:10 *3308:B2 20.55 
3 *240:10 *3321:A2 13.8 
*END

*D_NET *241 0.00265748
*CONN
*I *3309:B1 I *D sky130_fd_sc_hd__o21ai_4
*I *3308:Y O *D sky130_fd_sc_hd__o2bb2ai_2
*CAP
1 *3309:B1 0.000572991
2 *3308:Y 0.000572991
3 *3309:B1 *3896:CLK 8.84088e-05
4 *3309:B1 *260:20 9.87503e-05
5 *3309:B1 *596:42 9.65412e-05
6 *3309:B1 *718:81 0.00100776
7 *3308:B2 *3309:B1 0.000143633
8 *3309:A1 *3309:B1 6.13812e-05
9 *3309:A2 *3309:B1 1.02504e-05
10 *205:55 *3309:B1 4.7716e-06
*RES
1 *3308:Y *3309:B1 43.2071 
*END

*D_NET *242 0.00228102
*CONN
*I *3336:A2 I *D sky130_fd_sc_hd__a31oi_2
*I *3310:C1 I *D sky130_fd_sc_hd__o221ai_2
*I *3314:A I *D sky130_fd_sc_hd__nand2_2
*I *3309:Y O *D sky130_fd_sc_hd__o21ai_4
*CAP
1 *3336:A2 5.52531e-05
2 *3310:C1 0.000153064
3 *3314:A 0
4 *3309:Y 0.000276826
5 *242:23 0.000542751
6 *242:10 0.00061126
7 *3310:C1 *3311:B 0
8 *3310:C1 *3336:A3 0.000200413
9 *242:10 *3329:B2 0
10 *242:10 *247:14 0
11 *242:10 *260:20 0.00019806
12 *242:23 *3314:B 0
13 *242:23 *3329:B2 0
14 *3310:B1 *3310:C1 3.51442e-05
15 *3310:B2 *3310:C1 7.02611e-05
16 *205:40 *242:23 0
17 *231:14 *3310:C1 0.000137983
*RES
1 *3309:Y *242:10 19.1571 
2 *242:10 *3314:A 13.8 
3 *242:10 *242:23 10.4286 
4 *242:23 *3310:C1 22.5143 
5 *242:23 *3336:A2 10.2464 
*END

*D_NET *243 0.000964789
*CONN
*I *3311:B I *D sky130_fd_sc_hd__nand2_2
*I *3310:Y O *D sky130_fd_sc_hd__o221ai_2
*CAP
1 *3311:B 0.000331579
2 *3310:Y 0.000331579
3 *3311:B *3336:A1 0
4 *3311:B *3337:B1 0.000103756
5 *3310:B2 *3311:B 9.80173e-05
6 *3310:C1 *3311:B 0
7 *3311:A *3311:B 5.26091e-05
8 *231:14 *3311:B 4.72487e-05
*RES
1 *3310:Y *3311:B 32.9571 
*END

*D_NET *244 0.000679723
*CONN
*I *3329:A1_N I *D sky130_fd_sc_hd__o2bb2ai_2
*I *3311:Y O *D sky130_fd_sc_hd__nand2_2
*CAP
1 *3329:A1_N 0.000164311
2 *3311:Y 0.000164311
3 *3329:A1_N *3329:B1 4.46186e-06
4 *3329:A1_N *3336:B1 0.000346639
*RES
1 *3311:Y *3329:A1_N 31.975 
*END

*D_NET *245 0.000105377
*CONN
*I *3313:A1 I *D sky130_fd_sc_hd__o21ai_2
*I *3312:X O *D sky130_fd_sc_hd__and3_2
*CAP
1 *3313:A1 3.6695e-05
2 *3312:X 3.6695e-05
3 *3313:B1 *3313:A1 6.05161e-06
4 *230:8 *3313:A1 2.59355e-05
*RES
1 *3312:X *3313:A1 19.1357 
*END

*D_NET *246 0.000619511
*CONN
*I *3314:B I *D sky130_fd_sc_hd__nand2_2
*I *3313:Y O *D sky130_fd_sc_hd__o21ai_2
*CAP
1 *3314:B 0.000233228
2 *3313:Y 0.000233228
3 *205:40 *3314:B 0.000153054
4 *242:23 *3314:B 0
*RES
1 *3313:Y *3314:B 32.1357 
*END

*D_NET *247 0.00116694
*CONN
*I *3315:B I *D sky130_fd_sc_hd__nor2_2
*I *3328:A1 I *D sky130_fd_sc_hd__a21oi_2
*I *3314:Y O *D sky130_fd_sc_hd__nand2_2
*CAP
1 *3315:B 0.000159674
2 *3328:A1 0
3 *3314:Y 0.000338713
4 *247:14 0.000498387
5 *3315:B *3315:A 6.69094e-05
6 *247:14 *3329:B2 0.00010326
7 *247:14 *560:8 0
8 *242:10 *247:14 0
*RES
1 *3314:Y *247:14 23.7821 
2 *247:14 *3328:A1 9.3 
3 *247:14 *3315:B 12.3357 
*END

*D_NET *248 0.000432451
*CONN
*I *3329:B1 I *D sky130_fd_sc_hd__o2bb2ai_2
*I *3315:Y O *D sky130_fd_sc_hd__nor2_2
*CAP
1 *3329:B1 0.000159905
2 *3315:Y 0.000159905
3 *3329:B1 *3329:B2 0
4 *3329:B1 *3336:B1 4.97121e-06
5 *3329:B1 *3338:A 5.52238e-05
6 *3329:B1 *560:8 4.79842e-05
7 *3329:A1_N *3329:B1 4.46186e-06
*RES
1 *3315:Y *3329:B1 30.9036 
*END

*D_NET *249 0.00103295
*CONN
*I *3324:A I *D sky130_fd_sc_hd__nand2_2
*I *3320:A1_N I *D sky130_fd_sc_hd__o2bb2ai_2
*I *3316:Y O *D sky130_fd_sc_hd__nand3_2
*CAP
1 *3324:A 0
2 *3320:A1_N 6.25794e-05
3 *3316:Y 0.000145478
4 *249:8 0.000208057
5 *3320:A1_N *3326:A1 9.47456e-05
6 *3320:A1_N *3929:D 0
7 *249:8 *3929:D 0
8 *195:10 *3320:A1_N 0.000202128
9 *195:10 *249:8 0.000319962
*RES
1 *3316:Y *249:8 17.8714 
2 *249:8 *3320:A1_N 16.3536 
3 *249:8 *3324:A 13.8 
*END

*D_NET *250 0.0012048
*CONN
*I *3324:B I *D sky130_fd_sc_hd__nand2_2
*I *3320:A2_N I *D sky130_fd_sc_hd__o2bb2ai_2
*I *3317:Y O *D sky130_fd_sc_hd__o211ai_2
*CAP
1 *3324:B 6.6241e-05
2 *3320:A2_N 0.000134713
3 *3317:Y 4.92791e-05
4 *250:8 0.000250233
5 *3320:A2_N *3322:A2 6.94952e-05
6 *3296:B2 *3320:A2_N 0.000223599
7 *3296:B2 *250:8 9.25014e-06
8 *3318:B1 *3320:A2_N 0.00020042
9 *195:10 *3320:A2_N 1.00375e-05
10 *195:10 *250:8 4.93749e-05
11 *225:30 *250:8 0.000142152
*RES
1 *3317:Y *250:8 15.7464 
2 *250:8 *3320:A2_N 18.0143 
3 *250:8 *3324:B 14.7464 
*END

*D_NET *251 0.00256911
*CONN
*I *3320:B1 I *D sky130_fd_sc_hd__o2bb2ai_2
*I *3325:B1 I *D sky130_fd_sc_hd__a21oi_2
*I *3318:Y O *D sky130_fd_sc_hd__a2bb2oi_2
*CAP
1 *3320:B1 4.03719e-05
2 *3325:B1 0.00035778
3 *3318:Y 0.000113916
4 *251:10 0.000512068
5 *3325:B1 *3322:B1 0.000141555
6 *3325:B1 *3326:B1 0.000225314
7 *3325:B1 *3326:B2 3.13687e-05
8 *3325:B1 *3327:B2 0.000107503
9 *3286:B1 *3320:B1 6.05161e-06
10 *3296:B2 *3325:B1 0.000202842
11 *3296:B2 *251:10 0.00014209
12 *3307:B1 *3325:B1 0.00027438
13 *3318:A1_N *251:10 2.59355e-05
14 *3318:B1 *3325:B1 1.00375e-05
15 *3326:A2 *3325:B1 0
16 *195:10 *3325:B1 0
17 *217:22 *3325:B1 5.88692e-05
18 *218:41 *251:10 9.30093e-05
19 *218:43 *3325:B1 0.000167691
20 *218:43 *251:10 5.83304e-05
*RES
1 *3318:Y *251:10 16.6929 
2 *251:10 *3325:B1 25.3 
3 *251:10 *3320:B1 14.3357 
*END

*D_NET *252 0.00189576
*CONN
*I *3320:B2 I *D sky130_fd_sc_hd__o2bb2ai_2
*I *3319:X O *D sky130_fd_sc_hd__o211a_2
*CAP
1 *3320:B2 0.000400496
2 *3319:X 0.000400496
3 *3295:B1 *3320:B2 0.000126416
4 *3295:C1 *3320:B2 0.000215383
5 *3317:A2 *3320:B2 8.09674e-05
6 *218:39 *3320:B2 0.000381241
7 *218:41 *3320:B2 0.000148911
8 *218:43 *3320:B2 8.07951e-05
9 *224:31 *3320:B2 1.12578e-05
10 *228:10 *3320:B2 4.97967e-05
*RES
1 *3319:X *3320:B2 38.6893 
*END

*D_NET *253 0.00223234
*CONN
*I *3322:A2 I *D sky130_fd_sc_hd__o21ai_2
*I *3320:Y O *D sky130_fd_sc_hd__o2bb2ai_2
*CAP
1 *3322:A2 0.000843244
2 *3320:Y 0.000843244
3 *3322:A2 *3322:A1 0.000259772
4 *3322:A2 *3326:A1 0
5 *3322:A2 *3326:B2 0
6 *3322:A2 *3929:D 0.000198738
7 *3322:A2 *3979:A 0
8 *3322:A2 *632:25 1.78447e-05
9 *3320:A2_N *3322:A2 6.94952e-05
*RES
1 *3320:Y *3322:A2 44.0464 
*END

*D_NET *254 0.00181183
*CONN
*I *3322:B1 I *D sky130_fd_sc_hd__o21ai_2
*I *3321:Y O *D sky130_fd_sc_hd__o211ai_2
*CAP
1 *3322:B1 0.00051409
2 *3321:Y 0.00051409
3 *3322:B1 *3327:A2_N 0.000274288
4 *3322:B1 *260:20 2.51343e-06
5 *3325:A1 *3322:B1 4.43256e-05
6 *3325:B1 *3322:B1 0.000141555
7 *217:12 *3322:B1 0.00018372
8 *228:16 *3322:B1 0.000101545
9 *229:12 *3322:B1 3.5707e-05
*RES
1 *3321:Y *3322:B1 37.4214 
*END

*D_NET *255 0.00112819
*CONN
*I *3327:A2_N I *D sky130_fd_sc_hd__o2bb2ai_2
*I *3322:Y O *D sky130_fd_sc_hd__o21ai_2
*CAP
1 *3327:A2_N 0.000315421
2 *3322:Y 0.000315421
3 *3327:A2_N *3326:B1 0
4 *3327:A2_N *3894:D 6.74569e-05
5 *3327:A2_N *3929:RESET_B 2.04817e-05
6 *3327:A2_N *718:91 0.000135126
7 *3322:B1 *3327:A2_N 0.000274288
*RES
1 *3322:Y *3327:A2_N 35.5821 
*END

*D_NET *256 0.000208017
*CONN
*I *3327:B1 I *D sky130_fd_sc_hd__o2bb2ai_2
*I *3323:Y O *D sky130_fd_sc_hd__nand2_2
*CAP
1 *3327:B1 5.03151e-05
2 *3323:Y 5.03151e-05
3 *3327:B1 *3323:B 5.50052e-05
4 *3327:B1 *260:20 5.23822e-05
*RES
1 *3323:Y *3327:B1 19.975 
*END

*D_NET *257 0.00124749
*CONN
*I *3326:A1 I *D sky130_fd_sc_hd__o22ai_2
*I *3324:Y O *D sky130_fd_sc_hd__nand2_2
*CAP
1 *3326:A1 0.00035634
2 *3324:Y 0.00035634
3 *3326:A1 *3929:D 0
4 *3326:A1 *3979:A 0.000198698
5 *3326:A1 *4000:A 8.15939e-05
6 *3320:A1_N *3326:A1 9.47456e-05
7 *3322:A2 *3326:A1 0
8 *3326:A2 *3326:A1 6.48957e-05
9 *195:10 *3326:A1 9.48769e-05
*RES
1 *3324:Y *3326:A1 37.1357 
*END

*D_NET *258 0.000372718
*CONN
*I *3326:B2 I *D sky130_fd_sc_hd__o22ai_2
*I *3325:Y O *D sky130_fd_sc_hd__a21oi_2
*CAP
1 *3326:B2 0.000122219
2 *3325:Y 0.000122219
3 *3326:B2 *3326:B1 9.24491e-05
4 *3322:A2 *3326:B2 0
5 *3325:B1 *3326:B2 3.13687e-05
6 *3326:A2 *3326:B2 4.46186e-06
*RES
1 *3325:Y *3326:B2 30.3857 
*END

*D_NET *259 0.00155543
*CONN
*I *3327:B2 I *D sky130_fd_sc_hd__o2bb2ai_2
*I *3326:Y O *D sky130_fd_sc_hd__o22ai_2
*CAP
1 *3327:B2 0.000420621
2 *3326:Y 0.000420621
3 *3327:B2 *3323:B 0.000148651
4 *3327:B2 *3326:B1 0.000123944
5 *3327:B2 *558:10 1.0609e-05
6 *3308:A2_N *3327:B2 3.99305e-05
7 *3325:B1 *3327:B2 0.000107503
8 *217:22 *3327:B2 0.000200413
9 *229:12 *3327:B2 8.31314e-05
*RES
1 *3326:Y *3327:B2 37.6 
*END

*D_NET *260 0.00390697
*CONN
*I *3328:B1 I *D sky130_fd_sc_hd__a21oi_2
*I *3327:Y O *D sky130_fd_sc_hd__o2bb2ai_2
*CAP
1 *3328:B1 0
2 *3327:Y 0.0013467
3 *260:20 0.0013467
4 *260:20 *3323:B 1.21258e-05
5 *3306:B *260:20 0.000138571
6 *3306:C *260:20 3.45159e-05
7 *3308:A2_N *260:20 3.18309e-05
8 *3309:A1 *260:20 9.58126e-05
9 *3309:B1 *260:20 9.87503e-05
10 *3321:A1 *260:20 5.23735e-05
11 *3322:B1 *260:20 2.51343e-06
12 *3327:B1 *260:20 5.23822e-05
13 *205:55 *260:20 0.000308595
14 *209:35 *260:20 1.76096e-05
15 *228:18 *260:20 0.000100248
16 *239:6 *260:20 7.01807e-05
17 *242:10 *260:20 0.00019806
*RES
1 *3327:Y *260:20 43.05 
2 *260:20 *3328:B1 9.3 
*END

*D_NET *261 0.00025012
*CONN
*I *3329:B2 I *D sky130_fd_sc_hd__o2bb2ai_2
*I *3328:Y O *D sky130_fd_sc_hd__a21oi_2
*CAP
1 *3329:B2 7.34301e-05
2 *3328:Y 7.34301e-05
3 *3329:B1 *3329:B2 0
4 *242:10 *3329:B2 0
5 *242:23 *3329:B2 0
6 *247:14 *3329:B2 0.00010326
*RES
1 *3328:Y *3329:B2 29.2429 
*END

*D_NET *262 0.00224437
*CONN
*I *3338:A I *D sky130_fd_sc_hd__nand3_4
*I *3329:Y O *D sky130_fd_sc_hd__o2bb2ai_2
*CAP
1 *3338:A 0.000636691
2 *3329:Y 0.000636691
3 *3338:A *3336:B1 0.000199699
4 *3338:A *3337:A1_N 7.83174e-05
5 *3338:A *3337:A2_N 0.000181803
6 *3338:A *3338:C 0.000102545
7 *3338:A *3893:CLK 0.000347354
8 *3338:A *3900:CLK 6.05161e-06
9 *3311:A *3338:A 0
10 *3329:B1 *3338:A 5.52238e-05
11 *3893:D *3338:A 0
12 *236:10 *3338:A 0
*RES
1 *3329:Y *3338:A 42.1357 
*END

*D_NET *263 0.00251777
*CONN
*I *3414:C I *D sky130_fd_sc_hd__and4_4
*I *3331:C1 I *D sky130_fd_sc_hd__a211o_2
*I *3330:Y O *D sky130_fd_sc_hd__xnor2_2
*CAP
1 *3414:C 0.000150271
2 *3331:C1 0.000446569
3 *3330:Y 6.59538e-05
4 *263:8 0.000662794
5 *3331:C1 *3275:B_N 6.96346e-05
6 *3331:C1 *3278:A 0.000146853
7 *3331:C1 *3337:A1_N 0
8 *3331:C1 *887:12 3.92854e-05
9 *3331:C1 *887:14 6.69944e-05
10 *3331:C1 *887:16 8.0025e-05
11 *3331:C1 *888:34 0
12 *3331:C1 *888:62 0.000182179
13 *3414:C *887:10 0.000106552
14 *3414:C *887:12 3.67452e-05
15 *263:8 *888:8 9.90431e-05
16 *233:29 *3331:C1 0.000354625
17 *233:37 *3331:C1 1.02504e-05
18 *235:8 *3331:C1 0
*RES
1 *3330:Y *263:8 14.7464 
2 *263:8 *3331:C1 25.1571 
3 *263:8 *3414:C 17.2643 
*END

*D_NET *264 0.000259556
*CONN
*I *3338:B I *D sky130_fd_sc_hd__nand3_4
*I *3331:X O *D sky130_fd_sc_hd__a211o_2
*CAP
1 *3338:B 7.02557e-05
2 *3331:X 7.02557e-05
3 *3338:B *3337:A1_N 8.39e-05
4 *3893:D *3338:B 3.51442e-05
*RES
1 *3331:X *3338:B 29.5464 
*END

*D_NET *265 0.00202856
*CONN
*I *3337:A1_N I *D sky130_fd_sc_hd__a2bb2oi_2
*I *3332:X O *D sky130_fd_sc_hd__xor2_2
*CAP
1 *3337:A1_N 0.000664737
2 *3332:X 0.000664737
3 *3337:A1_N *3275:A 0.000146017
4 *3337:A1_N *3278:A 4.48698e-05
5 *3337:A1_N *3337:A2_N 6.74815e-05
6 *3337:A1_N *3338:C 1.00375e-05
7 *3337:A1_N *888:34 1.37442e-05
8 *3337:A1_N *888:62 5.71639e-05
9 *3331:C1 *3337:A1_N 0
10 *3338:A *3337:A1_N 7.83174e-05
11 *3338:B *3337:A1_N 8.39e-05
12 *3893:D *3337:A1_N 1.18451e-05
13 *233:29 *3337:A1_N 0.000123048
14 *233:37 *3337:A1_N 6.26653e-05
15 *236:10 *3337:A1_N 0
*RES
1 *3332:X *3337:A1_N 42.6 
*END

*D_NET *266 0.00104088
*CONN
*I *3337:A2_N I *D sky130_fd_sc_hd__a2bb2oi_2
*I *3333:Y O *D sky130_fd_sc_hd__a21oi_2
*CAP
1 *3337:A2_N 0.000310456
2 *3333:Y 0.000310456
3 *3337:A1_N *3337:A2_N 6.74815e-05
4 *3338:A *3337:A2_N 0.000181803
5 *3893:D *3337:A2_N 0.000128146
6 *233:37 *3337:A2_N 2.32517e-05
7 *233:43 *3337:A2_N 1.92905e-05
*RES
1 *3333:Y *3337:A2_N 32.6536 
*END

*D_NET *267 0.00176367
*CONN
*I *3336:A1 I *D sky130_fd_sc_hd__a31oi_2
*I *3334:X O *D sky130_fd_sc_hd__a221o_2
*CAP
1 *3336:A1 0.000572504
2 *3334:X 0.000572504
3 *3336:A1 *3336:A3 0.000163999
4 *3336:A1 *3337:B1 0
5 *3310:B1 *3336:A1 7.3237e-05
6 *3310:B2 *3336:A1 0.000171375
7 *3311:B *3336:A1 0
8 *205:23 *3336:A1 0.000188586
9 *233:43 *3336:A1 2.14658e-05
*RES
1 *3334:X *3336:A1 37.2607 
*END

*D_NET *268 0.000831648
*CONN
*I *3336:A3 I *D sky130_fd_sc_hd__a31oi_2
*I *3335:X O *D sky130_fd_sc_hd__or2_2
*CAP
1 *3336:A3 0.000187379
2 *3335:X 0.000187379
3 *3310:B1 *3336:A3 8.33655e-05
4 *3310:B2 *3336:A3 9.11365e-06
5 *3310:C1 *3336:A3 0.000200413
6 *3336:A1 *3336:A3 0.000163999
7 *205:23 *3336:A3 0
8 *234:18 *3336:A3 0
*RES
1 *3335:X *3336:A3 33.1893 
*END

*D_NET *269 0.000463989
*CONN
*I *3337:B1 I *D sky130_fd_sc_hd__a2bb2oi_2
*I *3336:Y O *D sky130_fd_sc_hd__a31oi_2
*CAP
1 *3337:B1 0.000153445
2 *3336:Y 0.000153445
3 *3310:B2 *3337:B1 0
4 *3311:A *3337:B1 0
5 *3311:B *3337:B1 0.000103756
6 *3336:A1 *3337:B1 0
7 *231:14 *3337:B1 5.33433e-05
*RES
1 *3336:Y *3337:B1 30.9036 
*END

*D_NET *270 0.000257271
*CONN
*I *3338:C I *D sky130_fd_sc_hd__nand3_4
*I *3337:Y O *D sky130_fd_sc_hd__a2bb2oi_2
*CAP
1 *3338:C 4.99385e-05
2 *3337:Y 4.99385e-05
3 *3337:A1_N *3338:C 1.00375e-05
4 *3338:A *3338:C 0.000102545
5 *236:10 *3338:C 4.48113e-05
*RES
1 *3337:Y *3338:C 29.2429 
*END

*D_NET *271 0.00119499
*CONN
*I *3364:A1 I *D sky130_fd_sc_hd__o211a_2
*I *3348:A1 I *D sky130_fd_sc_hd__o211ai_2
*I *3351:A I *D sky130_fd_sc_hd__nor2_2
*I *3339:X O *D sky130_fd_sc_hd__and2_2
*CAP
1 *3364:A1 4.68077e-05
2 *3348:A1 1.98496e-05
3 *3351:A 0
4 *3339:X 0.00016645
5 *271:21 0.000154531
6 *271:10 0.000254324
7 *3348:A1 *3364:A2 4.60153e-05
8 *3348:A1 *276:16 9.83388e-05
9 *3364:A1 *3364:A2 8.4126e-05
10 *3364:A1 *276:16 3.24194e-05
11 *271:10 *272:8 0
12 *271:21 *3352:C 9.76123e-05
13 *176:14 *271:10 9.99853e-05
14 *178:27 *271:10 6.93435e-05
15 *178:27 *271:21 2.51903e-05
*RES
1 *3339:X *271:10 16.6929 
2 *271:10 *3351:A 13.8 
3 *271:10 *271:21 6.44643 
4 *271:21 *3348:A1 10.2464 
5 *271:21 *3364:A1 10.5232 
*END

*D_NET *272 0.00178806
*CONN
*I *3364:A2 I *D sky130_fd_sc_hd__o211a_2
*I *3348:A2 I *D sky130_fd_sc_hd__o211ai_2
*I *3351:B I *D sky130_fd_sc_hd__nor2_2
*I *3340:Y O *D sky130_fd_sc_hd__nor2_2
*CAP
1 *3364:A2 0.000125306
2 *3348:A2 0
3 *3351:B 0.000135974
4 *3340:Y 0.000121986
5 *272:23 0.000254238
6 *272:8 0.000386891
7 *3364:A2 *3348:C1 8.71079e-05
8 *3364:A2 *276:10 2.48034e-05
9 *3364:A2 *276:16 8.8084e-05
10 *3364:A2 *296:18 0.000230284
11 *272:23 *3348:B1 3.02892e-05
12 *272:23 *3369:B1 4.88537e-05
13 *272:23 *276:16 2.85321e-05
14 *272:23 *296:18 2.12733e-05
15 *3348:A1 *3364:A2 4.60153e-05
16 *3364:A1 *3364:A2 8.4126e-05
17 *3369:D1 *272:8 7.43001e-05
18 *178:27 *272:8 0
19 *271:10 *272:8 0
*RES
1 *3340:Y *272:8 16.05 
2 *272:8 *3351:B 15.9786 
3 *272:8 *272:23 7.28571 
4 *272:23 *3348:A2 9.3 
5 *272:23 *3364:A2 13.9786 
*END

*D_NET *273 0.000662068
*CONN
*I *3350:A I *D sky130_fd_sc_hd__nand3_2
*I *3344:A I *D sky130_fd_sc_hd__nand3_2
*I *3341:Y O *D sky130_fd_sc_hd__inv_2
*CAP
1 *3350:A 0.000114803
2 *3344:A 5.49048e-05
3 *3341:Y 0.000169707
4 *3344:A *3341:A 1.02301e-05
5 *3344:A *3344:C 0
6 *3344:A *279:6 9.75679e-05
7 *3344:A *709:71 1.84865e-05
8 *3350:A *3349:C 7.09043e-05
9 *3350:A *279:6 5.66971e-05
10 *3350:A *327:29 6.87672e-05
*RES
1 *3341:Y *3344:A 19.975 
2 *3341:Y *3350:A 30.0821 
*END

*D_NET *274 0.00282493
*CONN
*I *3385:B I *D sky130_fd_sc_hd__and3_2
*I *3355:A I *D sky130_fd_sc_hd__nand4_2
*I *3344:B I *D sky130_fd_sc_hd__nand3_2
*I *3349:A I *D sky130_fd_sc_hd__nand3_2
*I *3342:Y O *D sky130_fd_sc_hd__nand2b_2
*CAP
1 *3385:B 0.00030301
2 *3355:A 0
3 *3344:B 0
4 *3349:A 0.000198064
5 *3342:Y 0
6 *274:14 0.000348192
7 *274:8 0.000407157
8 *274:4 0.000560039
9 *3349:A *275:25 6.14702e-06
10 *3349:A *275:42 5.19044e-05
11 *3349:A *290:18 5.49995e-05
12 *3349:A *566:10 6.44525e-05
13 *3385:B *277:60 0.000124749
14 *3385:B *290:18 0.000226272
15 *274:8 *3342:B 5.49995e-05
16 *274:8 *3345:A 1.19813e-05
17 *274:8 *3345:B 1.24368e-05
18 *274:8 *3355:B 1.24368e-05
19 *274:14 *3355:B 9.67754e-05
20 *274:14 *3355:C 2.53112e-06
21 *274:14 *275:10 2.72055e-05
22 *274:14 *275:25 6.11331e-05
23 *180:42 *3385:B 0.000145441
24 *181:23 *3349:A 5.49995e-05
*RES
1 *3342:Y *274:4 9.3 
2 *274:4 *274:8 4.25 
3 *274:8 *274:14 7.69643 
4 *274:14 *3349:A 17.7286 
5 *274:14 *3344:B 13.8 
6 *274:8 *3355:A 9.3 
7 *274:4 *3385:B 24.2464 
*END

*D_NET *275 0.00396011
*CONN
*I *3385:C I *D sky130_fd_sc_hd__and3_2
*I *3349:B I *D sky130_fd_sc_hd__nand3_2
*I *3344:C I *D sky130_fd_sc_hd__nand3_2
*I *3355:B I *D sky130_fd_sc_hd__nand4_2
*I *3343:Y O *D sky130_fd_sc_hd__nand2b_2
*CAP
1 *3385:C 0.000204992
2 *3349:B 0
3 *3344:C 0.000121503
4 *3355:B 0.000119245
5 *3343:Y 0.000402736
6 *275:42 0.000311688
7 *275:25 0.000286486
8 *275:10 0.000580267
9 *3344:C *276:6 5.66971e-05
10 *3344:C *279:6 0.000155456
11 *3385:C *3350:B 9.84673e-05
12 *3385:C *3350:C 0.000153472
13 *3385:C *3384:C 6.14702e-06
14 *3385:C *3390:C 5.50052e-05
15 *3385:C *277:60 8.67814e-06
16 *3385:C *278:47 1.46689e-05
17 *3385:C *290:18 0.000546619
18 *275:10 *3343:A_N 2.89114e-05
19 *275:10 *3355:C 0
20 *275:10 *709:58 0.000137318
21 *275:10 *895:16 2.15396e-05
22 *275:25 *3349:C 3.8206e-05
23 *275:25 *709:58 3.9733e-05
24 *275:42 *3349:C 9.3429e-05
25 *3344:A *3344:C 0
26 *3349:A *275:25 6.14702e-06
27 *3349:A *275:42 5.19044e-05
28 *3388:A *3385:C 9.15842e-06
29 *181:23 *3385:C 0.000214087
30 *274:8 *3355:B 1.24368e-05
31 *274:14 *3355:B 9.67754e-05
32 *274:14 *275:10 2.72055e-05
33 *274:14 *275:25 6.11331e-05
*RES
1 *3343:Y *275:10 19.7643 
2 *275:10 *3355:B 16.0143 
3 *275:10 *275:25 1.94643 
4 *275:25 *3344:C 16.5321 
5 *275:25 *275:42 7.05357 
6 *275:42 *3349:B 9.3 
7 *275:42 *3385:C 25.5857 
*END

*D_NET *276 0.00381131
*CONN
*I *3373:B I *D sky130_fd_sc_hd__and3_2
*I *3364:B1 I *D sky130_fd_sc_hd__o211a_2
*I *3348:B1 I *D sky130_fd_sc_hd__o211ai_2
*I *3369:B1 I *D sky130_fd_sc_hd__o2111a_2
*I *3344:Y O *D sky130_fd_sc_hd__nand3_2
*CAP
1 *3373:B 5.14762e-05
2 *3364:B1 0
3 *3348:B1 1.51424e-05
4 *3369:B1 0.000171772
5 *3344:Y 0.000209998
6 *276:16 0.000652975
7 *276:10 0.000572283
8 *276:6 0.000367697
9 *3348:B1 *3369:C1 2.69483e-05
10 *3369:B1 *3369:C1 3.9733e-05
11 *3369:B1 *3372:A1 4.59602e-05
12 *3373:B *3364:C1 3.29297e-05
13 *3373:B *3373:C 9.10894e-05
14 *276:6 *3348:C1 1.98839e-05
15 *276:6 *3364:C1 4.17702e-05
16 *276:6 *279:6 0.000568827
17 *276:10 *3348:C1 0.000163024
18 *276:10 *3364:C1 0.000225239
19 *276:16 *3348:C1 6.15486e-06
20 *276:16 *296:18 1.04766e-05
21 *3344:C *276:6 5.66971e-05
22 *3348:A1 *276:16 9.83388e-05
23 *3364:A1 *276:16 3.24194e-05
24 *3364:A2 *276:10 2.48034e-05
25 *3364:A2 *276:16 8.8084e-05
26 *3369:D1 *3369:B1 2.85234e-05
27 *176:14 *3373:B 6.13903e-05
28 *272:23 *3348:B1 3.02892e-05
29 *272:23 *3369:B1 4.88537e-05
30 *272:23 *276:16 2.85321e-05
*RES
1 *3344:Y *276:6 15.175 
2 *276:6 *276:10 3.42857 
3 *276:10 *276:16 10.6964 
4 *276:16 *3369:B1 17.3357 
5 *276:16 *3348:B1 14.5321 
6 *276:10 *3364:B1 9.3 
7 *276:6 *3373:B 19.9429 
*END

*D_NET *277 0.00432164
*CONN
*I *3384:C I *D sky130_fd_sc_hd__and4_2
*I *3350:B I *D sky130_fd_sc_hd__nand3_2
*I *3347:A I *D sky130_fd_sc_hd__nand3_2
*I *3358:B1 I *D sky130_fd_sc_hd__o211ai_2
*I *3388:B I *D sky130_fd_sc_hd__and3_2
*I *3389:A I *D sky130_fd_sc_hd__nand2_2
*I *3345:X O *D sky130_fd_sc_hd__or2_4
*CAP
1 *3384:C 0.000119672
2 *3350:B 1.68118e-05
3 *3347:A 8.46154e-05
4 *3358:B1 0
5 *3388:B 0.000373317
6 *3389:A 9.88877e-05
7 *3345:X 0.000204398
8 *277:60 0.000254363
9 *277:47 0.000404154
10 *277:38 0.000201659
11 *277:14 0.000637031
12 *277:10 0.000369225
13 *3347:A *279:6 5.50052e-05
14 *3347:A *709:71 4.6829e-05
15 *3384:C *3384:D 5.49995e-05
16 *3384:C *3391:A1 3.46801e-05
17 *3388:B *278:32 6.93626e-06
18 *3388:B *320:6 9.75679e-05
19 *3389:A *3389:B 9.83442e-05
20 *3389:A *3390:C 4.73286e-05
21 *277:10 *3356:B 0.000185358
22 *277:10 *3358:A2 3.85645e-05
23 *277:14 *278:8 2.53112e-06
24 *277:14 *278:32 6.19198e-05
25 *277:47 *3347:B 0.000137767
26 *277:47 *3358:C1 9.84729e-05
27 *277:47 *290:18 0.000119969
28 *277:47 *709:71 1.12713e-05
29 *3385:B *277:60 0.000124749
30 *3385:C *3350:B 9.84673e-05
31 *3385:C *3384:C 6.14702e-06
32 *3385:C *277:60 8.67814e-06
33 *3388:A *3384:C 5.62306e-05
34 *3390:B *3384:C 1.25924e-05
35 *180:42 *3384:C 3.34634e-05
36 *180:42 *277:60 2.11693e-05
37 *181:23 *3350:B 9.84673e-05
*RES
1 *3345:X *277:10 17.2107 
2 *277:10 *277:14 3.08929 
3 *277:14 *3389:A 15.9964 
4 *277:14 *3388:B 19.4429 
5 *277:10 *277:38 4.5 
6 *277:38 *3358:B1 9.3 
7 *277:38 *277:47 5.07143 
8 *277:47 *3347:A 11.0857 
9 *277:47 *277:60 7.05357 
10 *277:60 *3350:B 14.7464 
11 *277:60 *3384:C 16.6929 
*END

*D_NET *278 0.00352858
*CONN
*I *3389:B I *D sky130_fd_sc_hd__nand2_2
*I *3388:C I *D sky130_fd_sc_hd__and3_2
*I *3384:D I *D sky130_fd_sc_hd__and4_2
*I *3350:C I *D sky130_fd_sc_hd__nand3_2
*I *3358:C1 I *D sky130_fd_sc_hd__o211ai_2
*I *3347:B I *D sky130_fd_sc_hd__nand3_2
*I *3346:Y O *D sky130_fd_sc_hd__nand2_2
*CAP
1 *3389:B 6.26741e-05
2 *3388:C 0
3 *3384:D 0.000200045
4 *3350:C 3.93881e-05
5 *3358:C1 3.6116e-05
6 *3347:B 0.000136592
7 *3346:Y 0.000278961
8 *278:47 0.000294336
9 *278:34 0.000171692
10 *278:32 0.000222353
11 *278:10 0.000172708
12 *278:8 0.000400627
13 *3347:B *709:71 9.84673e-05
14 *3350:C *3390:C 4.28629e-05
15 *3350:C *290:18 4.51148e-05
16 *3384:D *3391:A1 2.9068e-05
17 *3384:D *320:6 9.44309e-06
18 *3389:B *3390:C 0.000226151
19 *278:8 *3357:B 7.50719e-05
20 *278:8 *898:47 0
21 *278:32 *290:18 4.88537e-05
22 *278:34 *3390:C 9.67754e-05
23 *278:47 *3387:A2_N 7.58841e-05
24 *3384:C *3384:D 5.49995e-05
25 *3385:C *3350:C 0.000153472
26 *3385:C *278:47 1.46689e-05
27 *3388:A *3384:D 5.50052e-05
28 *3388:A *278:47 2.45881e-05
29 *3388:B *278:32 6.93626e-06
30 *3389:A *3389:B 9.83442e-05
31 *181:23 *3350:C 5.66971e-05
32 *277:14 *278:8 2.53112e-06
33 *277:14 *278:32 6.19198e-05
34 *277:47 *3347:B 0.000137767
35 *277:47 *3358:C1 9.84729e-05
*RES
1 *3346:Y *278:8 18.4786 
2 *278:8 *278:10 4.5 
3 *278:10 *3347:B 12.7464 
4 *278:10 *3358:C1 10.2464 
5 *278:8 *278:32 7.35714 
6 *278:32 *278:34 0.946429 
7 *278:34 *3350:C 11.0679 
8 *278:34 *278:47 10.6429 
9 *278:47 *3384:D 11.8893 
10 *278:47 *3388:C 9.3 
11 *278:32 *3389:B 11.4786 
*END

*D_NET *279 0.00561207
*CONN
*I *3369:C1 I *D sky130_fd_sc_hd__o2111a_2
*I *3348:C1 I *D sky130_fd_sc_hd__o211ai_2
*I *3373:C I *D sky130_fd_sc_hd__and3_2
*I *3364:C1 I *D sky130_fd_sc_hd__o211a_2
*I *3347:Y O *D sky130_fd_sc_hd__nand3_2
*CAP
1 *3369:C1 4.60809e-05
2 *3348:C1 0.00080988
3 *3373:C 0.000143207
4 *3364:C1 0.000156285
5 *3347:Y 0.000522009
6 *279:8 0.000299492
7 *279:6 0.00128581
8 *3348:C1 *280:10 3.11088e-05
9 *3348:C1 *296:18 0.000315528
10 *3364:C1 *561:13 2.50593e-05
11 *3369:C1 *3942:CLK 6.66813e-05
12 *3373:C *3359:C 3.14003e-05
13 *3373:C *3360:A2 1.24368e-05
14 *3373:C *3376:A1 6.05161e-06
15 *3373:C *281:10 1.03904e-05
16 *3373:C *290:18 5.33005e-05
17 *3373:C *561:13 8.0025e-05
18 *279:6 *709:71 3.84968e-05
19 *3344:A *279:6 9.75679e-05
20 *3344:C *279:6 0.000155456
21 *3347:A *279:6 5.50052e-05
22 *3348:B1 *3369:C1 2.69483e-05
23 *3350:A *279:6 5.66971e-05
24 *3364:A2 *3348:C1 8.71079e-05
25 *3369:B1 *3369:C1 3.9733e-05
26 *3373:B *3364:C1 3.29297e-05
27 *3373:B *3373:C 9.10894e-05
28 *176:14 *3364:C1 6.14702e-06
29 *176:14 *3373:C 5.24684e-06
30 *276:6 *3348:C1 1.98839e-05
31 *276:6 *3364:C1 4.17702e-05
32 *276:6 *279:6 0.000568827
33 *276:10 *3348:C1 0.000163024
34 *276:10 *3364:C1 0.000225239
35 *276:16 *3348:C1 6.15486e-06
*RES
1 *3347:Y *279:6 19.6929 
2 *279:6 *279:8 4.5 
3 *279:8 *3364:C1 17.1214 
4 *279:8 *3373:C 17.0143 
5 *279:6 *3348:C1 19.7286 
6 *3348:C1 *3369:C1 29.2429 
*END

*D_NET *280 0.00474871
*CONN
*I *3371:B I *D sky130_fd_sc_hd__nand4_2
*I *3361:A2 I *D sky130_fd_sc_hd__a32o_2
*I *3362:C I *D sky130_fd_sc_hd__nand3_2
*I *3366:B1 I *D sky130_fd_sc_hd__a2bb2oi_2
*I *3348:Y O *D sky130_fd_sc_hd__o211ai_2
*CAP
1 *3371:B 3.17083e-05
2 *3361:A2 0
3 *3362:C 0.00012002
4 *3366:B1 0.000176487
5 *3348:Y 0.000400278
6 *280:29 0.000306555
7 *280:21 0.000290389
8 *280:10 0.000648911
9 *3362:C *3361:A1 1.5424e-05
10 *3362:C *3361:A3 5.52238e-05
11 *3362:C *3367:A2 1.00375e-05
12 *3362:C *3367:B1_N 0.000197269
13 *3362:C *4022:A 0.00014285
14 *3362:C *297:12 5.94923e-05
15 *3362:C *688:14 0.000225616
16 *3366:B1 *3366:B2 0.000183713
17 *3366:B1 *565:10 6.42095e-05
18 *3371:B *3372:C1 1.92789e-05
19 *280:10 *3942:CLK 0.000173015
20 *280:10 *292:10 0.000285976
21 *280:10 *565:70 0.000290614
22 *280:10 *565:72 0.000101908
23 *280:10 *565:74 0.000175281
24 *280:10 *688:14 2.49484e-05
25 *280:21 *292:10 0.000104236
26 *280:21 *688:14 9.62734e-05
27 *280:29 *3361:A3 4.08637e-05
28 *280:29 *3361:B1 7.41811e-05
29 *280:29 *292:21 6.44542e-05
30 *280:29 *688:14 0.000338389
31 *3348:C1 *280:10 3.11088e-05
*RES
1 *3348:Y *280:10 24.5857 
2 *280:10 *3366:B1 17.2107 
3 *280:10 *280:21 2.55357 
4 *280:21 *280:29 9.35714 
5 *280:29 *3362:C 23.0321 
6 *280:29 *3361:A2 9.3 
7 *280:21 *3371:B 14.3357 
*END

*D_NET *281 0.00529414
*CONN
*I *3374:B I *D sky130_fd_sc_hd__and3_2
*I *3386:A1 I *D sky130_fd_sc_hd__a21o_2
*I *3352:A I *D sky130_fd_sc_hd__nand3_2
*I *3370:B I *D sky130_fd_sc_hd__and3_2
*I *3349:Y O *D sky130_fd_sc_hd__nand3_2
*CAP
1 *3374:B 0.000136495
2 *3386:A1 0.000147224
3 *3352:A 0.000170217
4 *3370:B 4.14974e-05
5 *3349:Y 0.000348848
6 *281:38 0.000322666
7 *281:14 0.000512228
8 *281:10 0.000688309
9 *3352:A *3352:B 9.10571e-05
10 *3352:A *3359:A 1.00332e-05
11 *3352:A *296:18 0
12 *3370:B *304:22 5.47001e-05
13 *3374:B *3374:A 0.000128161
14 *3374:B *3374:C 4.66203e-05
15 *3374:B *3376:A1 5.08481e-05
16 *3374:B *3376:A2 4.46186e-06
17 *3374:B *3948:A 2.65563e-07
18 *3374:B *561:15 2.89016e-05
19 *3386:A1 *3386:A2 5.71472e-05
20 *3386:A1 *3386:B1 8.12154e-05
21 *3386:A1 *733:37 5.33005e-05
22 *281:10 *3359:C 0.000198115
23 *281:10 *3360:A2 5.50052e-05
24 *281:10 *3376:A1 6.6127e-05
25 *281:10 *282:10 0.000398453
26 *281:10 *290:18 0.000637327
27 *281:14 *282:14 9.60875e-05
28 *281:14 *282:31 1.5424e-05
29 *281:14 *304:22 0.000311121
30 *281:38 *3374:A 3.17148e-05
31 *281:38 *3376:A1 3.57844e-05
32 *3373:C *281:10 1.03904e-05
33 *176:14 *281:10 8.11955e-05
34 *176:27 *281:10 0.000286734
35 *176:27 *281:38 9.22948e-05
36 *178:27 *3352:A 4.16876e-06
*RES
1 *3349:Y *281:10 25.175 
2 *281:10 *281:14 8.73214 
3 *281:14 *3370:B 9.83571 
4 *281:14 *3352:A 20.9071 
5 *281:10 *281:38 1.33929 
6 *281:38 *3386:A1 16.3893 
7 *281:38 *3374:B 17.1929 
*END

*D_NET *282 0.00583381
*CONN
*I *3386:A2 I *D sky130_fd_sc_hd__a21o_2
*I *3352:B I *D sky130_fd_sc_hd__nand3_2
*I *3370:C I *D sky130_fd_sc_hd__and3_2
*I *3374:C I *D sky130_fd_sc_hd__and3_2
*I *3350:Y O *D sky130_fd_sc_hd__nand3_2
*CAP
1 *3386:A2 7.18994e-05
2 *3352:B 0.0001846
3 *3370:C 6.55124e-05
4 *3374:C 0.000158764
5 *3350:Y 0.000750425
6 *282:31 0.000322305
7 *282:14 0.000412679
8 *282:10 0.00100405
9 *3352:B *3352:C 9.91096e-05
10 *3352:B *3372:C1 0
11 *3352:B *296:18 0
12 *3370:C *3372:C1 0
13 *3370:C *304:22 9.83388e-05
14 *3370:C *733:37 9.66977e-05
15 *3374:C *3948:A 1.41736e-05
16 *3374:C *304:22 9.11048e-06
17 *3374:C *561:15 5.11686e-06
18 *3386:A2 *3386:B1 9.90367e-05
19 *3386:A2 *561:13 1.59782e-05
20 *282:10 *290:18 0.000324935
21 *282:10 *304:22 0
22 *282:10 *561:13 9.96103e-05
23 *282:14 *3386:B1 0.000268403
24 *282:14 *733:37 5.51918e-05
25 *282:31 *3386:B1 3.99614e-06
26 *282:31 *304:22 0.00025782
27 *282:31 *733:37 0.000313647
28 *3227:A *3370:C 5.37741e-06
29 *3352:A *3352:B 9.10571e-05
30 *3374:B *3374:C 4.66203e-05
31 *3386:A1 *3386:A2 5.71472e-05
32 *176:27 *3374:C 7.6644e-05
33 *178:6 *3352:B 0.0001826
34 *178:27 *3352:B 3.12359e-05
35 *181:23 *282:10 0.000101771
36 *281:10 *282:10 0.000398453
37 *281:14 *282:14 9.60875e-05
38 *281:14 *282:31 1.5424e-05
*RES
1 *3350:Y *282:10 26.1929 
2 *282:10 *282:14 8.32143 
3 *282:14 *3374:C 21.0857 
4 *282:14 *282:31 3.42857 
5 *282:31 *3370:C 19.9786 
6 *282:31 *3352:B 22.7464 
7 *282:10 *3386:A2 15.4786 
*END

*D_NET *283 0.00180201
*CONN
*I *3352:C I *D sky130_fd_sc_hd__nand3_2
*I *3351:Y O *D sky130_fd_sc_hd__nor2_2
*CAP
1 *3352:C 0.000464942
2 *3351:Y 0.000464942
3 *3352:C *3359:A 0.000148312
4 *3352:C *284:10 3.11088e-05
5 *3352:B *3352:C 9.91096e-05
6 *178:6 *3352:C 2.71191e-05
7 *178:27 *3352:C 0.000468863
8 *271:21 *3352:C 9.76123e-05
*RES
1 *3351:Y *3352:C 37.7607 
*END

*D_NET *284 0.00461652
*CONN
*I *3362:A I *D sky130_fd_sc_hd__nand3_2
*I *3361:A3 I *D sky130_fd_sc_hd__a32o_2
*I *3371:C I *D sky130_fd_sc_hd__nand4_2
*I *3365:A I *D sky130_fd_sc_hd__nand2_2
*I *3366:B2 I *D sky130_fd_sc_hd__a2bb2oi_2
*I *3352:Y O *D sky130_fd_sc_hd__nand3_2
*CAP
1 *3362:A 0.000219669
2 *3361:A3 2.46213e-05
3 *3371:C 0
4 *3365:A 0.000180132
5 *3366:B2 0.000121606
6 *3352:Y 0.000431402
7 *284:43 0.000311213
8 *284:34 8.0335e-05
9 *284:21 0.000254897
10 *284:10 0.00061436
11 *3361:A3 *3361:A1 9.60875e-05
12 *3362:A *3362:B 0
13 *3362:A *3367:A1 9.25014e-06
14 *3362:A *3368:A1 0
15 *3362:A *3378:A1 6.89313e-05
16 *3362:A *3378:A2 1.98839e-05
17 *3362:A *3891:CLK 6.25338e-05
18 *3362:A *291:45 0
19 *3362:A *294:10 0.000104587
20 *3362:A *565:10 0.000175787
21 *3362:A *688:14 2.61337e-05
22 *3365:A *3371:D 2.32013e-05
23 *3365:A *731:28 2.32866e-05
24 *3366:B2 *565:10 5.33005e-05
25 *284:10 *3229:B 3.06038e-05
26 *284:10 *3372:A1 0.000194737
27 *284:10 *565:10 3.17148e-05
28 *284:10 *687:12 0
29 *284:10 *688:14 8.0089e-05
30 *284:21 *565:10 0.000164554
31 *284:21 *688:14 9.01334e-05
32 *284:34 *565:10 4.90803e-05
33 *284:34 *688:14 3.17163e-05
34 *284:43 *565:10 0.000165262
35 *284:43 *688:14 9.24299e-05
36 *3352:C *284:10 3.11088e-05
37 *3362:C *3361:A3 5.52238e-05
38 *3366:B1 *3366:B2 0.000183713
39 *178:6 *284:10 0.000474073
40 *280:29 *3361:A3 4.08637e-05
*RES
1 *3352:Y *284:10 23.1214 
2 *284:10 *3366:B2 16.3893 
3 *284:10 *284:21 2.25 
4 *284:21 *3365:A 16.7107 
5 *284:21 *284:34 0.732143 
6 *284:34 *3371:C 13.8 
7 *284:34 *284:43 2.25 
8 *284:43 *3361:A3 14.7464 
9 *284:43 *3362:A 18.9964 
*END

*D_NET *285 0.000389988
*CONN
*I *3355:C I *D sky130_fd_sc_hd__nand4_2
*I *3353:X O *D sky130_fd_sc_hd__or2_2
*CAP
1 *3355:C 0.000117712
2 *3353:X 0.000117712
3 *3355:C *566:10 0.000152033
4 *274:14 *3355:C 2.53112e-06
5 *275:10 *3355:C 0
*RES
1 *3353:X *3355:C 30.0821 
*END

*D_NET *286 0.000233101
*CONN
*I *3355:D I *D sky130_fd_sc_hd__nand4_2
*I *3354:Y O *D sky130_fd_sc_hd__nand2_2
*CAP
1 *3355:D 9.04607e-05
2 *3354:Y 9.04607e-05
3 *3355:D *566:10 5.21799e-05
4 *181:23 *3355:D 0
*RES
1 *3354:Y *3355:D 29.5464 
*END

*D_NET *287 0.0023954
*CONN
*I *3359:B I *D sky130_fd_sc_hd__nand3_2
*I *3360:A1 I *D sky130_fd_sc_hd__a21o_4
*I *3355:Y O *D sky130_fd_sc_hd__nand4_2
*CAP
1 *3359:B 0.000198884
2 *3360:A1 5.0036e-05
3 *3355:Y 0.000581382
4 *287:10 0.000830303
5 *3359:B *3359:C 5.49489e-05
6 *3360:A1 *3360:A2 5.49489e-05
7 *3384:A *3359:B 7.09928e-05
8 *176:14 *3359:B 3.29297e-05
9 *176:14 *287:10 0.000404795
10 *176:27 *3359:B 0.000116183
*RES
1 *3355:Y *287:10 24.55 
2 *287:10 *3360:A1 14.7464 
3 *287:10 *3359:B 17.9429 
*END

*D_NET *288 0.000391475
*CONN
*I *3358:A1 I *D sky130_fd_sc_hd__o211ai_2
*I *3356:Y O *D sky130_fd_sc_hd__nor2_2
*CAP
1 *3358:A1 0.000145719
2 *3356:Y 0.000145719
3 *3358:A1 *3356:B 0.000100037
*RES
1 *3356:Y *3358:A1 29.8857 
*END

*D_NET *289 0.000200311
*CONN
*I *3358:A2 I *D sky130_fd_sc_hd__o211ai_2
*I *3357:X O *D sky130_fd_sc_hd__and2_2
*CAP
1 *3358:A2 8.0873e-05
2 *3357:X 8.0873e-05
3 *277:10 *3358:A2 3.85645e-05
*RES
1 *3357:X *3358:A2 29.2429 
*END

*D_NET *290 0.00485448
*CONN
*I *3359:C I *D sky130_fd_sc_hd__nand3_2
*I *3360:A2 I *D sky130_fd_sc_hd__a21o_4
*I *3358:Y O *D sky130_fd_sc_hd__o211ai_2
*CAP
1 *3359:C 0.000156102
2 *3360:A2 0.00010335
3 *3358:Y 0.000642049
4 *290:18 0.000901501
5 *3359:C *3376:A1 0.000126272
6 *3359:C *561:13 1.33329e-05
7 *290:18 *3376:A1 1.4796e-05
8 *3349:A *290:18 5.49995e-05
9 *3350:C *290:18 4.51148e-05
10 *3359:B *3359:C 5.49489e-05
11 *3360:A1 *3360:A2 5.49489e-05
12 *3373:C *3359:C 3.14003e-05
13 *3373:C *3360:A2 1.24368e-05
14 *3373:C *290:18 5.33005e-05
15 *3384:A *3359:C 0.000180145
16 *3385:B *290:18 0.000226272
17 *3385:C *290:18 0.000546619
18 *181:23 *290:18 0.000252692
19 *277:47 *290:18 0.000119969
20 *278:32 *290:18 4.88537e-05
21 *281:10 *3359:C 0.000198115
22 *281:10 *3360:A2 5.50052e-05
23 *281:10 *290:18 0.000637327
24 *282:10 *290:18 0.000324935
*RES
1 *3358:Y *290:18 36.05 
2 *290:18 *3360:A2 11.0679 
3 *290:18 *3359:C 22.6214 
*END

*D_NET *291 0.0060051
*CONN
*I *3363:C I *D sky130_fd_sc_hd__nand3b_2
*I *3379:A1 I *D sky130_fd_sc_hd__a21o_2
*I *3378:B1 I *D sky130_fd_sc_hd__o211ai_2
*I *3375:A I *D sky130_fd_sc_hd__nand2_2
*I *3361:B1 I *D sky130_fd_sc_hd__a32o_2
*I *3372:B1 I *D sky130_fd_sc_hd__o211ai_2
*I *3359:Y O *D sky130_fd_sc_hd__nand3_2
*CAP
1 *3363:C 2.41308e-05
2 *3379:A1 0.000237333
3 *3378:B1 3.74105e-05
4 *3375:A 0.000153671
5 *3361:B1 0.000161471
6 *3372:B1 0
7 *3359:Y 0.000344956
8 *291:60 0.000374744
9 *291:45 0.000229913
10 *291:21 0.000315143
11 *291:19 0.000220328
12 *291:10 0.000486061
13 *3361:B1 *3361:A1 3.99614e-06
14 *3361:B1 *3361:B2 6.37566e-05
15 *3361:B1 *292:32 1.98839e-05
16 *3363:C *3380:B 2.00751e-05
17 *3363:C *294:23 5.59013e-05
18 *3375:A *3376:B1 9.64592e-05
19 *3375:A *292:32 4.87953e-05
20 *3378:B1 *3380:B 6.05161e-06
21 *3378:B1 *294:10 1.21258e-05
22 *3378:B1 *296:18 7.30699e-05
23 *3379:A1 *3379:A2 0.000356157
24 *291:10 *292:10 0.000151776
25 *291:10 *296:18 0.000150253
26 *291:19 *292:10 0.000381311
27 *291:19 *292:21 0.000153047
28 *291:19 *296:18 0.000534358
29 *291:45 *3368:A1 0.000125724
30 *291:45 *292:21 4.73656e-05
31 *291:45 *292:49 1.08359e-05
32 *291:45 *296:18 0.000198705
33 *291:60 *3375:B 8.15095e-05
34 *291:60 *3380:B 2.89114e-05
35 *291:60 *292:49 0.000150625
36 *291:60 *294:10 2.60984e-05
37 *291:60 *294:23 6.73939e-05
38 *291:60 *296:18 4.08637e-05
39 *3362:A *291:45 0
40 *178:6 *291:10 0.000440705
41 *280:29 *3361:B1 7.41811e-05
*RES
1 *3359:Y *291:10 19.9786 
2 *291:10 *3372:B1 13.8 
3 *291:10 *291:19 6.80357 
4 *291:19 *291:21 4.5 
5 *291:21 *3361:B1 12.2375 
6 *291:21 *3375:A 12.3179 
7 *291:19 *291:45 7.35714 
8 *291:45 *3378:B1 10.2643 
9 *291:45 *291:60 7.80357 
10 *291:60 *3379:A1 17.2107 
11 *291:60 *3363:C 14.5321 
*END

*D_NET *292 0.00547755
*CONN
*I *3376:B1 I *D sky130_fd_sc_hd__o211ai_2
*I *3379:A2 I *D sky130_fd_sc_hd__a21o_2
*I *3363:B I *D sky130_fd_sc_hd__nand3b_2
*I *3378:C1 I *D sky130_fd_sc_hd__o211ai_2
*I *3361:B2 I *D sky130_fd_sc_hd__a32o_2
*I *3371:A I *D sky130_fd_sc_hd__nand4_2
*I *3360:X O *D sky130_fd_sc_hd__a21o_4
*CAP
1 *3376:B1 0.000250454
2 *3379:A2 0.00012164
3 *3363:B 5.69344e-05
4 *3378:C1 0
5 *3361:B2 6.40545e-05
6 *3371:A 0
7 *3360:X 0.000405858
8 *292:49 0.000268472
9 *292:36 0.000138974
10 *292:32 0.000381684
11 *292:21 0.000219333
12 *292:10 0.000478982
13 *3376:B1 *3376:C1 0.000140856
14 *3379:A2 *3379:B1 0.000228514
15 *3379:A2 *3383:B1 5.45307e-05
16 *292:10 *296:18 0.000106585
17 *292:10 *732:27 0.000314779
18 *292:36 *3375:B 8.16036e-05
19 *292:36 *296:18 0.00015134
20 *292:49 *3368:A1 1.50181e-05
21 *292:49 *3375:B 1.3142e-05
22 *292:49 *3380:B 5.01213e-05
23 *3361:B1 *3361:B2 6.37566e-05
24 *3361:B1 *292:32 1.98839e-05
25 *3375:A *3376:B1 9.64592e-05
26 *3375:A *292:32 4.87953e-05
27 *3379:A1 *3379:A2 0.000356157
28 *280:10 *292:10 0.000285976
29 *280:21 *292:10 0.000104236
30 *280:29 *292:21 6.44542e-05
31 *291:10 *292:10 0.000151776
32 *291:19 *292:10 0.000381311
33 *291:19 *292:21 0.000153047
34 *291:45 *292:21 4.73656e-05
35 *291:45 *292:49 1.08359e-05
36 *291:60 *292:49 0.000150625
*RES
1 *3360:X *292:10 26.3357 
2 *292:10 *3371:A 13.8 
3 *292:10 *292:21 7.05357 
4 *292:21 *3361:B2 10.675 
5 *292:21 *292:32 1.35714 
6 *292:32 *292:36 6.44643 
7 *292:36 *3378:C1 13.8 
8 *292:36 *292:49 7.17857 
9 *292:49 *3363:B 10.2643 
10 *292:49 *3379:A2 13.5321 
11 *292:32 *3376:B1 14.3714 
*END

*D_NET *293 0.00142117
*CONN
*I *3368:A1 I *D sky130_fd_sc_hd__a32oi_2
*I *3361:X O *D sky130_fd_sc_hd__a32o_2
*CAP
1 *3368:A1 0.000362046
2 *3361:X 0.000362046
3 *3368:A1 *3367:A1 0
4 *3368:A1 *3368:A2 0.000108543
5 *3368:A1 *3380:B 0.000365879
6 *3368:A1 *3383:A2 8.1914e-05
7 *3362:A *3368:A1 0
8 *291:45 *3368:A1 0.000125724
9 *292:49 *3368:A1 1.50181e-05
*RES
1 *3361:X *3368:A1 36.5286 
*END

*D_NET *294 0.0024259
*CONN
*I *3379:B1 I *D sky130_fd_sc_hd__a21o_2
*I *3363:A_N I *D sky130_fd_sc_hd__nand3b_2
*I *3375:B I *D sky130_fd_sc_hd__nand2_2
*I *3362:Y O *D sky130_fd_sc_hd__nand3_2
*CAP
1 *3379:B1 6.42355e-05
2 *3363:A_N 0
3 *3375:B 0.00014218
4 *3362:Y 0.000451587
5 *294:23 0.000146129
6 *294:10 0.000675661
7 *3375:B *3941:RESET_B 0
8 *3375:B *296:18 9.10431e-06
9 *3379:B1 *3380:C 5.45307e-05
10 *294:10 *3362:B 3.99614e-06
11 *294:10 *3378:A1 1.69961e-05
12 *294:10 *3378:A2 1.55885e-05
13 *294:10 *3380:B 5.52302e-05
14 *294:10 *296:18 0.000119781
15 *3362:A *294:10 0.000104587
16 *3363:C *294:23 5.59013e-05
17 *3378:B1 *294:10 1.21258e-05
18 *3379:A2 *3379:B1 0.000228514
19 *291:60 *3375:B 8.15095e-05
20 *291:60 *294:10 2.60984e-05
21 *291:60 *294:23 6.73939e-05
22 *292:36 *3375:B 8.16036e-05
23 *292:49 *3375:B 1.3142e-05
*RES
1 *3362:Y *294:10 19.6929 
2 *294:10 *3375:B 17.2643 
3 *294:10 *294:23 6.14286 
4 *294:23 *3363:A_N 9.3 
5 *294:23 *3379:B1 11.4786 
*END

*D_NET *295 0.00083108
*CONN
*I *3368:A2 I *D sky130_fd_sc_hd__a32oi_2
*I *3363:Y O *D sky130_fd_sc_hd__nand3b_2
*CAP
1 *3368:A2 0.00019551
2 *3363:Y 0.00019551
3 *3368:A2 *3367:A1 0.000331517
4 *3368:A1 *3368:A2 0.000108543
*RES
1 *3363:Y *3368:A2 32.5107 
*END

*D_NET *296 0.00578159
*CONN
*I *3367:A1 I *D sky130_fd_sc_hd__o21ba_2
*I *3378:A1 I *D sky130_fd_sc_hd__o211ai_2
*I *3364:X O *D sky130_fd_sc_hd__o211a_2
*CAP
1 *3367:A1 0.000338913
2 *3378:A1 2.61113e-05
3 *3364:X 0.000822643
4 *296:18 0.00118767
5 *3367:A1 *3368:A3 0.000168503
6 *3367:A1 *3891:CLK 7.5762e-05
7 *3367:A1 *299:14 9.35307e-05
8 *3367:A1 *554:10 0.000147993
9 *3378:A1 *3378:A2 0.000109466
10 *296:18 *3372:C1 0.000362516
11 *296:18 *3378:A2 6.01685e-05
12 *296:18 *3941:RESET_B 0
13 *3348:C1 *296:18 0.000315528
14 *3352:A *296:18 0
15 *3352:B *296:18 0
16 *3362:A *3367:A1 9.25014e-06
17 *3362:A *3378:A1 6.89313e-05
18 *3364:A2 *296:18 0.000230284
19 *3368:A1 *3367:A1 0
20 *3368:A2 *3367:A1 0.000331517
21 *3375:B *296:18 9.10431e-06
22 *3378:B1 *296:18 7.30699e-05
23 *272:23 *296:18 2.12733e-05
24 *276:16 *296:18 1.04766e-05
25 *291:10 *296:18 0.000150253
26 *291:19 *296:18 0.000534358
27 *291:45 *296:18 0.000198705
28 *291:60 *296:18 4.08637e-05
29 *292:10 *296:18 0.000106585
30 *292:36 *296:18 0.00015134
31 *294:10 *3378:A1 1.69961e-05
32 *294:10 *296:18 0.000119781
*RES
1 *3364:X *296:18 41.2643 
2 *296:18 *3378:A1 10.675 
3 *296:18 *3367:A1 27.175 
*END

*D_NET *297 0.00258186
*CONN
*I *3367:A2 I *D sky130_fd_sc_hd__o21ba_2
*I *3378:A2 I *D sky130_fd_sc_hd__o211ai_2
*I *3365:Y O *D sky130_fd_sc_hd__nand2_2
*CAP
1 *3367:A2 0.000309236
2 *3378:A2 0.000134424
3 *3365:Y 0.000221143
4 *297:12 0.000664803
5 *3367:A2 *3367:B1_N 0
6 *3367:A2 *3889:RESET_B 2.98475e-05
7 *3367:A2 *3890:D 0.00031053
8 *3367:A2 *3891:CLK 0.00014535
9 *3367:A2 *299:14 5.49995e-05
10 *3378:A2 *565:18 5.33005e-05
11 *297:12 *3361:A1 0.000126446
12 *297:12 *3367:B1_N 0
13 *297:12 *3891:CLK 5.41797e-06
14 *297:12 *565:10 0.000187607
15 *297:12 *565:18 2.04825e-05
16 *297:12 *687:12 4.36421e-05
17 *3362:A *3378:A2 1.98839e-05
18 *3362:C *3367:A2 1.00375e-05
19 *3362:C *297:12 5.94923e-05
20 *3378:A1 *3378:A2 0.000109466
21 *294:10 *3378:A2 1.55885e-05
22 *296:18 *3378:A2 6.01685e-05
*RES
1 *3365:Y *297:12 19.7464 
2 *297:12 *3378:A2 16.8179 
3 *297:12 *3367:A2 21.7464 
*END

*D_NET *298 0.00223584
*CONN
*I *3367:B1_N I *D sky130_fd_sc_hd__o21ba_2
*I *3366:Y O *D sky130_fd_sc_hd__a2bb2oi_2
*CAP
1 *3367:B1_N 0.000680441
2 *3366:Y 0.000680441
3 *3367:B1_N *3889:RESET_B 0.000103437
4 *3367:B1_N *299:14 1.24368e-05
5 *3367:B1_N *687:12 0.000168236
6 *3367:B1_N *715:12 0.00039358
7 *3362:C *3367:B1_N 0.000197269
8 *3367:A2 *3367:B1_N 0
9 *297:12 *3367:B1_N 0
*RES
1 *3366:Y *3367:B1_N 43.1714 
*END

*D_NET *299 0.00269891
*CONN
*I *3368:B1 I *D sky130_fd_sc_hd__a32oi_2
*I *3383:A2 I *D sky130_fd_sc_hd__o2111a_2
*I *3367:X O *D sky130_fd_sc_hd__o21ba_2
*CAP
1 *3368:B1 0
2 *3383:A2 0.000405727
3 *3367:X 0.000310754
4 *299:14 0.000716481
5 *3383:A2 *3368:B2 5.83768e-05
6 *3383:A2 *3380:B 7.92854e-05
7 *3383:A2 *3380:C 0
8 *3383:A2 *3891:CLK 0.000356793
9 *299:14 *3889:RESET_B 0.000500088
10 *299:14 *300:6 2.85234e-05
11 *3367:A1 *299:14 9.35307e-05
12 *3367:A2 *299:14 5.49995e-05
13 *3367:B1_N *299:14 1.24368e-05
14 *3368:A1 *3383:A2 8.1914e-05
*RES
1 *3367:X *299:14 17.3 
2 *299:14 *3383:A2 24.8714 
3 *299:14 *3368:B1 9.3 
*END

*D_NET *300 0.00191862
*CONN
*I *3382:A I *D sky130_fd_sc_hd__nor2_2
*I *3383:D1 I *D sky130_fd_sc_hd__o2111a_2
*I *3368:Y O *D sky130_fd_sc_hd__a32oi_2
*CAP
1 *3382:A 0.000138555
2 *3383:D1 0.000149047
3 *3368:Y 0.000166645
4 *300:6 0.000454247
5 *3382:A *3889:RESET_B 0.000344709
6 *3383:D1 *3381:B 4.33899e-05
7 *3383:D1 *3891:CLK 5.45307e-05
8 *3383:D1 *312:6 5.49544e-05
9 *300:6 *3889:RESET_B 0.000484017
10 *299:14 *300:6 2.85234e-05
*RES
1 *3368:Y *300:6 13.9429 
2 *300:6 *3383:D1 21.1929 
3 *300:6 *3382:A 13.1393 
*END

*D_NET *301 0.00215025
*CONN
*I *3372:A1 I *D sky130_fd_sc_hd__o211ai_2
*I *3369:X O *D sky130_fd_sc_hd__o2111a_2
*CAP
1 *3372:A1 0.000477366
2 *3369:X 0.000477366
3 *3372:A1 *3942:CLK 0.000214626
4 *3372:A1 *565:74 3.29901e-05
5 *3372:A1 *688:14 0.000337251
6 *3372:A1 *729:20 0.00025586
7 *3369:A1 *3372:A1 5.90911e-05
8 *3369:B1 *3372:A1 4.59602e-05
9 *3369:D1 *3372:A1 5.49995e-05
10 *284:10 *3372:A1 0.000194737
*RES
1 *3369:X *3372:A1 41.0464 
*END

*D_NET *302 0.000680011
*CONN
*I *3372:A2 I *D sky130_fd_sc_hd__o211ai_2
*I *3370:X O *D sky130_fd_sc_hd__and3_2
*CAP
1 *3372:A2 0.000170092
2 *3370:X 0.000170092
3 *3372:A2 *3941:D 0.000224
4 *3372:A2 *304:22 7.22897e-05
5 *3372:A2 *733:37 4.3537e-05
*RES
1 *3370:X *3372:A2 22.9929 
*END

*D_NET *303 0.00138878
*CONN
*I *3372:C1 I *D sky130_fd_sc_hd__o211ai_2
*I *3371:Y O *D sky130_fd_sc_hd__nand4_2
*CAP
1 *3372:C1 0.000426441
2 *3371:Y 0.000426441
3 *3372:C1 *733:12 0.000154104
4 *3352:B *3372:C1 0
5 *3370:C *3372:C1 0
6 *3371:B *3372:C1 1.92789e-05
7 *296:18 *3372:C1 0.000362516
*RES
1 *3371:Y *3372:C1 35.2786 
*END

*D_NET *304 0.00652165
*CONN
*I *3393:A1 I *D sky130_fd_sc_hd__a21bo_2
*I *3377:B I *D sky130_fd_sc_hd__nand3b_2
*I *3387:B2 I *D sky130_fd_sc_hd__a2bb2oi_2
*I *3391:C1 I *D sky130_fd_sc_hd__o211a_2
*I *3372:Y O *D sky130_fd_sc_hd__o211ai_2
*CAP
1 *3393:A1 5.93823e-05
2 *3377:B 0.000198186
3 *3387:B2 0.000380802
4 *3391:C1 0
5 *3372:Y 0.000941307
6 *304:44 0.000785651
7 *304:31 0.00098418
8 *304:22 0.0010166
9 *3377:B *3377:A_N 0.000108742
10 *3377:B *3383:B1 0
11 *3377:B *3393:A2 4.18425e-05
12 *3387:B2 *3387:B1 0.000333011
13 *3387:B2 *561:35 2.95726e-05
14 *3393:A1 *3377:A_N 9.90431e-05
15 *3393:A1 *3393:A2 5.52302e-05
16 *3393:A1 *4054:A 1.65558e-05
17 *3393:A1 *308:12 0
18 *304:22 *3387:B1 5.80706e-06
19 *304:22 *3391:A2 2.59795e-05
20 *304:22 *566:10 7.79937e-05
21 *304:22 *733:37 4.7801e-05
22 *304:31 *3387:B1 6.42242e-05
23 *304:31 *561:13 0
24 *304:44 *3376:A1 0
25 *304:44 *3387:B1 1.76135e-05
26 *304:44 *3399:A 0
27 *304:44 *3399:B 0
28 *304:44 *3401:B1 0
29 *304:44 *4054:A 4.35048e-05
30 *304:44 *308:12 0
31 *304:44 *323:12 0
32 *304:44 *561:13 0
33 *304:44 *561:35 0
34 *3370:B *304:22 5.47001e-05
35 *3370:C *304:22 9.83388e-05
36 *3372:A2 *304:22 7.22897e-05
37 *3374:C *304:22 9.11048e-06
38 *3384:A *304:22 0.000345104
39 *176:27 *304:22 4.01319e-05
40 *281:14 *304:22 0.000311121
41 *282:10 *304:22 0
42 *282:31 *304:22 0.00025782
*RES
1 *3372:Y *304:22 39.2107 
2 *304:22 *3391:C1 13.8 
3 *304:22 *304:31 1.64286 
4 *304:31 *3387:B2 19.175 
5 *304:31 *304:44 9.83929 
6 *304:44 *3377:B 16.7107 
7 *304:44 *3393:A1 15.4786 
*END

*D_NET *305 0.00179171
*CONN
*I *3376:A1 I *D sky130_fd_sc_hd__o211ai_2
*I *3373:X O *D sky130_fd_sc_hd__and3_2
*CAP
1 *3376:A1 0.000525778
2 *3373:X 0.000525778
3 *3376:A1 *3374:A 0.000150625
4 *3376:A1 *3376:A2 0
5 *3376:A1 *308:12 1.92789e-05
6 *3376:A1 *561:13 0.000270374
7 *3359:C *3376:A1 0.000126272
8 *3373:C *3376:A1 6.05161e-06
9 *3374:B *3376:A1 5.08481e-05
10 *281:10 *3376:A1 6.6127e-05
11 *281:38 *3376:A1 3.57844e-05
12 *290:18 *3376:A1 1.4796e-05
13 *304:44 *3376:A1 0
*RES
1 *3373:X *3376:A1 39.725 
*END

*D_NET *306 0.000580298
*CONN
*I *3376:A2 I *D sky130_fd_sc_hd__o211ai_2
*I *3374:X O *D sky130_fd_sc_hd__and3_2
*CAP
1 *3376:A2 0.000272234
2 *3374:X 0.000272234
3 *3376:A2 *3948:A 3.13687e-05
4 *3374:B *3376:A2 4.46186e-06
5 *3376:A1 *3376:A2 0
*RES
1 *3374:X *3376:A2 32.2071 
*END

*D_NET *307 0.000260437
*CONN
*I *3376:C1 I *D sky130_fd_sc_hd__o211ai_2
*I *3375:Y O *D sky130_fd_sc_hd__nand2_2
*CAP
1 *3376:C1 5.97903e-05
2 *3375:Y 5.97903e-05
3 *3376:B1 *3376:C1 0.000140856
*RES
1 *3375:Y *3376:C1 19.9571 
*END

*D_NET *308 0.00149213
*CONN
*I *3393:A2 I *D sky130_fd_sc_hd__a21bo_2
*I *3377:C I *D sky130_fd_sc_hd__nand3b_2
*I *3376:Y O *D sky130_fd_sc_hd__o211ai_2
*CAP
1 *3393:A2 0.000114031
2 *3377:C 0
3 *3376:Y 0.000547333
4 *308:12 0.000661364
5 *3393:A2 *3377:A_N 5.30479e-05
6 *3376:A1 *308:12 1.92789e-05
7 *3377:B *3393:A2 4.18425e-05
8 *3393:A1 *3393:A2 5.52302e-05
9 *3393:A1 *308:12 0
10 *304:44 *308:12 0
*RES
1 *3376:Y *308:12 26.9071 
2 *308:12 *3377:C 9.3 
3 *308:12 *3393:A2 11.9071 
*END

*D_NET *309 0.00105151
*CONN
*I *3383:B1 I *D sky130_fd_sc_hd__o2111a_2
*I *3381:A I *D sky130_fd_sc_hd__nand2_2
*I *3377:Y O *D sky130_fd_sc_hd__nand3b_2
*CAP
1 *3383:B1 0.000350831
2 *3381:A 0
3 *3377:Y 7.79945e-05
4 *309:6 0.000428826
5 *3383:B1 *3380:B 0
6 *3383:B1 *3380:C 0.000139325
7 *3377:B *3383:B1 0
8 *3379:A2 *3383:B1 5.45307e-05
*RES
1 *3377:Y *309:6 10.6571 
2 *309:6 *3381:A 9.3 
3 *309:6 *3383:B1 24.8 
*END

*D_NET *310 0.000934556
*CONN
*I *3380:B I *D sky130_fd_sc_hd__nand3b_2
*I *3378:Y O *D sky130_fd_sc_hd__o211ai_2
*CAP
1 *3380:B 0.000164501
2 *3378:Y 0.000164501
3 *3380:B *3380:C 0
4 *3363:C *3380:B 2.00751e-05
5 *3368:A1 *3380:B 0.000365879
6 *3378:B1 *3380:B 6.05161e-06
7 *3383:A2 *3380:B 7.92854e-05
8 *3383:B1 *3380:B 0
9 *291:60 *3380:B 2.89114e-05
10 *292:49 *3380:B 5.01213e-05
11 *294:10 *3380:B 5.52302e-05
*RES
1 *3378:Y *3380:B 32.8143 
*END

*D_NET *311 0.00164781
*CONN
*I *3380:C I *D sky130_fd_sc_hd__nand3b_2
*I *3379:X O *D sky130_fd_sc_hd__a21o_2
*CAP
1 *3380:C 0.000278339
2 *3379:X 0.000278339
3 *3380:C *3383:A1 0.000272138
4 *3380:C *3891:CLK 0.000525029
5 *3380:C *312:6 4.48647e-05
6 *3380:C *553:6 5.52413e-05
7 *3379:B1 *3380:C 5.45307e-05
8 *3380:B *3380:C 0
9 *3383:A2 *3380:C 0
10 *3383:B1 *3380:C 0.000139325
*RES
1 *3379:X *3380:C 35.975 
*END

*D_NET *312 0.00146609
*CONN
*I *3381:B I *D sky130_fd_sc_hd__nand2_2
*I *3383:C1 I *D sky130_fd_sc_hd__o2111a_2
*I *3380:Y O *D sky130_fd_sc_hd__nand3b_2
*CAP
1 *3381:B 0.000287032
2 *3383:C1 0
3 *3380:Y 0.000197266
4 *312:6 0.000484298
5 *3381:B *3891:CLK 4.53295e-05
6 *312:6 *3368:B2 5.66971e-05
7 *312:6 *3383:A1 0.000230362
8 *312:6 *3891:CLK 2.18985e-05
9 *3380:C *312:6 4.48647e-05
10 *3383:D1 *3381:B 4.33899e-05
11 *3383:D1 *312:6 5.49544e-05
*RES
1 *3380:Y *312:6 13.5321 
2 *312:6 *3383:C1 9.3 
3 *312:6 *3381:B 23.2286 
*END

*D_NET *313 0.000695894
*CONN
*I *3382:B I *D sky130_fd_sc_hd__nor2_2
*I *3381:Y O *D sky130_fd_sc_hd__nand2_2
*CAP
1 *3382:B 0.000311246
2 *3381:Y 0.000311246
3 *3382:B *3889:RESET_B 2.85321e-05
4 *3382:B *3891:D 4.48698e-05
*RES
1 *3381:Y *3382:B 32.8143 
*END

*D_NET *314 0.00185936
*CONN
*I *3401:A1 I *D sky130_fd_sc_hd__o311a_4
*I *3382:Y O *D sky130_fd_sc_hd__nor2_2
*CAP
1 *3401:A1 0.000818988
2 *3382:Y 0.000818988
3 *3401:A1 *3394:A 0
4 *3401:A1 *3401:A2 0
5 *3401:A1 *3889:RESET_B 9.67754e-05
6 *3401:A1 *3891:RESET_B 0.000124611
7 *3401:A1 *4054:A 0
8 *3401:A1 *555:10 0
*RES
1 *3382:Y *3401:A1 41.5107 
*END

*D_NET *315 0.00276532
*CONN
*I *3401:A2 I *D sky130_fd_sc_hd__o311a_4
*I *3383:X O *D sky130_fd_sc_hd__o2111a_2
*CAP
1 *3401:A2 0.00098249
2 *3383:X 0.00098249
3 *3401:A2 *3401:B1 0.000151071
4 *3401:A2 *3891:CLK 9.77423e-05
5 *3401:A2 *3891:D 4.0552e-05
6 *3401:A2 *3891:RESET_B 9.50011e-06
7 *3401:A2 *4054:A 0.00034843
8 *3401:A2 *555:10 0.00015304
9 *3401:A1 *3401:A2 0
*RES
1 *3383:X *3401:A2 43.1357 
*END

*D_NET *316 0.000601368
*CONN
*I *3387:A1_N I *D sky130_fd_sc_hd__a2bb2oi_2
*I *3384:X O *D sky130_fd_sc_hd__and4_2
*CAP
1 *3387:A1_N 0.00027107
2 *3384:X 0.00027107
3 *3387:A1_N *3391:A1 5.66971e-05
4 *3387:A1_N *320:29 0
5 *3387:A1_N *327:29 0
6 *3390:B *3387:A1_N 2.53112e-06
*RES
1 *3384:X *3387:A1_N 32.2071 
*END

*D_NET *317 0.00111206
*CONN
*I *3387:A2_N I *D sky130_fd_sc_hd__a2bb2oi_2
*I *3385:X O *D sky130_fd_sc_hd__and3_2
*CAP
1 *3387:A2_N 0.000392196
2 *3385:X 0.000392196
3 *3387:A2_N *320:29 0.000113381
4 *3387:A2_N *566:39 0.000104974
5 *3387:A2_N *566:48 3.34295e-05
6 *278:47 *3387:A2_N 7.58841e-05
*RES
1 *3385:X *3387:A2_N 35.4571 
*END

*D_NET *318 0.00125852
*CONN
*I *3391:B1 I *D sky130_fd_sc_hd__o211a_2
*I *3387:B1 I *D sky130_fd_sc_hd__a2bb2oi_2
*I *3386:X O *D sky130_fd_sc_hd__a21o_2
*CAP
1 *3391:B1 0
2 *3387:B1 0.000201458
3 *3386:X 0.000143421
4 *318:8 0.000344879
5 *3387:B1 *3391:A2 1.02504e-05
6 *3387:B1 *561:35 0.000120112
7 *318:8 *3386:B1 0
8 *318:8 *3391:A1 3.70678e-06
9 *318:8 *566:10 1.40415e-05
10 *3387:B2 *3387:B1 0.000333011
11 *304:22 *3387:B1 5.80706e-06
12 *304:31 *3387:B1 6.42242e-05
13 *304:44 *3387:B1 1.76135e-05
*RES
1 *3386:X *318:8 11.4964 
2 *318:8 *3387:B1 23.675 
3 *318:8 *3391:B1 9.3 
*END

*D_NET *319 0.00180965
*CONN
*I *3400:B I *D sky130_fd_sc_hd__or3_4
*I *3392:A1 I *D sky130_fd_sc_hd__o21ai_2
*I *3396:A2 I *D sky130_fd_sc_hd__o21bai_2
*I *3397:B I *D sky130_fd_sc_hd__nor2_2
*I *3387:Y O *D sky130_fd_sc_hd__a2bb2oi_2
*CAP
1 *3400:B 0
2 *3392:A1 5.15706e-05
3 *3396:A2 0
4 *3397:B 0.000175204
5 *3387:Y 0.000139706
6 *319:34 0.000205061
7 *319:14 0.000211128
8 *319:10 0.00032912
9 *3392:A1 *3392:B1 2.14658e-05
10 *3392:A1 *3394:A 5.62995e-05
11 *3392:A1 *3400:C 0.000144773
12 *3397:B *3397:A 9.60939e-05
13 *3397:B *3398:A 8.87097e-05
14 *319:10 *320:29 0
15 *319:10 *327:29 9.24299e-05
16 *319:14 *3398:A 0.000142856
17 *319:14 *3399:A 5.52302e-05
18 *319:34 *323:12 0
19 *319:34 *566:48 0
*RES
1 *3387:Y *319:10 16.5857 
2 *319:10 *319:14 5.85714 
3 *319:14 *3397:B 13.1571 
4 *319:14 *3396:A2 9.3 
5 *319:10 *319:34 7.05357 
6 *319:34 *3392:A1 11.0679 
7 *319:34 *3400:B 9.3 
*END

*D_NET *320 0.00327884
*CONN
*I *3397:A I *D sky130_fd_sc_hd__nor2_2
*I *3396:A1 I *D sky130_fd_sc_hd__o21bai_2
*I *3391:A1 I *D sky130_fd_sc_hd__o211a_2
*I *3388:X O *D sky130_fd_sc_hd__and3_2
*CAP
1 *3397:A 2.46036e-05
2 *3396:A1 0
3 *3391:A1 0.000380957
4 *3388:X 6.50925e-05
5 *320:29 0.000323204
6 *320:6 0.000744649
7 *3391:A1 *3391:A2 0.000242399
8 *3391:A1 *323:12 0
9 *3391:A1 *327:29 0
10 *3391:A1 *566:10 1.29822e-05
11 *3397:A *3398:A 9.60939e-05
12 *320:29 *327:29 0
13 *320:29 *566:39 0.000104974
14 *320:29 *566:48 0.000237521
15 *3384:A *3391:A1 0.000360971
16 *3384:C *3391:A1 3.46801e-05
17 *3384:D *3391:A1 2.9068e-05
18 *3384:D *320:6 9.44309e-06
19 *3387:A1_N *3391:A1 5.66971e-05
20 *3387:A1_N *320:29 0
21 *3387:A2_N *320:29 0.000113381
22 *3388:A *3391:A1 1.84865e-05
23 *3388:B *320:6 9.75679e-05
24 *3390:B *3391:A1 0.000226266
25 *3397:B *3397:A 9.60939e-05
26 *318:8 *3391:A1 3.70678e-06
27 *319:10 *320:29 0
*RES
1 *3388:X *320:6 10.6571 
2 *320:6 *3391:A1 27.867 
3 *320:6 *320:29 16.1071 
4 *320:29 *3396:A1 9.3 
5 *320:29 *3397:A 10.2464 
*END

*D_NET *321 0.00235111
*CONN
*I *3390:C I *D sky130_fd_sc_hd__and3_2
*I *3389:Y O *D sky130_fd_sc_hd__nand2_2
*CAP
1 *3390:C 0.000722286
2 *3389:Y 0.000722286
3 *3350:C *3390:C 4.28629e-05
4 *3385:C *3390:C 5.50052e-05
5 *3389:A *3390:C 4.73286e-05
6 *3389:B *3390:C 0.000226151
7 *181:23 *3390:C 0.000438411
8 *278:34 *3390:C 9.67754e-05
*RES
1 *3389:Y *3390:C 39.1714 
*END

*D_NET *322 0.000748928
*CONN
*I *3391:A2 I *D sky130_fd_sc_hd__o211a_2
*I *3390:X O *D sky130_fd_sc_hd__and3_2
*CAP
1 *3391:A2 0.000201142
2 *3390:X 0.000201142
3 *3391:A2 *323:12 0
4 *3391:A2 *561:35 5.80706e-06
5 *3391:A2 *566:10 3.83577e-05
6 *3384:A *3391:A2 2.38501e-05
7 *3387:B1 *3391:A2 1.02504e-05
8 *3391:A1 *3391:A2 0.000242399
9 *304:22 *3391:A2 2.59795e-05
*RES
1 *3390:X *3391:A2 31.3143 
*END

*D_NET *323 0.00160622
*CONN
*I *3400:C I *D sky130_fd_sc_hd__or3_4
*I *3392:A2 I *D sky130_fd_sc_hd__o21ai_2
*I *3391:X O *D sky130_fd_sc_hd__o211a_2
*CAP
1 *3400:C 9.12832e-05
2 *3392:A2 0
3 *3391:X 0.000450733
4 *323:12 0.000542016
5 *3400:C *3392:B1 5.71472e-05
6 *323:12 *3399:A 0.000173812
7 *323:12 *3399:B 9.11365e-06
8 *323:12 *3949:A 3.63822e-05
9 *323:12 *327:29 0
10 *323:12 *561:35 0
11 *323:12 *566:10 0.00010096
12 *3391:A1 *323:12 0
13 *3391:A2 *323:12 0
14 *3392:A1 *3400:C 0.000144773
15 *304:44 *323:12 0
16 *319:34 *323:12 0
*RES
1 *3391:X *323:12 26.9607 
2 *323:12 *3392:A2 9.3 
3 *323:12 *3400:C 11.4786 
*END

*D_NET *324 0.000748308
*CONN
*I *3394:A I *D sky130_fd_sc_hd__nand2_2
*I *3392:Y O *D sky130_fd_sc_hd__o21ai_2
*CAP
1 *3394:A 0.000268623
2 *3392:Y 0.000268623
3 *3394:A *3401:A3 0.000154762
4 *3394:A *3401:B1 0
5 *3394:A *3401:C1 0
6 *3394:A *566:61 0
7 *3392:A1 *3394:A 5.62995e-05
8 *3401:A1 *3394:A 0
*RES
1 *3392:Y *3394:A 32.6179 
*END

*D_NET *325 0.000226952
*CONN
*I *3394:B I *D sky130_fd_sc_hd__nand2_2
*I *3393:X O *D sky130_fd_sc_hd__a21bo_2
*CAP
1 *3394:B 0.000113476
2 *3393:X 0.000113476
*RES
1 *3393:X *3394:B 20.3679 
*END

*D_NET *326 0.000383082
*CONN
*I *3401:A3 I *D sky130_fd_sc_hd__o311a_4
*I *3394:Y O *D sky130_fd_sc_hd__nand2_2
*CAP
1 *3401:A3 0.00011416
2 *3394:Y 0.00011416
3 *3401:A3 *3401:C1 0
4 *3401:A3 *566:61 0
5 *3394:A *3401:A3 0.000154762
*RES
1 *3394:Y *3401:A3 30.0821 
*END

*D_NET *327 0.00571686
*CONN
*I *3396:B1_N I *D sky130_fd_sc_hd__o21bai_2
*I *3398:B I *D sky130_fd_sc_hd__nand2_2
*I *3407:B1 I *D sky130_fd_sc_hd__a21oi_2
*I *3395:X O *D sky130_fd_sc_hd__xor2_2
*CAP
1 *3396:B1_N 1.16062e-05
2 *3398:B 0
3 *3407:B1 0.00112203
4 *3395:X 2.67568e-05
5 *327:29 0.000900878
6 *327:6 0.00203806
7 *3396:B1_N *3398:A 5.52302e-05
8 *3396:B1_N *3399:A 5.52302e-05
9 *3407:B1 *3409:B1 0.000130625
10 *3407:B1 *3409:C1 9.6561e-06
11 *3407:B1 *3913:D 4.05548e-05
12 *3407:B1 *3938:D 3.25892e-05
13 *3407:B1 *561:59 0
14 *3407:B1 *709:38 0
15 *327:29 *709:58 0
16 *3234:B *3407:B1 0
17 *3261:B *3407:B1 0
18 *3350:A *327:29 6.87672e-05
19 *3387:A1_N *327:29 0
20 *3390:B *327:29 0.00011858
21 *3391:A1 *327:29 0
22 *15:30 *3407:B1 8.55148e-05
23 *15:30 *327:6 3.03308e-05
24 *180:42 *3407:B1 0
25 *180:42 *327:29 0.000898021
26 *319:10 *327:29 9.24299e-05
27 *320:29 *327:29 0
28 *323:12 *327:29 0
*RES
1 *3395:X *327:6 9.83571 
2 *327:6 *3407:B1 34.8179 
3 *327:6 *327:29 28.8571 
4 *327:29 *3398:B 9.3 
5 *327:29 *3396:B1_N 9.83571 
*END

*D_NET *328 0.00123128
*CONN
*I *3399:A I *D sky130_fd_sc_hd__nand2_2
*I *3396:Y O *D sky130_fd_sc_hd__o21bai_2
*CAP
1 *3399:A 0.000396593
2 *3396:Y 0.000396593
3 *3399:A *3398:A 6.26959e-05
4 *3399:A *3399:B 9.11301e-05
5 *3396:B1_N *3399:A 5.52302e-05
6 *304:44 *3399:A 0
7 *319:14 *3399:A 5.52302e-05
8 *323:12 *3399:A 0.000173812
*RES
1 *3396:Y *3399:A 35.4571 
*END

*D_NET *329 0.00107986
*CONN
*I *3398:A I *D sky130_fd_sc_hd__nand2_2
*I *3397:Y O *D sky130_fd_sc_hd__nor2_2
*CAP
1 *3398:A 0.000317139
2 *3397:Y 0.000317139
3 *3396:B1_N *3398:A 5.52302e-05
4 *3397:A *3398:A 9.60939e-05
5 *3397:B *3398:A 8.87097e-05
6 *3399:A *3398:A 6.26959e-05
7 *319:14 *3398:A 0.000142856
*RES
1 *3397:Y *3398:A 24.9214 
*END

*D_NET *330 0.00048054
*CONN
*I *3399:B I *D sky130_fd_sc_hd__nand2_2
*I *3398:Y O *D sky130_fd_sc_hd__nand2_2
*CAP
1 *3399:B 0.000190148
2 *3398:Y 0.000190148
3 *3399:A *3399:B 9.11301e-05
4 *304:44 *3399:B 0
5 *323:12 *3399:B 9.11365e-06
*RES
1 *3398:Y *3399:B 30.9036 
*END

*D_NET *331 0.000867252
*CONN
*I *3401:B1 I *D sky130_fd_sc_hd__o311a_4
*I *3399:Y O *D sky130_fd_sc_hd__nand2_2
*CAP
1 *3401:B1 0.000358091
2 *3399:Y 0.000358091
3 *3394:A *3401:B1 0
4 *3401:A2 *3401:B1 0.000151071
5 *304:44 *3401:B1 0
*RES
1 *3399:Y *3401:B1 34.3143 
*END

*D_NET *332 0.000310224
*CONN
*I *3401:C1 I *D sky130_fd_sc_hd__o311a_4
*I *3400:X O *D sky130_fd_sc_hd__or3_4
*CAP
1 *3401:C1 0.000117645
2 *3400:X 0.000117645
3 *3401:C1 *566:48 4.1331e-06
4 *3401:C1 *566:61 7.08001e-05
5 *3394:A *3401:C1 0
6 *3401:A3 *3401:C1 0
*RES
1 *3400:X *3401:C1 30.1536 
*END

*D_NET *333 0.000840018
*CONN
*I *3409:A1 I *D sky130_fd_sc_hd__o211a_2
*I *3402:Y O *D sky130_fd_sc_hd__nor2_2
*CAP
1 *3409:A1 0.000169917
2 *3402:Y 0.000169917
3 *3409:A1 *3403:A 5.50052e-05
4 *3409:A1 *3407:A2 0
5 *3409:A1 *3409:A2 0.00017165
6 *3409:A1 *3409:B1 2.669e-05
7 *3409:A1 *3409:C1 4.66203e-05
8 *3409:A1 *875:10 0.000200218
*RES
1 *3402:Y *3409:A1 32.6402 
*END

*D_NET *334 0.00154866
*CONN
*I *3409:A2 I *D sky130_fd_sc_hd__o211a_2
*I *3403:X O *D sky130_fd_sc_hd__and2_2
*CAP
1 *3409:A2 0.000420018
2 *3403:X 0.000420018
3 *3409:A2 *3403:A 1.853e-05
4 *3409:A2 *3409:B1 0.000508739
5 *3409:A2 *3409:C1 9.7049e-06
6 *3409:A2 *3938:D 0
7 *3409:A1 *3409:A2 0.00017165
*RES
1 *3403:X *3409:A2 36.1536 
*END

*D_NET *335 0.00193845
*CONN
*I *3409:B1 I *D sky130_fd_sc_hd__o211a_2
*I *3404:Y O *D sky130_fd_sc_hd__xnor2_2
*CAP
1 *3409:B1 0.000364161
2 *3404:Y 0.000364161
3 *3409:B1 *3402:A 1.52217e-05
4 *3409:B1 *3403:A 9.58632e-05
5 *3409:B1 *3403:B 5.50052e-05
6 *3409:B1 *3407:A2 0
7 *3409:B1 *3409:C1 9.45656e-06
8 *3409:B1 *3913:D 0.000338941
9 *3409:B1 *3936:CLK 2.58997e-05
10 *3409:B1 *3938:D 3.69047e-06
11 *3407:B1 *3409:B1 0.000130625
12 *3409:A1 *3409:B1 2.669e-05
13 *3409:A2 *3409:B1 0.000508739
*RES
1 *3404:Y *3409:B1 38.6 
*END

*D_NET *336 0.0016004
*CONN
*I *3407:A1 I *D sky130_fd_sc_hd__a21oi_2
*I *3408:A1 I *D sky130_fd_sc_hd__o211a_2
*I *3405:Y O *D sky130_fd_sc_hd__inv_2
*CAP
1 *3407:A1 0
2 *3408:A1 0.000276296
3 *3405:Y 0.000198126
4 *336:10 0.000474422
5 *3408:A1 *3407:A2 5.97623e-05
6 *3408:A1 *3408:A2 0.000116882
7 *3408:A1 *3408:C1 0.000291737
8 *336:10 *3407:A2 1.76039e-05
9 *336:10 *642:24 2.34204e-05
10 *336:10 *712:24 0.000142152
*RES
1 *3405:Y *336:10 17.1036 
2 *336:10 *3408:A1 20.6036 
3 *336:10 *3407:A1 13.8 
*END

*D_NET *337 0.000455643
*CONN
*I *3408:B1 I *D sky130_fd_sc_hd__o211a_2
*I *3406:Y O *D sky130_fd_sc_hd__xnor2_2
*CAP
1 *3408:B1 0.000220003
2 *3406:Y 0.000220003
3 *3408:B1 *3408:A2 1.00887e-05
4 *3408:B1 *3408:C1 5.54817e-06
*RES
1 *3406:Y *3408:B1 30.6 
*END

*D_NET *338 0.000791085
*CONN
*I *3408:C1 I *D sky130_fd_sc_hd__o211a_2
*I *3407:Y O *D sky130_fd_sc_hd__a21oi_2
*CAP
1 *3408:C1 0.000231909
2 *3407:Y 0.000231909
3 *3408:C1 *3407:A2 1.58163e-05
4 *3408:C1 *3408:A2 1.41665e-05
5 *3408:A1 *3408:C1 0.000291737
6 *3408:B1 *3408:C1 5.54817e-06
*RES
1 *3407:Y *3408:C1 32.5107 
*END

*D_NET *339 0.000906125
*CONN
*I *3409:C1 I *D sky130_fd_sc_hd__o211a_2
*I *3408:X O *D sky130_fd_sc_hd__o211a_2
*CAP
1 *3409:C1 0.000315235
2 *3408:X 0.000315235
3 *3409:C1 *3407:A2 0
4 *3409:C1 *3408:A2 0
5 *3409:C1 *3938:D 0
6 *3409:C1 *875:10 0.000200218
7 *3407:B1 *3409:C1 9.6561e-06
8 *3409:A1 *3409:C1 4.66203e-05
9 *3409:A2 *3409:C1 9.7049e-06
10 *3409:B1 *3409:C1 9.45656e-06
*RES
1 *3408:X *3409:C1 33.5821 
*END

*D_NET *340 6.37568e-05
*CONN
*I *3412:A I *D sky130_fd_sc_hd__nor2_2
*I *3410:X O *D sky130_fd_sc_hd__xor2_2
*CAP
1 *3412:A 3.18784e-05
2 *3410:X 3.18784e-05
*RES
1 *3410:X *3412:A 19.1357 
*END

*D_NET *341 0.00393136
*CONN
*I *3412:B I *D sky130_fd_sc_hd__nor2_2
*I *3411:X O *D sky130_fd_sc_hd__xor2_2
*CAP
1 *3412:B 0.00125602
2 *3411:X 0.00125602
3 *3412:B *3241:A1 3.35092e-05
4 *3412:B *3241:B1 2.87584e-05
5 *3412:B *3243:C 0.000143967
6 *3412:B *3244:A1 0.000135028
7 *3412:B *3925:CLK 0.000101056
8 *3412:B *3986:A 0.000291052
9 *3412:B *572:10 0.000111215
10 *3239:A2 *3412:B 0
11 *3241:A2 *3412:B 1.93007e-05
12 *3242:A1 *3412:B 0.000260574
13 *3245:B *3412:B 1.98839e-05
14 *188:12 *3412:B 8.50765e-05
15 *188:33 *3412:B 4.08637e-05
16 *202:54 *3412:B 0.000149028
*RES
1 *3411:X *3412:B 49.725 
*END

*D_NET *342 0.00187521
*CONN
*I *3414:B I *D sky130_fd_sc_hd__and4_4
*I *3412:Y O *D sky130_fd_sc_hd__nor2_2
*CAP
1 *3414:B 0.000648494
2 *3412:Y 0.000648494
3 *3414:B *3925:D 6.26884e-05
4 *3414:B *717:14 0.00048227
5 *3414:A *3414:B 3.32631e-05
*RES
1 *3412:Y *3414:B 38.9571 
*END

*D_NET *343 0.000818754
*CONN
*I *3414:D I *D sky130_fd_sc_hd__and4_4
*I *3413:X O *D sky130_fd_sc_hd__xor2_2
*CAP
1 *3414:D 0.000335001
2 *3413:X 0.000335001
3 *3414:D *3415:A 0
4 *3414:D *3918:CLK 5.90791e-05
5 *3414:D *3918:D 5.71472e-05
6 *3414:D *887:10 3.25247e-05
*RES
1 *3413:X *3414:D 32.9036 
*END

*D_NET *344 0.00102991
*CONN
*I *3415:A I *D sky130_fd_sc_hd__buf_6
*I *3414:X O *D sky130_fd_sc_hd__and4_4
*CAP
1 *3415:A 0.000419658
2 *3414:X 0.000419658
3 *3415:A *3918:D 0
4 *3415:A *3922:RESET_B 0
5 *3415:A *3928:D 9.83442e-05
6 *3415:A *604:36 5.20751e-05
7 *3415:A *716:17 0
8 *3415:A *717:14 4.01768e-05
9 *3414:D *3415:A 0
*RES
1 *3414:X *3415:A 34.8321 
*END

*D_NET *345 0.00124199
*CONN
*I *3418:A0 I *D sky130_fd_sc_hd__mux2_2
*I *3416:X O *D sky130_fd_sc_hd__mux4_2
*CAP
1 *3418:A0 0.000444607
2 *3416:X 0.000444607
3 *3418:A0 *3416:S0 0.000288566
4 *3418:A0 *3418:A1 0
5 *3418:A0 *3589:S 0
6 *3418:A0 *584:12 6.42145e-05
*RES
1 *3416:X *3418:A0 34.2964 
*END

*D_NET *346 0.00233036
*CONN
*I *3418:A1 I *D sky130_fd_sc_hd__mux2_2
*I *3417:X O *D sky130_fd_sc_hd__mux4_2
*CAP
1 *3418:A1 0.000615685
2 *3417:X 0.000615685
3 *3418:A1 *3416:S1 5.33005e-05
4 *3418:A1 *3417:A0 8.70197e-05
5 *3418:A1 *3417:A1 6.79414e-05
6 *3418:A1 *3417:S0 2.43562e-05
7 *3418:A1 *3418:S 0.000274288
8 *3418:A1 *3589:S 0.000209753
9 *3418:A1 *461:98 5.66157e-05
10 *3418:A1 *585:22 4.56594e-05
11 *3418:A1 *585:38 2.23987e-05
12 *3418:A1 *626:55 0.000104611
13 *3418:A1 *686:122 0.00015304
14 *3418:A0 *3418:A1 0
*RES
1 *3417:X *3418:A1 41.4393 
*END

*D_NET *347 0.00698214
*CONN
*I *3424:A0 I *D sky130_fd_sc_hd__mux2_2
*I *3418:X O *D sky130_fd_sc_hd__mux2_2
*CAP
1 *3424:A0 0
2 *3418:X 2.88412e-05
3 *347:10 0.0024508
4 *347:8 0.00247964
5 *347:8 *3727:S 5.41609e-05
6 *347:8 *626:55 0.000142856
7 *347:10 *3416:A0 0
8 *347:10 *3424:S 0
9 *347:10 *3440:A1 0
10 *347:10 *3441:A 0.000197984
11 *347:10 *3450:A0 7.99531e-05
12 *347:10 *3450:A1 0.000200413
13 *347:10 *3475:B 0.000294159
14 *347:10 *3572:S 0
15 *347:10 *3577:A 0.000537938
16 *347:10 *3598:A 0
17 *347:10 *3732:A 0.000153054
18 *347:10 *3735:A0 4.07505e-05
19 *347:10 *3735:S 0
20 *347:10 *3742:A 0.000227989
21 *347:10 *3882:CLK 0
22 *347:10 *352:73 0
23 *347:10 *402:14 0
24 *347:10 *544:38 0
25 *347:10 *544:61 9.36033e-05
26 *347:10 *622:12 0
27 *347:10 *662:59 0
28 *347:10 *852:14 0
*RES
1 *3418:X *347:8 15.1571 
2 *347:8 *347:10 51.125 
3 *347:10 *3424:A0 13.8 
*END

*D_NET *348 0.00161938
*CONN
*I *3422:A0 I *D sky130_fd_sc_hd__mux2_2
*I *3419:X O *D sky130_fd_sc_hd__mux4_2
*CAP
1 *3422:A0 0.000498575
2 *3419:X 0.000498575
3 *3422:A0 *3419:S0 2.84026e-05
4 *3422:A0 *3422:A1 1.55885e-05
5 *3422:A0 *3422:S 5.52302e-05
6 *3422:A0 *3675:A0 7.83659e-05
7 *3422:A0 *3675:A1 4.85049e-06
8 *3422:A0 *3676:A 0.000256686
9 *3422:A0 *684:21 8.53105e-05
10 *3422:A0 *684:27 9.77971e-05
*RES
1 *3419:X *3422:A0 37.5464 
*END

*D_NET *349 0.003092
*CONN
*I *3422:A1 I *D sky130_fd_sc_hd__mux2_2
*I *3420:X O *D sky130_fd_sc_hd__mux4_2
*CAP
1 *3422:A1 0.000686869
2 *3420:X 0.000686869
3 *3422:A1 *3420:A0 0.000356022
4 *3422:A1 *3422:S 6.05161e-06
5 *3422:A1 *3424:S 3.34366e-05
6 *3422:A1 *3440:A1 0.000329095
7 *3422:A1 *3692:A0 7.74135e-05
8 *3422:A1 *402:14 0.000738002
9 *3422:A1 *574:8 2.27416e-05
10 *3422:A1 *684:27 0.000139907
11 *3422:A0 *3422:A1 1.55885e-05
*RES
1 *3420:X *3422:A1 43.5464 
*END

*D_NET *350 0.0156166
*CONN
*I *4087:A I *D sky130_fd_sc_hd__clkbuf_2
*I *3456:S I *D sky130_fd_sc_hd__mux2_2
*I *3480:S I *D sky130_fd_sc_hd__mux2_2
*I *3422:S I *D sky130_fd_sc_hd__mux2_2
*I *3439:S I *D sky130_fd_sc_hd__mux2_2
*I *3421:X O *D sky130_fd_sc_hd__clkbuf_1
*CAP
1 *4087:A 0.00014361
2 *3456:S 0
3 *3480:S 0
4 *3422:S 0.000723769
5 *3439:S 0.000286164
6 *3421:X 0
7 *350:57 0.00146552
8 *350:36 0.00151891
9 *350:30 0.000587569
10 *350:26 0.00249489
11 *350:4 0.00254192
12 *3422:S *3709:A1 4.49446e-05
13 *3422:S *3710:A 0.000311434
14 *3422:S *3988:A 0.000214199
15 *3422:S *3991:A 0.000174629
16 *3422:S *402:14 0.000247079
17 *3422:S *562:75 0
18 *3422:S *562:81 0
19 *3422:S *684:27 1.56e-05
20 *3439:S *3437:A0 0.000381332
21 *3439:S *3439:A0 0
22 *3439:S *3662:A1 0.000276211
23 *3439:S *3663:A 0.000180014
24 *3439:S *3680:A 3.94857e-05
25 *3439:S *366:16 0
26 *3439:S *822:10 9.25014e-06
27 *4087:A *3635:S 0.000139344
28 *350:26 *3635:S 9.67754e-05
29 *350:26 *3683:A1 8.09765e-05
30 *350:26 *3720:A 5.20751e-05
31 *350:26 *525:60 0.00014925
32 *350:26 *562:214 0.000221287
33 *350:26 *562:220 3.82566e-05
34 *350:26 *562:224 5.23822e-05
35 *350:26 *562:248 7.69776e-06
36 *350:26 *581:10 0.000356682
37 *350:26 *594:10 0.000191337
38 *350:26 *634:31 1.90936e-05
39 *350:26 *692:30 7.69776e-06
40 *350:26 *725:59 4.27842e-06
41 *350:30 *380:22 0.000180066
42 *350:36 *380:22 3.30291e-05
43 *350:36 *381:28 5.58916e-06
44 *350:57 *3478:S1 0
45 *350:57 *3480:A0 0.000232399
46 *350:57 *3679:S 0.000555584
47 *350:57 *3680:A 2.22526e-05
48 *350:57 *3690:A 0.000784829
49 *350:57 *3723:A1 0
50 *350:57 *3988:A 0
51 *350:57 *562:81 0
52 *350:57 *592:14 0
53 *350:57 *665:34 0.000228558
54 *350:57 *851:8 0
55 *3422:A0 *3422:S 5.52302e-05
56 *3422:A1 *3422:S 6.05161e-06
57 *3850:D *3439:S 0.000153054
58 *3855:D *350:57 0.000153054
59 *3864:D *3422:S 0.000101777
60 *173:29 *4087:A 3.14948e-05
*RES
1 *3421:X *350:4 9.3 
2 *350:4 *350:26 49.4257 
3 *350:26 *350:30 6.26786 
4 *350:30 *350:36 10.3929 
5 *350:36 *3439:S 22.5857 
6 *350:36 *350:57 25.0714 
7 *350:57 *3422:S 35.2643 
8 *350:57 *3480:S 9.3 
9 *350:30 *3456:S 9.3 
10 *350:4 *4087:A 11.4964 
*END

*D_NET *351 0.000377669
*CONN
*I *3424:A1 I *D sky130_fd_sc_hd__mux2_2
*I *3422:X O *D sky130_fd_sc_hd__mux2_2
*CAP
1 *3424:A1 3.20735e-05
2 *3422:X 3.20735e-05
3 *3424:A1 *3424:S 0.000134854
4 *3424:A1 *684:27 0.000178667
*RES
1 *3422:X *3424:A1 20.2875 
*END

*D_NET *352 0.0168094
*CONN
*I *3448:S I *D sky130_fd_sc_hd__mux2_2
*I *3471:B1 I *D sky130_fd_sc_hd__o21a_2
*I *3464:S I *D sky130_fd_sc_hd__mux2_2
*I *3431:B1 I *D sky130_fd_sc_hd__o21a_2
*I *3481:B2 I *D sky130_fd_sc_hd__a22o_2
*I *3440:S I *D sky130_fd_sc_hd__mux2_2
*I *3424:S I *D sky130_fd_sc_hd__mux2_2
*I *3457:B2 I *D sky130_fd_sc_hd__a22o_2
*I *3423:X O *D sky130_fd_sc_hd__buf_1
*CAP
1 *3448:S 0
2 *3471:B1 2.06112e-05
3 *3464:S 0
4 *3431:B1 0
5 *3481:B2 0.000214467
6 *3440:S 2.12761e-05
7 *3424:S 0.000193364
8 *3457:B2 0
9 *3423:X 0.000612746
10 *352:73 0.000457204
11 *352:67 0.00107441
12 *352:58 0.00170716
13 *352:50 0.00134315
14 *352:44 0.000903349
15 *352:34 0.00137783
16 *352:14 0.00131999
17 *3424:S *3440:A1 9.25016e-05
18 *3424:S *402:14 0.00012553
19 *3424:S *684:27 2.37742e-05
20 *3440:S *3440:A0 0.00014285
21 *3440:S *544:38 0.00014285
22 *3471:B1 *3471:A1 3.99614e-06
23 *3481:B2 *3451:B 0.000189541
24 *3481:B2 *3475:A 3.22745e-05
25 *3481:B2 *3992:A 2.42516e-05
26 *3481:B2 *402:14 0.000194113
27 *3481:B2 *610:12 8.50152e-05
28 *3481:B2 *681:58 5.84171e-05
29 *352:14 *3448:A0 0
30 *352:14 *4010:A 0.00010083
31 *352:14 *373:14 0.000314416
32 *352:14 *442:14 0.000519836
33 *352:14 *461:18 1.67308e-05
34 *352:14 *727:28 0.000190284
35 *352:34 *3471:A1 9.56592e-05
36 *352:34 *3471:A2 1.55885e-05
37 *352:34 *3535:A 0.000100464
38 *352:34 *3552:C 0
39 *352:34 *3570:A_N 5.33005e-05
40 *352:34 *3571:A 2.15245e-05
41 *352:34 *3725:B 0
42 *352:34 *3915:CLK 0.000181381
43 *352:34 *432:20 3.39401e-05
44 *352:34 *461:18 9.78137e-05
45 *352:34 *562:302 9.65548e-05
46 *352:34 *562:329 2.99929e-05
47 *352:34 *700:10 5.23296e-05
48 *352:34 *727:28 4.15263e-05
49 *352:44 *3432:A1 7.48091e-05
50 *352:44 *3460:S 0
51 *352:44 *3464:A1 0.000398297
52 *352:44 *3470:S1 9.90431e-05
53 *352:44 *3472:A1 5.67397e-05
54 *352:44 *3472:B1 9.99644e-06
55 *352:44 *3571:A 1.72894e-05
56 *352:44 *3721:S 4.46186e-06
57 *352:44 *3877:CLK 0
58 *352:44 *413:20 0.000206262
59 *352:44 *562:37 0.000325397
60 *352:44 *674:8 1.81412e-05
61 *352:44 *685:10 5.52238e-05
62 *352:44 *727:28 0.000128496
63 *352:50 *3431:A2 5.33005e-05
64 *352:50 *3432:A2 2.28499e-05
65 *352:50 *3464:A1 5.49544e-05
66 *352:50 *388:16 0.00031362
67 *352:50 *413:20 3.31436e-05
68 *352:50 *681:44 0.000469069
69 *352:50 *681:58 9.60939e-05
70 *352:58 *3432:A2 6.4739e-05
71 *352:58 *3432:B1 3.14163e-05
72 *352:58 *3453:A1 8.71847e-05
73 *352:58 *3453:A2 2.27416e-05
74 *352:58 *3453:B1 3.70128e-05
75 *352:58 *3457:A2 0.000361447
76 *352:58 *3597:S 0.000108077
77 *352:58 *360:14 5.71472e-05
78 *352:58 *674:39 0.000169054
79 *352:67 *3457:A1 0.00048255
80 *352:67 *3457:A2 4.06627e-05
81 *352:67 *648:12 5.7256e-05
82 *352:73 *402:14 0.000270958
83 *352:73 *648:12 3.55552e-05
84 *3422:A1 *3424:S 3.34366e-05
85 *3424:A1 *3424:S 0.000134854
86 *3570:D *352:34 5.52302e-05
87 *347:10 *3424:S 0
88 *347:10 *352:73 0
*RES
1 *3423:X *352:14 31.5143 
2 *352:14 *352:34 23.375 
3 *352:34 *352:44 24.7321 
4 *352:44 *352:50 7.66071 
5 *352:50 *352:58 17.625 
6 *352:58 *3457:B2 9.3 
7 *352:58 *352:67 8.66071 
8 *352:67 *352:73 9.32143 
9 *352:73 *3424:S 18.4786 
10 *352:73 *3440:S 15.1571 
11 *352:67 *3481:B2 24.1571 
12 *352:50 *3431:B1 9.3 
13 *352:44 *3464:S 9.3 
14 *352:34 *3471:B1 9.72857 
15 *352:14 *3448:S 9.3 
*END

*D_NET *353 0.00152946
*CONN
*I *3425:A I *D sky130_fd_sc_hd__buf_1
*I *3424:X O *D sky130_fd_sc_hd__mux2_2
*CAP
1 *3425:A 0.000526193
2 *3424:X 0.000526193
3 *3425:A *3441:A 0.000260091
4 *3425:A *3753:A 0.00021698
*RES
1 *3424:X *3425:A 29.1536 
*END

*D_NET *354 0.000724569
*CONN
*I *3428:A0 I *D sky130_fd_sc_hd__mux2_2
*I *3426:X O *D sky130_fd_sc_hd__mux4_2
*CAP
1 *3428:A0 0.000172061
2 *3426:X 0.000172061
3 *3428:A0 *3428:A1 8.8391e-05
4 *3428:A0 *3428:S 0.000292056
*RES
1 *3426:X *3428:A0 31.9036 
*END

*D_NET *355 0.00272817
*CONN
*I *3428:A1 I *D sky130_fd_sc_hd__mux2_2
*I *3427:X O *D sky130_fd_sc_hd__mux4_2
*CAP
1 *3428:A1 0.00073804
2 *3427:X 0.00073804
3 *3428:A1 *3428:S 0.000125536
4 *3428:A1 *3536:S 0.000347181
5 *3428:A1 *3538:S 0.000315887
6 *3428:A1 *3806:CLK 0
7 *3428:A1 *630:14 0.000375101
8 *3428:A0 *3428:A1 8.8391e-05
*RES
1 *3427:X *3428:A1 42.6179 
*END

*D_NET *356 0.00412074
*CONN
*I *3433:A2 I *D sky130_fd_sc_hd__a21bo_2
*I *3428:X O *D sky130_fd_sc_hd__mux2_2
*CAP
1 *3433:A2 0
2 *3428:X 0.000699158
3 *356:14 0.000699158
4 *356:14 *3433:A1 9.80173e-05
5 *356:14 *3476:S0 0
6 *356:14 *3583:A 0.000173083
7 *356:14 *3747:A 0.000735457
8 *356:14 *4026:A 0.000306317
9 *356:14 *413:85 0.000201067
10 *356:14 *452:37 9.60875e-05
11 *356:14 *580:8 0.000219711
12 *356:14 *686:10 0.00015664
13 *356:14 *686:22 0.000438688
14 *356:14 *749:10 0.000146061
15 *356:14 *757:10 0.000151298
*RES
1 *3428:X *356:14 40.9071 
2 *356:14 *3433:A2 9.3 
*END

*D_NET *357 0.00217082
*CONN
*I *3432:A2 I *D sky130_fd_sc_hd__o21ai_2
*I *3429:X O *D sky130_fd_sc_hd__mux4_2
*CAP
1 *3432:A2 0.000414397
2 *3429:X 0.000414397
3 *3432:A2 *3431:A2 0.000477297
4 *3432:A2 *3432:B1 9.60939e-05
5 *3432:A2 *3597:S 0.000224583
6 *3432:A2 *3754:A1 5.52238e-05
7 *3432:A2 *4024:A 0.000150618
8 *3432:A2 *360:14 5.30637e-06
9 *3432:A2 *388:16 4.31104e-05
10 *3432:A2 *633:45 0
11 *3432:A2 *681:58 0.000202204
12 *352:50 *3432:A2 2.28499e-05
13 *352:58 *3432:A2 6.4739e-05
*RES
1 *3429:X *3432:A2 39.3679 
*END

*D_NET *358 0.00328595
*CONN
*I *3431:A2 I *D sky130_fd_sc_hd__o21a_2
*I *3430:X O *D sky130_fd_sc_hd__mux4_2
*CAP
1 *3431:A2 0.000907982
2 *3430:X 0.000907982
3 *3431:A2 *3430:A0 0.000197984
4 *3431:A2 *3430:S0 0.000448984
5 *3431:A2 *3487:A 3.69697e-05
6 *3431:A2 *3661:A 8.01554e-05
7 *3431:A2 *3976:A 1.72894e-05
8 *3431:A2 *4013:A 0.000112006
9 *3431:A2 *4024:A 3.67452e-05
10 *3431:A2 *388:16 9.25014e-06
11 *3431:A2 *669:14 0
12 *3432:A2 *3431:A2 0.000477297
13 *3841:D *3431:A2 0
14 *352:50 *3431:A2 5.33005e-05
*RES
1 *3430:X *3431:A2 49.4393 
*END

*D_NET *359 0.000193139
*CONN
*I *3432:B1 I *D sky130_fd_sc_hd__o21ai_2
*I *3431:X O *D sky130_fd_sc_hd__o21a_2
*CAP
1 *3432:B1 3.28144e-05
2 *3431:X 3.28144e-05
3 *3432:A2 *3432:B1 9.60939e-05
4 *352:58 *3432:B1 3.14163e-05
*RES
1 *3431:X *3432:B1 19.5464 
*END

*D_NET *360 0.00367931
*CONN
*I *3433:B1_N I *D sky130_fd_sc_hd__a21bo_2
*I *3432:Y O *D sky130_fd_sc_hd__o21ai_2
*CAP
1 *3433:B1_N 0
2 *3432:Y 0.00117371
3 *360:14 0.00117371
4 *360:14 *3432:A1 1.19402e-05
5 *360:14 *3476:S0 0.000151333
6 *360:14 *3597:S 1.00073e-05
7 *360:14 *3600:A 2.00751e-05
8 *360:14 *3788:CLK 0
9 *360:14 *3813:CLK 7.49239e-05
10 *360:14 *4095:A 0
11 *360:14 *452:37 7.14155e-05
12 *360:14 *461:53 0
13 *360:14 *544:116 0
14 *360:14 *611:49 0
15 *360:14 *633:45 0.000250315
16 *3432:A2 *360:14 5.30637e-06
17 *3773:D *360:14 0.000151009
18 *3805:D *360:14 4.86923e-05
19 *3813:D *360:14 0.000479727
20 *352:58 *360:14 5.71472e-05
*RES
1 *3432:Y *360:14 44.5411 
2 *360:14 *3433:B1_N 9.3 
*END

*D_NET *361 0.00192954
*CONN
*I *3436:A0 I *D sky130_fd_sc_hd__mux2_2
*I *3434:X O *D sky130_fd_sc_hd__mux4_2
*CAP
1 *3436:A0 0.000580697
2 *3434:X 0.000580697
3 *3436:A0 *3434:A0 0.000269741
4 *3436:A0 *3434:S0 0.000182891
5 *3436:A0 *461:88 0.00031551
*RES
1 *3434:X *3436:A0 37.5464 
*END

*D_NET *362 0.00208874
*CONN
*I *3436:A1 I *D sky130_fd_sc_hd__mux2_2
*I *3435:X O *D sky130_fd_sc_hd__mux4_2
*CAP
1 *3436:A1 0.000531483
2 *3435:X 0.000531483
3 *3436:A1 *3434:S1 0.000392295
4 *3436:A1 *3540:A0 5.48009e-05
5 *3436:A1 *3540:A1 0
6 *3436:A1 *3558:A0 4.61453e-05
7 *3436:A1 *3997:A 0.000135028
8 *3436:A1 *363:12 1.99271e-05
9 *3436:A1 *622:84 0.000135028
10 *3794:D *3436:A1 0.000220108
11 *3810:D *3436:A1 2.24405e-05
*RES
1 *3435:X *3436:A1 38.6357 
*END

*D_NET *363 0.00706136
*CONN
*I *3440:A0 I *D sky130_fd_sc_hd__mux2_2
*I *3436:X O *D sky130_fd_sc_hd__mux2_2
*CAP
1 *3440:A0 0.000512057
2 *3436:X 0.00146262
3 *363:12 0.00197467
4 *3440:A0 *3457:A1 0.000123295
5 *3440:A0 *3475:A 0
6 *3440:A0 *402:14 0
7 *3440:A0 *544:38 0.000213767
8 *3440:A0 *562:75 0.000544416
9 *3440:A0 *562:106 8.85664e-07
10 *3440:A0 *652:20 4.96037e-05
11 *3440:A0 *681:58 7.77652e-05
12 *363:12 *3434:S0 0.000316102
13 *363:12 *3436:S 2.85321e-05
14 *363:12 *3474:S0 0
15 *363:12 *3475:A 0
16 *363:12 *3587:A 7.3828e-05
17 *363:12 *3807:CLK 0
18 *363:12 *3997:A 0.000394895
19 *363:12 *461:88 0
20 *363:12 *562:75 7.39203e-06
21 *363:12 *562:106 0.000862276
22 *363:12 *652:20 0.000156729
23 *3436:A1 *363:12 1.99271e-05
24 *3440:S *3440:A0 0.00014285
25 *3807:D *363:12 0
26 *3815:D *363:12 9.97552e-05
*RES
1 *3436:X *363:12 46.7732 
2 *363:12 *3440:A0 27.0768 
*END

*D_NET *364 0.000684987
*CONN
*I *3439:A0 I *D sky130_fd_sc_hd__mux2_2
*I *3437:X O *D sky130_fd_sc_hd__mux4_2
*CAP
1 *3439:A0 0.000237839
2 *3437:X 0.000237839
3 *3439:A0 *3437:S0 2.89114e-05
4 *3439:A0 *366:16 0.000180398
5 *3439:A0 *822:10 0
6 *3439:S *3439:A0 0
7 *3850:D *3439:A0 0
*RES
1 *3437:X *3439:A0 32.5107 
*END

*D_NET *365 0.00177335
*CONN
*I *3439:A1 I *D sky130_fd_sc_hd__mux2_2
*I *3438:X O *D sky130_fd_sc_hd__mux4_2
*CAP
1 *3439:A1 0.000636039
2 *3438:X 0.000636039
3 *3439:A1 *3438:A0 7.80039e-05
4 *3439:A1 *3438:S1 0
5 *3439:A1 *3610:A0 4.75428e-05
6 *3439:A1 *3611:A 0
7 *3439:A1 *3662:A1 0.000137983
8 *3439:A1 *3663:A 0.000137983
9 *3439:A1 *366:16 7.90803e-05
10 *3439:A1 *516:57 0
11 *3439:A1 *621:41 0
12 *3439:A1 *664:48 1.38167e-05
13 *3439:A1 *684:50 0
14 *3439:A1 *798:8 6.8646e-06
*RES
1 *3438:X *3439:A1 39.7071 
*END

*D_NET *366 0.00671396
*CONN
*I *3440:A1 I *D sky130_fd_sc_hd__mux2_2
*I *3439:X O *D sky130_fd_sc_hd__mux2_2
*CAP
1 *3440:A1 0.00116806
2 *3439:X 0.000613693
3 *366:16 0.00178175
4 *3440:A1 *3420:A0 9.56968e-05
5 *3440:A1 *3484:A0 0.000132292
6 *3440:A1 *3485:A 0
7 *3440:A1 *3498:S 0.00096474
8 *3440:A1 *3692:A0 7.74135e-05
9 *3440:A1 *3706:S 0.000107845
10 *3440:A1 *3713:A1 4.06094e-05
11 *3440:A1 *3724:A 0.000101777
12 *3440:A1 *3863:CLK 0.000213802
13 *3440:A1 *3988:A 0
14 *3440:A1 *402:14 0.000171087
15 *3440:A1 *544:38 9.90367e-05
16 *3440:A1 *625:50 4.26034e-05
17 *366:16 *3437:A3 8.99841e-05
18 *366:16 *3662:A1 7.32173e-05
19 *366:16 *3679:A0 8.89326e-06
20 *366:16 *3680:A 0
21 *366:16 *3713:A0 6.05161e-06
22 *366:16 *3713:A1 2.98475e-05
23 *366:16 *3713:S 9.84673e-05
24 *366:16 *516:57 0
25 *366:16 *822:10 0
26 *366:16 *830:10 0.000116017
27 *3422:A1 *3440:A1 0.000329095
28 *3424:S *3440:A1 9.25016e-05
29 *3439:A0 *366:16 0.000180398
30 *3439:A1 *366:16 7.90803e-05
31 *3439:S *366:16 0
32 *347:10 *3440:A1 0
*RES
1 *3439:X *366:16 36.175 
2 *366:16 *3440:A1 46.1393 
*END

*D_NET *367 0.00248767
*CONN
*I *3441:A I *D sky130_fd_sc_hd__buf_1
*I *3440:X O *D sky130_fd_sc_hd__mux2_2
*CAP
1 *3441:A 0.000646111
2 *3440:X 0.000646111
3 *3441:A *3526:A1 0
4 *3441:A *3753:A 0.000399137
5 *3441:A *3856:CLK 0
6 *3441:A *4094:A 2.07878e-05
7 *3441:A *544:38 3.20153e-05
8 *3441:A *684:27 0.000228558
9 *3425:A *3441:A 0.000260091
10 *3884:D *3441:A 5.68713e-05
11 *347:10 *3441:A 0.000197984
*RES
1 *3440:X *3441:A 42.2071 
*END

*D_NET *368 0.00127374
*CONN
*I *3444:A0 I *D sky130_fd_sc_hd__mux2_2
*I *3442:X O *D sky130_fd_sc_hd__mux4_2
*CAP
1 *3444:A0 0.000374236
2 *3442:X 0.000374236
3 *3444:A0 *3444:A1 0.000182
4 *3444:A0 *3448:A0 0.000290607
5 *3444:A0 *571:8 0
6 *3444:A0 *729:78 5.26625e-05
*RES
1 *3442:X *3444:A0 34.4929 
*END

*D_NET *369 0.00316632
*CONN
*I *3444:A1 I *D sky130_fd_sc_hd__mux2_2
*I *3443:X O *D sky130_fd_sc_hd__mux4_2
*CAP
1 *3444:A1 0.00107274
2 *3443:X 0.00107274
3 *3444:A1 *3524:A1 0
4 *3444:A1 *3984:A 0.000185124
5 *3444:A1 *3985:A 0.000620276
6 *3444:A1 *442:24 0
7 *3444:A1 *571:8 3.34366e-05
8 *3444:A1 *602:21 0
9 *3444:A1 *687:54 0
10 *3444:A1 *767:12 0
11 *3444:A0 *3444:A1 0.000182
*RES
1 *3443:X *3444:A1 47.35 
*END

*D_NET *370 0.00238202
*CONN
*I *3448:A0 I *D sky130_fd_sc_hd__mux2_2
*I *3444:X O *D sky130_fd_sc_hd__mux2_2
*CAP
1 *3448:A0 0.000659695
2 *3444:X 0.000659695
3 *3448:A0 *3442:A0 0.000124749
4 *3448:A0 *3726:A 0.000341788
5 *3448:A0 *3985:A 0
6 *3448:A0 *432:20 0.000154719
7 *3448:A0 *442:14 0
8 *3448:A0 *562:347 0
9 *3448:A0 *571:8 0
10 *3448:A0 *855:8 0.000150773
11 *3444:A0 *3448:A0 0.000290607
12 *352:14 *3448:A0 0
*RES
1 *3444:X *3448:A0 42.6 
*END

*D_NET *371 0.000193128
*CONN
*I *3447:A0 I *D sky130_fd_sc_hd__mux2_2
*I *3445:X O *D sky130_fd_sc_hd__mux4_2
*CAP
1 *3447:A0 4.82617e-05
2 *3445:X 4.82617e-05
3 *3447:A0 *3447:A1 3.9733e-05
4 *3447:A0 *3664:A0 5.14943e-05
5 *3447:A0 *823:10 5.37741e-06
*RES
1 *3445:X *3447:A0 28.9393 
*END

*D_NET *372 0.00314042
*CONN
*I *3447:A1 I *D sky130_fd_sc_hd__mux2_2
*I *3446:X O *D sky130_fd_sc_hd__mux4_2
*CAP
1 *3447:A1 0.0010639
2 *3446:X 0.0010639
3 *3447:A1 *3446:A0 0
4 *3447:A1 *3681:A0 0
5 *3447:A1 *3895:CLK 6.23278e-05
6 *3447:A1 *3978:A 0.0007062
7 *3447:A1 *632:25 0.000204361
8 *3447:A0 *3447:A1 3.9733e-05
*RES
1 *3446:X *3447:A1 49.0464 
*END

*D_NET *373 0.00669602
*CONN
*I *3448:A1 I *D sky130_fd_sc_hd__mux2_2
*I *3447:X O *D sky130_fd_sc_hd__mux2_2
*CAP
1 *3448:A1 0
2 *3447:X 0.000130906
3 *373:14 0.0017646
4 *373:8 0.0018955
5 *373:14 *3534:A 0
6 *373:14 *3553:A 0.000364096
7 *373:14 *3656:B 0.000173804
8 *373:14 *3664:A0 4.72217e-05
9 *373:14 *4086:A 0
10 *373:14 *403:36 0.0011123
11 *373:14 *442:14 0.000100823
12 *373:14 *461:18 0.000396226
13 *373:14 *683:59 4.84667e-05
14 *373:14 *705:10 0
15 *373:14 *705:32 0
16 *373:14 *727:28 2.55806e-05
17 *373:14 *869:14 0.000170424
18 *3708:B *373:14 0.000151664
19 *173:10 *373:14 0
20 *352:14 *373:14 0.000314416
*RES
1 *3447:X *373:8 15.1571 
2 *373:8 *373:14 46.0893 
3 *373:14 *3448:A1 9.3 
*END

*D_NET *374 0.00784168
*CONN
*I *3449:A I *D sky130_fd_sc_hd__buf_1
*I *3448:X O *D sky130_fd_sc_hd__mux2_2
*CAP
1 *3449:A 0.000440372
2 *3448:X 0.00279344
3 *374:10 0.00323381
4 *3449:A *3917:D 2.89016e-05
5 *3449:A *3937:CLK 0.000310041
6 *3449:A *3937:D 7.32272e-05
7 *3449:A *3937:RESET_B 7.47493e-05
8 *374:10 *3268:A2 0.000204773
9 *374:10 *3916:D 0.00012401
10 *374:10 *461:18 0.000177448
11 *374:10 *727:28 0.000267698
12 *3268:B1_N *374:10 2.84026e-05
13 *3588:A *374:10 8.48112e-05
*RES
1 *3448:X *374:10 48.8357 
2 *374:10 *3449:A 23.3893 
*END

*D_NET *375 0.00103873
*CONN
*I *3451:B I *D sky130_fd_sc_hd__or2_2
*I *3450:X O *D sky130_fd_sc_hd__mux4_2
*CAP
1 *3451:B 0.000295031
2 *3450:X 0.000295031
3 *3451:B *3475:A 0.000137931
4 *3451:B *3992:A 1.48545e-05
5 *3451:B *610:12 9.60875e-05
6 *3451:B *681:58 1.02504e-05
7 *3481:B2 *3451:B 0.000189541
*RES
1 *3450:X *3451:B 32.5464 
*END

*D_NET *376 0.00117843
*CONN
*I *3457:A1 I *D sky130_fd_sc_hd__a22o_2
*I *3451:X O *D sky130_fd_sc_hd__or2_2
*CAP
1 *3457:A1 0.000182656
2 *3451:X 0.000182656
3 *3457:A1 *3457:A2 3.9228e-05
4 *3457:A1 *648:12 0.000126408
5 *3457:A1 *681:58 4.16383e-05
6 *3440:A0 *3457:A1 0.000123295
7 *352:67 *3457:A1 0.00048255
*RES
1 *3451:X *3457:A1 33.8857 
*END

*D_NET *377 0.00119184
*CONN
*I *3453:A2 I *D sky130_fd_sc_hd__o21a_2
*I *3452:X O *D sky130_fd_sc_hd__mux4_2
*CAP
1 *3453:A2 0.000334759
2 *3452:X 0.000334759
3 *3453:A2 *3453:B1 0.000147356
4 *3453:A2 *3544:A0 1.02504e-05
5 *3453:A2 *3597:S 2.89114e-05
6 *3453:A2 *3865:CLK 0
7 *3453:A2 *562:56 0.000115072
8 *3453:A2 *768:10 0.000197991
9 *3796:D *3453:A2 0
10 *352:58 *3453:A2 2.27416e-05
*RES
1 *3452:X *3453:A2 35.1714 
*END

*D_NET *378 0.000908983
*CONN
*I *3457:A2 I *D sky130_fd_sc_hd__a22o_2
*I *3453:X O *D sky130_fd_sc_hd__o21a_2
*CAP
1 *3457:A2 0.000233823
2 *3453:X 0.000233823
3 *3457:A1 *3457:A2 3.9228e-05
4 *352:58 *3457:A2 0.000361447
5 *352:67 *3457:A2 4.06627e-05
*RES
1 *3453:X *3457:A2 24.2295 
*END

*D_NET *379 0.00325348
*CONN
*I *3456:A0 I *D sky130_fd_sc_hd__mux2_2
*I *3454:X O *D sky130_fd_sc_hd__mux4_2
*CAP
1 *3456:A0 0.00085944
2 *3454:X 0.00085944
3 *3456:A0 *3454:A0 0.00010096
4 *3456:A0 *3454:A1 9.77274e-05
5 *3456:A0 *3718:A 5.33005e-05
6 *3456:A0 *3974:A 0.000277524
7 *3456:A0 *380:22 0.000644212
8 *3456:A0 *581:10 0.000161012
9 *3456:A0 *590:25 0.000116038
10 *3852:D *3456:A0 8.38262e-05
*RES
1 *3454:X *3456:A0 45.9036 
*END

*D_NET *380 0.00479922
*CONN
*I *3456:A1 I *D sky130_fd_sc_hd__mux2_2
*I *3455:X O *D sky130_fd_sc_hd__mux4_2
*CAP
1 *3456:A1 0
2 *3455:X 0.00131457
3 *380:22 0.00131457
4 *380:22 *3454:A1 0
5 *380:22 *3455:A0 8.25485e-05
6 *380:22 *3455:S0 0
7 *380:22 *3614:A0 0.000137224
8 *380:22 *3615:A 0
9 *380:22 *3717:A1 2.59355e-05
10 *380:22 *3861:CLK 0
11 *380:22 *3974:A 0.000751129
12 *380:22 *581:10 0.000124657
13 *380:22 *800:8 0.000107442
14 *3456:A0 *380:22 0.000644212
15 *3852:D *380:22 8.38262e-05
16 *350:30 *380:22 0.000180066
17 *350:36 *380:22 3.30291e-05
*RES
1 *3455:X *380:22 46.2286 
2 *380:22 *3456:A1 9.3 
*END

*D_NET *381 0.00736326
*CONN
*I *3457:B1 I *D sky130_fd_sc_hd__a22o_2
*I *3456:X O *D sky130_fd_sc_hd__mux2_2
*CAP
1 *3457:B1 0
2 *3456:X 0.00367884
3 *381:28 0.00367884
4 *381:28 *594:10 0
5 *350:36 *381:28 5.58916e-06
*RES
1 *3456:X *381:28 42.7285 
2 *381:28 *3457:B1 9.3 
*END

*D_NET *382 0.000380848
*CONN
*I *3460:A0 I *D sky130_fd_sc_hd__mux2_2
*I *3458:X O *D sky130_fd_sc_hd__mux4_2
*CAP
1 *3460:A0 8.47282e-05
2 *3458:X 8.47282e-05
3 *3460:A0 *3460:A1 0.000129868
4 *3460:A0 *681:44 6.74815e-05
5 *3460:A0 *865:12 1.40415e-05
*RES
1 *3458:X *3460:A0 29.7786 
*END

*D_NET *383 0.00329573
*CONN
*I *3460:A1 I *D sky130_fd_sc_hd__mux2_2
*I *3459:X O *D sky130_fd_sc_hd__mux4_2
*CAP
1 *3460:A1 0.000937069
2 *3459:X 0.000937069
3 *3460:A1 *3459:A0 0.000137983
4 *3460:A1 *3459:S1 0.000169168
5 *3460:A1 *3546:A0 9.91086e-05
6 *3460:A1 *3565:A 5.86416e-05
7 *3460:A1 *3877:CLK 0
8 *3460:A1 *4052:A 0.000796556
9 *3460:A1 *432:30 1.94879e-05
10 *3460:A1 *452:14 0
11 *3460:A1 *666:16 0
12 *3460:A1 *681:44 1.07753e-05
13 *3460:A1 *865:12 0
14 *3460:A0 *3460:A1 0.000129868
15 *3877:D *3460:A1 0
*RES
1 *3459:X *3460:A1 48.7429 
*END

*D_NET *384 0.000671159
*CONN
*I *3464:A0 I *D sky130_fd_sc_hd__mux2_2
*I *3460:X O *D sky130_fd_sc_hd__mux2_2
*CAP
1 *3464:A0 0.000255897
2 *3460:X 0.000255897
3 *3464:A0 *3754:A0 9.25014e-06
4 *3464:A0 *544:32 5.45727e-06
5 *3464:A0 *562:37 9.18416e-05
6 *3464:A0 *681:44 5.28157e-05
*RES
1 *3460:X *3464:A0 31.2339 
*END

*D_NET *385 0.000322662
*CONN
*I *3463:A0 I *D sky130_fd_sc_hd__mux2_2
*I *3461:X O *D sky130_fd_sc_hd__mux4_2
*CAP
1 *3463:A0 3.33923e-05
2 *3461:X 3.33923e-05
3 *3463:A0 *3463:A1 0.000127939
4 *3463:A0 *692:30 0.000127939
*RES
1 *3461:X *3463:A0 29.2429 
*END

*D_NET *386 0.00326213
*CONN
*I *3463:A1 I *D sky130_fd_sc_hd__mux2_2
*I *3462:X O *D sky130_fd_sc_hd__mux4_2
*CAP
1 *3463:A1 0.00081038
2 *3462:X 0.00081038
3 *3463:A1 *3446:S0 1.6806e-05
4 *3463:A1 *3462:S1 3.49086e-05
5 *3463:A1 *3669:A 0.000335929
6 *3463:A1 *3827:CLK 0
7 *3463:A1 *3981:A 0
8 *3463:A1 *562:248 0.000211201
9 *3463:A1 *562:262 9.47456e-05
10 *3463:A1 *692:30 5.16892e-05
11 *3463:A1 *692:32 0.000125741
12 *3463:A1 *692:38 0.000642413
13 *3463:A0 *3463:A1 0.000127939
*RES
1 *3462:X *3463:A1 49.2607 
*END

*D_NET *387 0.00758084
*CONN
*I *3464:A1 I *D sky130_fd_sc_hd__mux2_2
*I *3463:X O *D sky130_fd_sc_hd__mux2_2
*CAP
1 *3464:A1 8.09641e-05
2 *3463:X 0.000883807
3 *387:8 0.000964771
4 *3464:A1 *413:20 0.000440046
5 *387:8 *3635:A1 0.000242626
6 *387:8 *3653:A 0.000222878
7 *387:8 *3721:A0 0.000383747
8 *387:8 *3822:CLK 0.000213939
9 *387:8 *3877:CLK 0.000123784
10 *387:8 *4052:A 0.00119524
11 *387:8 *597:8 0.000323397
12 *387:8 *597:12 5.74242e-05
13 *387:8 *634:31 0.000519722
14 *387:8 *692:30 0.00132456
15 *387:8 *721:79 0.000150684
16 *352:44 *3464:A1 0.000398297
17 *352:50 *3464:A1 5.49544e-05
*RES
1 *3463:X *387:8 48.8357 
2 *387:8 *3464:A1 18.0321 
*END

*D_NET *388 0.0107817
*CONN
*I *3465:A I *D sky130_fd_sc_hd__buf_1
*I *3464:X O *D sky130_fd_sc_hd__mux2_2
*CAP
1 *3465:A 0
2 *3464:X 0.000586451
3 *388:22 0.0035215
4 *388:16 0.00410795
5 *388:16 *3458:S0 0.000334425
6 *388:16 *3754:A1 3.34783e-05
7 *388:16 *4013:A 0.000148299
8 *388:16 *724:49 2.3942e-05
9 *388:16 *724:73 0.000810582
10 *388:22 *3477:A1 1.35465e-05
11 *388:22 *3477:A2 5.49995e-05
12 *388:22 *3481:A2 0.000252775
13 *388:22 *3544:A0 0.000140524
14 *388:22 *3544:A1 9.94411e-06
15 *388:22 *3544:S 1.65169e-05
16 *388:22 *3545:A 5.33005e-05
17 *388:22 *4099:A 5.93525e-05
18 *388:22 *652:20 0.000189541
19 *388:22 *724:32 1.58163e-05
20 *388:22 *724:36 3.2033e-05
21 *388:22 *761:10 7.4057e-06
22 *3431:A2 *388:16 9.25014e-06
23 *3432:A2 *388:16 4.31104e-05
24 *3804:D *388:22 3.32132e-06
25 *352:50 *388:16 0.00031362
*RES
1 *3464:X *388:16 35.4429 
2 *388:16 *388:22 48.0357 
3 *388:22 *3465:A 13.8 
*END

*D_NET *389 0.00115923
*CONN
*I *3468:A0 I *D sky130_fd_sc_hd__mux2_2
*I *3466:X O *D sky130_fd_sc_hd__mux4_2
*CAP
1 *3468:A0 0.00017903
2 *3466:X 0.00017903
3 *3468:A0 *3443:S1 1.69115e-05
4 *3468:A0 *3468:A1 0.000113664
5 *3468:A0 *3468:S 7.37452e-05
6 *3468:A0 *3739:A0 5.33005e-05
7 *3468:A0 *3739:S 9.90431e-05
8 *3468:A0 *442:37 0.000123295
9 *3468:A0 *688:51 6.05161e-06
10 *3468:A0 *722:18 0.000315165
*RES
1 *3466:X *3468:A0 33.475 
*END

*D_NET *390 0.0025682
*CONN
*I *3468:A1 I *D sky130_fd_sc_hd__mux2_2
*I *3467:X O *D sky130_fd_sc_hd__mux4_2
*CAP
1 *3468:A1 0.000561966
2 *3467:X 0.000561966
3 *3468:A1 *3443:S1 5.20383e-05
4 *3468:A1 *3467:A1 2.59355e-05
5 *3468:A1 *3468:S 4.23644e-06
6 *3468:A1 *3739:A0 5.33005e-05
7 *3468:A1 *3756:A0 0.000147715
8 *3468:A1 *3756:S 0.000208742
9 *3468:A1 *4049:A 1.32511e-05
10 *3468:A1 *442:37 0.000122984
11 *3468:A1 *635:10 7.33494e-06
12 *3468:A1 *722:18 0.000228558
13 *3468:A1 *722:76 0.000290993
14 *3468:A0 *3468:A1 0.000113664
15 *3798:D *3468:A1 0.000175519
*RES
1 *3467:X *3468:A1 40.2786 
*END

*D_NET *391 0.000353572
*CONN
*I *3473:A2 I *D sky130_fd_sc_hd__a21bo_2
*I *3468:X O *D sky130_fd_sc_hd__mux2_2
*CAP
1 *3473:A2 9.15971e-05
2 *3468:X 9.15971e-05
3 *3473:A2 *3601:S 6.74815e-05
4 *3473:A2 *688:51 5.52302e-05
5 *26:20 *3473:A2 4.76662e-05
*RES
1 *3468:X *3473:A2 29.7786 
*END

*D_NET *392 0.00204611
*CONN
*I *3472:A2 I *D sky130_fd_sc_hd__o21ai_2
*I *3469:X O *D sky130_fd_sc_hd__mux4_2
*CAP
1 *3472:A2 0.000527643
2 *3469:X 0.000527643
3 *3472:A2 *3470:S0 0.000190564
4 *3472:A2 *3470:S1 9.69728e-05
5 *3472:A2 *3472:A1 0
6 *3472:A2 *3472:B1 0.000287718
7 *3472:A2 *413:20 7.32272e-05
8 *3472:A2 *507:30 4.83019e-06
9 *3472:A2 *570:10 4.56494e-05
10 *3472:A2 *674:8 0
11 *3472:A2 *691:12 8.16036e-05
12 *3472:A2 *727:28 4.59668e-05
13 *3472:A2 *826:8 7.89362e-05
14 *26:22 *3472:A2 8.53515e-05
*RES
1 *3469:X *3472:A2 40.85 
*END

*D_NET *393 0.00308049
*CONN
*I *3471:A2 I *D sky130_fd_sc_hd__o21a_2
*I *3470:X O *D sky130_fd_sc_hd__mux4_2
*CAP
1 *3471:A2 0.000682515
2 *3470:X 0.000682515
3 *3471:A2 *3471:A1 2.01345e-05
4 *3471:A2 *3571:A 5.52238e-05
5 *3471:A2 *470:25 0.000171368
6 *3471:A2 *562:204 0.000778712
7 *3471:A2 *721:10 0.000241983
8 *3471:A2 *721:12 0.000242227
9 *3846:D *3471:A2 0.000100006
10 *202:65 *3471:A2 7.7674e-05
11 *202:78 *3471:A2 1.25477e-05
12 *352:34 *3471:A2 1.55885e-05
*RES
1 *3470:X *3471:A2 47.9214 
*END

*D_NET *394 0.000965083
*CONN
*I *3472:B1 I *D sky130_fd_sc_hd__o21ai_2
*I *3471:X O *D sky130_fd_sc_hd__o21a_2
*CAP
1 *3472:B1 0.000181044
2 *3471:X 0.000181044
3 *3472:B1 *727:28 0.000305282
4 *3472:A2 *3472:B1 0.000287718
5 *352:44 *3472:B1 9.99644e-06
*RES
1 *3471:X *3472:B1 32.3143 
*END

*D_NET *395 0.0056169
*CONN
*I *3473:B1_N I *D sky130_fd_sc_hd__a21bo_2
*I *3472:Y O *D sky130_fd_sc_hd__o21ai_2
*CAP
1 *3473:B1_N 0
2 *3472:Y 0
3 *395:16 0.00149333
4 *395:6 0.00149333
5 *395:16 *3442:A2 0
6 *395:16 *3473:A1 5.52238e-05
7 *395:16 *3571:A 0
8 *395:16 *3601:S 0.000359859
9 *395:16 *3751:A 5.03296e-05
10 *395:16 *413:54 0
11 *395:16 *413:75 0.00032794
12 *395:16 *461:168 0.00040262
13 *395:16 *751:10 0
14 *3883:D *395:16 0
15 *26:20 *395:16 0.00038356
16 *26:22 *395:16 0.0010507
*RES
1 *3472:Y *395:6 13.8 
2 *395:6 *395:16 44.7411 
3 *395:16 *3473:B1_N 9.3 
*END

*D_NET *396 0.00102592
*CONN
*I *3475:B I *D sky130_fd_sc_hd__or2_2
*I *3474:X O *D sky130_fd_sc_hd__mux4_2
*CAP
1 *3475:B 0.000313076
2 *3474:X 0.000313076
3 *3475:B *544:61 0.000105604
4 *347:10 *3475:B 0.000294159
*RES
1 *3474:X *3475:B 34.3679 
*END

*D_NET *397 0.00191972
*CONN
*I *3481:A1 I *D sky130_fd_sc_hd__a22o_2
*I *3475:X O *D sky130_fd_sc_hd__or2_2
*CAP
1 *3481:A1 0.000250892
2 *3475:X 0.000250892
3 *3481:A1 *3475:A 0.000713482
4 *3481:A1 *3807:CLK 0.000149439
5 *3481:A1 *610:12 0.000148189
6 *3481:A1 *610:23 0.000406829
*RES
1 *3475:X *3481:A1 37.0643 
*END

*D_NET *398 0.00139803
*CONN
*I *3477:A2 I *D sky130_fd_sc_hd__o21a_2
*I *3476:X O *D sky130_fd_sc_hd__mux4_2
*CAP
1 *3477:A2 0.00042873
2 *3476:X 0.00042873
3 *3477:A2 *3544:A0 5.66971e-05
4 *3477:A2 *3551:A 0
5 *3477:A2 *3568:A0 0.000309905
6 *3477:A2 *3568:A1 1.74766e-05
7 *3477:A2 *544:116 0
8 *3477:A2 *666:24 4.33002e-05
9 *3477:A2 *729:86 3.02856e-05
10 *3477:A2 *771:10 2.79092e-05
11 *388:22 *3477:A2 5.49995e-05
*RES
1 *3476:X *3477:A2 36.7607 
*END

*D_NET *399 0.0028154
*CONN
*I *3481:A2 I *D sky130_fd_sc_hd__a22o_2
*I *3477:X O *D sky130_fd_sc_hd__o21a_2
*CAP
1 *3481:A2 0.000685135
2 *3477:X 0.000685135
3 *3481:A2 *3475:A 0.000171113
4 *3481:A2 *3544:A1 5.49544e-05
5 *3481:A2 *3992:A 3.91385e-05
6 *3481:A2 *610:12 3.79521e-05
7 *3481:A2 *652:20 0.000554332
8 *3481:A2 *784:10 0.000141729
9 *3804:D *3481:A2 0.000193135
10 *388:22 *3481:A2 0.000252775
*RES
1 *3477:X *3481:A2 44.6893 
*END

*D_NET *400 0.00278581
*CONN
*I *3480:A0 I *D sky130_fd_sc_hd__mux2_2
*I *3478:X O *D sky130_fd_sc_hd__mux4_2
*CAP
1 *3480:A0 0.000768211
2 *3478:X 0.000768211
3 *3480:A0 *3478:S0 0.00018172
4 *3480:A0 *3672:A0 3.006e-05
5 *3480:A0 *3672:S 0
6 *3480:A0 *3673:A 7.83587e-05
7 *3480:A0 *567:8 0.000102355
8 *3480:A0 *665:34 0.000435228
9 *3480:A0 *835:10 0.000189267
10 *350:57 *3480:A0 0.000232399
*RES
1 *3478:X *3480:A0 43.6536 
*END

*D_NET *401 0.0037163
*CONN
*I *3480:A1 I *D sky130_fd_sc_hd__mux2_2
*I *3479:X O *D sky130_fd_sc_hd__mux4_2
*CAP
1 *3480:A1 0.00109413
2 *3479:X 0.00109413
3 *3480:A1 *3479:S0 0
4 *3480:A1 *3484:A1 5.33005e-05
5 *3480:A1 *3484:S 0.000355009
6 *3480:A1 *3499:A 0.000223924
7 *3480:A1 *3623:S 0.000177741
8 *3480:A1 *3707:A 0
9 *3480:A1 *631:28 0.000212705
10 *3480:A1 *665:34 1.5424e-05
11 *3480:A1 *684:31 0.000438299
12 *3480:A1 *719:68 5.16396e-05
*RES
1 *3479:X *3480:A1 47.4036 
*END

*D_NET *402 0.0041732
*CONN
*I *3481:B1 I *D sky130_fd_sc_hd__a22o_2
*I *3480:X O *D sky130_fd_sc_hd__mux2_2
*CAP
1 *3481:B1 0
2 *3480:X 0.000883889
3 *402:14 0.000883889
4 *402:14 *3598:A 0.000148196
5 *402:14 *3988:A 0.000211589
6 *402:14 *3991:A 8.63561e-05
7 *402:14 *3992:A 2.59355e-05
8 *402:14 *562:75 0
9 *402:14 *610:12 5.58941e-05
10 *402:14 *665:34 2.89016e-05
11 *402:14 *681:58 0
12 *3422:A1 *402:14 0.000738002
13 *3422:S *402:14 0.000247079
14 *3424:S *402:14 0.00012553
15 *3440:A0 *402:14 0
16 *3440:A1 *402:14 0.000171087
17 *3481:B2 *402:14 0.000194113
18 *3864:D *402:14 0.000101777
19 *347:10 *402:14 0
20 *352:73 *402:14 0.000270958
*RES
1 *3480:X *402:14 44.3893 
2 *402:14 *3481:B1 9.3 
*END

*D_NET *403 0.00505443
*CONN
*I *3534:C I *D sky130_fd_sc_hd__and3_2
*I *3725:C I *D sky130_fd_sc_hd__and3b_2
*I *3656:B I *D sky130_fd_sc_hd__and3b_2
*I *3483:C_N I *D sky130_fd_sc_hd__nor3b_4
*I *3482:X O *D sky130_fd_sc_hd__and4bb_2
*CAP
1 *3534:C 2.87275e-05
2 *3725:C 0.000113623
3 *3656:B 0.00025091
4 *3483:C_N 2.62838e-05
5 *3482:X 9.30607e-05
6 *403:36 0.000777258
7 *403:17 0.000885818
8 *403:8 0.000119344
9 *3483:C_N *869:20 5.33005e-05
10 *3656:B *3656:C 6.64778e-05
11 *3656:B *3657:A 0.000456457
12 *3656:B *707:33 4.3026e-05
13 *3725:C *3534:A 4.82947e-05
14 *3725:C *3535:A 5.38897e-05
15 *3725:C *3725:A_N 0.00016132
16 *403:8 *869:14 9.90431e-05
17 *403:8 *869:20 2.42554e-05
18 *403:36 *3535:A 3.67252e-05
19 *403:36 *3657:A 0.000375282
20 *403:36 *3725:A_N 0
21 *403:36 *703:61 0
22 *3708:B *3656:B 5.52302e-05
23 *373:14 *3656:B 0.000173804
24 *373:14 *403:36 0.0011123
*RES
1 *3482:X *403:8 11.0857 
2 *403:8 *3483:C_N 9.83571 
3 *403:8 *403:17 4.5 
4 *403:17 *3656:B 20.7107 
5 *403:17 *403:36 20.6607 
6 *403:36 *3725:C 12.4161 
7 *403:36 *3534:C 10.0321 
*END

*D_NET *404 0.0151825
*CONN
*I *3498:S I *D sky130_fd_sc_hd__mux2_2
*I *3484:S I *D sky130_fd_sc_hd__mux2_2
*I *3486:S I *D sky130_fd_sc_hd__mux2_2
*I *4086:A I *D sky130_fd_sc_hd__clkbuf_2
*I *3496:S I *D sky130_fd_sc_hd__mux2_2
*I *3483:Y O *D sky130_fd_sc_hd__nor3b_4
*CAP
1 *3498:S 0.000758011
2 *3484:S 0.0020912
3 *3486:S 3.16381e-05
4 *4086:A 0.000174212
5 *3496:S 0
6 *3483:Y 3.55711e-05
7 *404:40 0.0031254
8 *404:14 0.000656533
9 *404:8 0.00227846
10 *3484:S *623:28 0.000482588
11 *3484:S *665:34 0.00123468
12 *3486:S *507:46 7.83587e-05
13 *3486:S *623:22 3.17148e-05
14 *3486:S *633:25 2.39779e-05
15 *3498:S *3484:A0 1.02504e-05
16 *3498:S *3498:A0 1.32293e-05
17 *3498:S *3499:A 8.0577e-05
18 *3498:S *3706:A0 7.23369e-05
19 *3498:S *3706:S 0.000199782
20 *3498:S *3707:A 0
21 *3498:S *583:10 0.000484489
22 *4086:A *3497:A 0
23 *4086:A *705:10 3.69047e-06
24 *404:8 *3656:A_N 0.000103267
25 *404:8 *3766:CLK 4.8936e-05
26 *404:14 *3496:A1 0.000213448
27 *404:14 *3605:A 8.2395e-05
28 *404:14 *3622:C 0.000245342
29 *404:14 *3656:A_N 5.83233e-05
30 *404:14 *3766:CLK 0.00018216
31 *404:14 *663:16 0
32 *404:14 *705:10 0
33 *404:14 *705:32 0
34 *404:14 *705:60 0
35 *404:40 *3608:A0 0.000136951
36 *404:40 *4081:A 2.79421e-05
37 *404:40 *507:46 0.000166269
38 *404:40 *623:22 7.83659e-05
39 *404:40 *633:25 5.08481e-05
40 *404:40 *665:12 0.000332722
41 *404:40 *669:14 0.000123577
42 *404:40 *669:24 1.39841e-05
43 *404:40 *707:33 3.04335e-05
44 *3440:A1 *3498:S 0.00096474
45 *3480:A1 *3484:S 0.000355009
46 *3833:D *3484:S 0.000101117
47 *373:14 *4086:A 0
*RES
1 *3483:Y *404:8 15.1393 
2 *404:8 *404:14 15.5179 
3 *404:14 *3496:S 9.3 
4 *404:14 *4086:A 21.3893 
5 *404:8 *404:40 38.0714 
6 *404:40 *3486:S 14.8357 
7 *404:40 *3484:S 38.7107 
8 *3484:S *3498:S 48.225 
*END

*D_NET *405 0.00242157
*CONN
*I *3485:A I *D sky130_fd_sc_hd__buf_1
*I *3484:X O *D sky130_fd_sc_hd__mux2_2
*CAP
1 *3485:A 0.000831217
2 *3484:X 0.000831217
3 *3485:A *3420:S0 9.58508e-05
4 *3485:A *3484:A0 0
5 *3485:A *3484:A1 0
6 *3485:A *3623:S 5.52302e-05
7 *3485:A *3692:A1 0.000128761
8 *3485:A *3856:CLK 9.77423e-05
9 *3485:A *3864:CLK 0.000126416
10 *3485:A *625:50 0
11 *3485:A *684:27 0
12 *3485:A *684:31 0
13 *3440:A1 *3485:A 0
14 *3856:D *3485:A 0.000255141
*RES
1 *3484:X *3485:A 44.5286 
*END

*D_NET *406 0.000782085
*CONN
*I *3487:A I *D sky130_fd_sc_hd__buf_1
*I *3486:X O *D sky130_fd_sc_hd__mux2_2
*CAP
1 *3487:A 0.000335922
2 *3486:X 0.000335922
3 *3487:A *3430:A0 2.78822e-05
4 *3487:A *3976:A 0
5 *3487:A *488:27 4.53889e-05
6 *3487:A *593:24 0
7 *3487:A *633:25 0
8 *3487:A *797:10 0
9 *3431:A2 *3487:A 3.69697e-05
*RES
1 *3486:X *3487:A 33.0286 
*END

*D_NET *407 0.0015717
*CONN
*I *3489:A I *D sky130_fd_sc_hd__buf_1
*I *3488:X O *D sky130_fd_sc_hd__mux2_2
*CAP
1 *3489:A 0.000319624
2 *3488:X 0.000319624
3 *3489:A *3438:A0 0.000268634
4 *3489:A *3488:A0 0.000267625
5 *3489:A *3488:A1 5.70551e-05
6 *3489:A *798:8 0.000339142
*RES
1 *3488:X *3489:A 36.1714 
*END

*D_NET *408 0.00235592
*CONN
*I *3491:A I *D sky130_fd_sc_hd__buf_1
*I *3490:X O *D sky130_fd_sc_hd__mux2_2
*CAP
1 *3491:A 0.000493911
2 *3490:X 0.000493911
3 *3491:A *3763:CLK 0.000107004
4 *3491:A *619:21 5.85135e-05
5 *3491:A *632:14 0.000724503
6 *3763:D *3491:A 0
7 *3819:D *3491:A 0.000475254
8 *4060:A *3491:A 2.8266e-06
*RES
1 *3490:X *3491:A 41.5643 
*END

*D_NET *409 0.000623045
*CONN
*I *3493:A I *D sky130_fd_sc_hd__buf_1
*I *3492:X O *D sky130_fd_sc_hd__mux2_2
*CAP
1 *3493:A 6.8027e-05
2 *3492:X 6.8027e-05
3 *3493:A *3492:A1 0.000276211
4 *3493:A *633:21 0.00021078
*RES
1 *3492:X *3493:A 21.9214 
*END

*D_NET *410 0.000272895
*CONN
*I *3495:A I *D sky130_fd_sc_hd__buf_1
*I *3494:X O *D sky130_fd_sc_hd__mux2_2
*CAP
1 *3495:A 8.50968e-05
2 *3494:X 8.50968e-05
3 *3495:A *634:10 0.000102702
4 *3495:A *672:32 0
*RES
1 *3494:X *3495:A 29.5464 
*END

*D_NET *411 0.000535741
*CONN
*I *3497:A I *D sky130_fd_sc_hd__buf_1
*I *3496:X O *D sky130_fd_sc_hd__mux2_2
*CAP
1 *3497:A 0.000174
2 *3496:X 0.000174
3 *3497:A *663:16 0
4 *3497:A *672:14 0.000187741
5 *4086:A *3497:A 0
*RES
1 *3496:X *3497:A 31.3143 
*END

*D_NET *412 0.00150495
*CONN
*I *3499:A I *D sky130_fd_sc_hd__buf_1
*I *3498:X O *D sky130_fd_sc_hd__mux2_2
*CAP
1 *3499:A 0.000549721
2 *3498:X 0.000549721
3 *3499:A *3479:S0 0
4 *3499:A *3498:A0 2.59355e-05
5 *3499:A *719:68 7.50697e-05
6 *3480:A1 *3499:A 0.000223924
7 *3498:S *3499:A 8.0577e-05
*RES
1 *3498:X *3499:A 36.3143 
*END

*D_NET *413 0.0283529
*CONN
*I *3513:S I *D sky130_fd_sc_hd__mux2_2
*I *3503:S I *D sky130_fd_sc_hd__mux2_2
*I *3505:S I *D sky130_fd_sc_hd__mux2_2
*I *3515:S I *D sky130_fd_sc_hd__mux2_2
*I *3509:S I *D sky130_fd_sc_hd__mux2_2
*I *3501:S I *D sky130_fd_sc_hd__mux2_2
*I *3507:S I *D sky130_fd_sc_hd__mux2_2
*I *3511:S I *D sky130_fd_sc_hd__mux2_2
*I *3500:X O *D sky130_fd_sc_hd__and4bb_2
*CAP
1 *3513:S 0
2 *3503:S 0
3 *3505:S 8.35723e-05
4 *3515:S 3.05544e-05
5 *3509:S 0.000454162
6 *3501:S 0.000203155
7 *3507:S 1.91404e-05
8 *3511:S 0.000295803
9 *3500:X 0.00205912
10 *413:112 0.000897174
11 *413:108 0.00105371
12 *413:91 0.00295751
13 *413:85 0.00308047
14 *413:75 0.00222885
15 *413:54 0.00183647
16 *413:20 0.00188266
17 *3501:S *3518:S 4.79842e-05
18 *3505:S *3434:A2 0.000225982
19 *3507:S *3507:A0 6.05161e-06
20 *3507:S *3507:A1 5.33005e-05
21 *3507:S *620:22 1.24368e-05
22 *3509:S *3516:A 0
23 *3509:S *3532:A1 0.000125724
24 *3509:S *3887:CLK 0.00020176
25 *3509:S *636:17 0.000768431
26 *3509:S *720:16 0
27 *3511:S *4013:A 9.01334e-05
28 *3511:S *562:37 0.000129561
29 *3515:S *3515:A0 0.000141729
30 *3515:S *720:23 7.35217e-05
31 *413:20 *3460:S 0
32 *413:20 *3472:A1 7.6644e-05
33 *413:20 *3517:D 5.80706e-06
34 *413:20 *3571:A 0
35 *413:20 *3754:A1 0.000185118
36 *413:20 *562:37 2.47833e-05
37 *413:20 *681:44 4.10843e-05
38 *413:20 *727:28 0.000187872
39 *413:54 *3442:A2 0.000321731
40 *413:54 *3442:S0 0.000337049
41 *413:54 *3517:B 0.000102545
42 *413:54 *3517:D 0.00012401
43 *413:54 *3734:A 5.24684e-06
44 *413:54 *422:10 2.41498e-05
45 *413:54 *535:26 0.000195443
46 *413:54 *620:22 4.08637e-05
47 *413:54 *620:33 3.17148e-05
48 *413:54 *687:78 4.79864e-05
49 *413:75 *3466:S0 0.00015953
50 *413:75 *3473:A1 6.42095e-05
51 *413:75 *3507:A0 2.89016e-05
52 *413:75 *3601:S 0.000694339
53 *413:75 *461:168 0.000488836
54 *413:75 *620:33 0.00023809
55 *413:75 *620:42 0.000303439
56 *413:75 *620:70 0.000100618
57 *413:75 *751:10 9.96264e-05
58 *413:85 *3428:S 0.000269378
59 *413:85 *3503:A0 0.000135028
60 *413:85 *3513:A1 9.71197e-05
61 *413:85 *3514:A 9.80173e-05
62 *413:85 *4026:A 8.43535e-06
63 *413:85 *580:8 0.000260574
64 *413:85 *624:42 1.98839e-05
65 *413:91 *3503:A0 5.52238e-05
66 *413:91 *3540:A0 5.49489e-05
67 *413:91 *3540:A1 0.000143703
68 *413:91 *3540:S 0.000704608
69 *413:91 *3541:A 0.000138706
70 *413:91 *3967:A 0.000141729
71 *413:91 *624:42 2.89016e-05
72 *413:91 *624:48 9.76689e-05
73 *413:108 *3518:S 0
74 *413:108 *3522:A1 7.89362e-05
75 *413:108 *3744:S 0.000440505
76 *413:108 *3872:CLK 7.87601e-05
77 *413:108 *544:78 0.000114855
78 *413:108 *631:28 1.23966e-05
79 *413:112 *3532:A1 0.000243627
80 *413:112 *544:78 0
81 *413:112 *636:17 6.82922e-05
82 *413:112 *668:51 0
83 *413:112 *720:10 0
84 *413:112 *720:16 0
85 *3464:A1 *413:20 0.000440046
86 *3472:A2 *413:20 7.32272e-05
87 *3517:C *413:54 0.000153627
88 *3774:D *413:85 0.000183726
89 *3875:D *413:54 0.000308594
90 *202:78 *413:20 0.000245349
91 *352:44 *413:20 0.000206262
92 *352:50 *413:20 3.31436e-05
93 *356:14 *413:85 0.000201067
94 *395:16 *413:54 0
95 *395:16 *413:75 0.00032794
*RES
1 *3500:X *413:20 49.8179 
2 *413:20 *3511:S 23.5679 
3 *3500:X *413:54 31.9071 
4 *413:54 *3507:S 9.83571 
5 *413:54 *413:75 40.8929 
6 *413:75 *413:85 17.5536 
7 *413:85 *413:91 33.3214 
8 *413:91 *3501:S 21.3 
9 *413:91 *413:108 17.0714 
10 *413:108 *413:112 8.55357 
11 *413:112 *3509:S 26.1214 
12 *413:112 *3515:S 15.1571 
13 *413:108 *3505:S 15.9786 
14 *413:85 *3503:S 9.3 
15 *413:75 *3513:S 9.3 
*END

*D_NET *414 0.000209386
*CONN
*I *3502:A I *D sky130_fd_sc_hd__buf_2
*I *3501:X O *D sky130_fd_sc_hd__mux2_2
*CAP
1 *3502:A 0.000104693
2 *3501:X 0.000104693
*RES
1 *3501:X *3502:A 20.2786 
*END

*D_NET *415 0.00118014
*CONN
*I *3504:A I *D sky130_fd_sc_hd__buf_2
*I *3503:X O *D sky130_fd_sc_hd__mux2_2
*CAP
1 *3504:A 0.000219917
2 *3503:X 0.000219917
3 *3504:A *3435:S0 0.000139338
4 *3504:A *3521:A 4.37496e-05
5 *3504:A *3540:S 0.000184109
6 *3504:A *3793:CLK 3.69865e-05
7 *3504:A *624:48 0.000336119
*RES
1 *3503:X *3504:A 34.5464 
*END

*D_NET *416 0.00116545
*CONN
*I *3506:A I *D sky130_fd_sc_hd__buf_2
*I *3505:X O *D sky130_fd_sc_hd__mux2_2
*CAP
1 *3506:A 0.000418658
2 *3505:X 0.000418658
3 *3506:A *3770:CLK 5.50052e-05
4 *3506:A *750:12 0.00010337
5 *3770:D *3506:A 0.000169755
*RES
1 *3505:X *3506:A 35.5107 
*END

*D_NET *417 0.000871587
*CONN
*I *3508:A I *D sky130_fd_sc_hd__buf_2
*I *3507:X O *D sky130_fd_sc_hd__mux2_2
*CAP
1 *3508:A 0.000360586
2 *3507:X 0.000360586
3 *3508:A *662:24 0.00014285
4 *3508:A *666:16 0
5 *3771:D *3508:A 7.56452e-06
6 *26:22 *3508:A 0
*RES
1 *3507:X *3508:A 32.292 
*END

*D_NET *418 0.00200789
*CONN
*I *3510:A I *D sky130_fd_sc_hd__buf_2
*I *3509:X O *D sky130_fd_sc_hd__mux2_2
*CAP
1 *3510:A 0.000484896
2 *3509:X 0.000484896
3 *3510:A *4107:A 0
4 *3510:A *609:60 0
5 *3510:A *636:17 0
6 *3772:D *3510:A 0.000668275
7 *3884:D *3510:A 0.000369818
*RES
1 *3509:X *3510:A 39.7964 
*END

*D_NET *419 0.00151241
*CONN
*I *3512:A I *D sky130_fd_sc_hd__buf_2
*I *3511:X O *D sky130_fd_sc_hd__mux2_2
*CAP
1 *3512:A 0.000275772
2 *3511:X 0.000275772
3 *3512:A *461:53 0.00027717
4 *3512:A *576:12 5.71472e-05
5 *3512:A *633:45 0.00048461
6 *3512:A *668:20 0.000141935
*RES
1 *3511:X *3512:A 36.2964 
*END

*D_NET *420 0.000255578
*CONN
*I *3514:A I *D sky130_fd_sc_hd__buf_2
*I *3513:X O *D sky130_fd_sc_hd__mux2_2
*CAP
1 *3514:A 7.87801e-05
2 *3513:X 7.87801e-05
3 *413:85 *3514:A 9.80173e-05
*RES
1 *3513:X *3514:A 20.2786 
*END

*D_NET *421 0.00125973
*CONN
*I *3516:A I *D sky130_fd_sc_hd__buf_2
*I *3515:X O *D sky130_fd_sc_hd__mux2_2
*CAP
1 *3516:A 0.000520538
2 *3515:X 0.000520538
3 *3516:A *3533:A 0
4 *3516:A *3783:CLK 0
5 *3516:A *3887:CLK 0
6 *3516:A *4098:A 3.5095e-05
7 *3516:A *4104:A 0
8 *3516:A *720:16 5.54404e-05
9 *3509:S *3516:A 0
10 *3775:D *3516:A 0.000128119
*RES
1 *3515:X *3516:A 37.2071 
*END

*D_NET *422 0.011348
*CONN
*I *3524:S I *D sky130_fd_sc_hd__mux2_2
*I *3530:S I *D sky130_fd_sc_hd__mux2_2
*I *3520:S I *D sky130_fd_sc_hd__mux2_2
*I *4084:A I *D sky130_fd_sc_hd__buf_2
*I *3517:Y O *D sky130_fd_sc_hd__nand4b_1
*CAP
1 *3524:S 0
2 *3530:S 0.00052736
3 *3520:S 0.000846492
4 *4084:A 3.57761e-05
5 *3517:Y 0.000371007
6 *422:39 0.00224374
7 *422:29 0.00130686
8 *422:10 0.000843764
9 *3520:S *3476:S0 3.09123e-05
10 *3520:S *3729:A1 0.000898072
11 *3520:S *3729:S 0.000305614
12 *3520:S *588:22 3.64514e-05
13 *3520:S *588:42 5.107e-05
14 *3520:S *699:52 0.000112265
15 *3530:S *3466:A2 0.000177227
16 *3530:S *4100:A 0
17 *3530:S *452:117 0
18 *3530:S *587:10 0
19 *3530:S *587:12 0
20 *3530:S *754:10 0.000148189
21 *4084:A *3734:A 4.59064e-05
22 *4084:A *535:26 5.49995e-05
23 *422:10 *3517:A_N 5.52238e-05
24 *422:10 *3517:D 3.17163e-05
25 *422:10 *3571:A 6.05161e-06
26 *422:10 *3875:CLK 0.000191337
27 *422:10 *535:18 0
28 *422:10 *535:26 1.6806e-05
29 *422:10 *687:78 0.000103871
30 *422:29 *3442:A3 0.000140697
31 *422:29 *3524:A1 0.0001488
32 *422:29 *3875:CLK 0.000201484
33 *422:29 *535:26 0.00114263
34 *422:29 *620:22 0.000125724
35 *422:29 *666:10 1.98839e-05
36 *422:39 *3524:A1 5.52238e-05
37 *422:39 *3578:A0 4.79773e-05
38 *422:39 *452:111 0.000116103
39 *422:39 *461:168 0.000575086
40 *422:39 *666:10 0.000149565
41 *422:39 *777:12 4.29179e-05
42 *3517:C *422:10 4.58194e-05
43 *3803:D *422:39 4.88537e-05
44 *3811:D *422:39 0
45 *3875:D *422:10 2.24195e-05
46 *26:20 *3530:S 0
47 *26:22 *422:39 0
48 *413:54 *422:10 2.41498e-05
*RES
1 *3517:Y *422:10 19.8536 
2 *422:10 *4084:A 14.7464 
3 *422:10 *422:29 20.3929 
4 *422:29 *422:39 22.625 
5 *422:39 *3520:S 41.6036 
6 *422:39 *3530:S 23.6393 
7 *422:29 *3524:S 9.3 
*END

*D_NET *423 0.00033444
*CONN
*I *3519:A I *D sky130_fd_sc_hd__buf_1
*I *3518:X O *D sky130_fd_sc_hd__mux2_2
*CAP
1 *3519:A 0.000151787
2 *3518:X 0.000151787
3 *3776:D *3519:A 3.08664e-05
*RES
1 *3518:X *3519:A 21.1 
*END

*D_NET *424 0.000841436
*CONN
*I *3521:A I *D sky130_fd_sc_hd__buf_1
*I *3520:X O *D sky130_fd_sc_hd__mux2_2
*CAP
1 *3521:A 0.000205349
2 *3520:X 0.000205349
3 *3521:A *3540:S 0.000122527
4 *3521:A *3786:CLK 0.000141935
5 *3504:A *3521:A 4.37496e-05
6 *3769:D *3521:A 0.000122527
*RES
1 *3520:X *3521:A 31.8768 
*END

*D_NET *425 0.000189064
*CONN
*I *3523:A I *D sky130_fd_sc_hd__buf_1
*I *3522:X O *D sky130_fd_sc_hd__mux2_2
*CAP
1 *3523:A 9.45318e-05
2 *3522:X 9.45318e-05
*RES
1 *3522:X *3523:A 20.2786 
*END

*D_NET *426 0.00107594
*CONN
*I *3525:A I *D sky130_fd_sc_hd__buf_1
*I *3524:X O *D sky130_fd_sc_hd__mux2_2
*CAP
1 *3525:A 0.000354807
2 *3524:X 0.000354807
3 *3525:A *666:10 0.000356035
4 *3525:A *666:16 0
5 *26:22 *3525:A 1.02897e-05
*RES
1 *3524:X *3525:A 32.9571 
*END

*D_NET *427 0.00218416
*CONN
*I *3527:A I *D sky130_fd_sc_hd__buf_1
*I *3526:X O *D sky130_fd_sc_hd__mux2_2
*CAP
1 *3527:A 0.000810508
2 *3526:X 0.000810508
3 *3527:A *3780:CLK 0
4 *3527:A *4107:A 0.000369111
5 *3527:A *4108:A 0
6 *3527:A *609:25 9.58181e-05
7 *3772:D *3527:A 5.65955e-05
8 *3780:D *3527:A 4.16207e-05
*RES
1 *3526:X *3527:A 42.6714 
*END

*D_NET *428 0.000278376
*CONN
*I *3529:A I *D sky130_fd_sc_hd__buf_1
*I *3528:X O *D sky130_fd_sc_hd__mux2_2
*CAP
1 *3529:A 0.000117108
2 *3528:X 0.000117108
3 *3529:A *668:12 4.41588e-05
*RES
1 *3528:X *3529:A 20.6893 
*END

*D_NET *429 0.00021293
*CONN
*I *3531:A I *D sky130_fd_sc_hd__buf_1
*I *3530:X O *D sky130_fd_sc_hd__mux2_2
*CAP
1 *3531:A 8.53074e-05
2 *3530:X 8.53074e-05
3 *3531:A *688:51 3.4879e-05
4 *3782:D *3531:A 7.43578e-06
*RES
1 *3530:X *3531:A 20.2786 
*END

*D_NET *430 0.00115755
*CONN
*I *3533:A I *D sky130_fd_sc_hd__buf_1
*I *3532:X O *D sky130_fd_sc_hd__mux2_2
*CAP
1 *3533:A 0.000451148
2 *3532:X 0.000451148
3 *3533:A *4104:A 0.000150625
4 *3533:A *720:16 0
5 *3516:A *3533:A 0
6 *3783:D *3533:A 1.24368e-05
7 *4064:A *3533:A 9.21958e-05
*RES
1 *3532:X *3533:A 34.7964 
*END

*D_NET *431 0.00108728
*CONN
*I *3535:A I *D sky130_fd_sc_hd__clkbuf_1
*I *3534:X O *D sky130_fd_sc_hd__and3_2
*CAP
1 *3535:A 0.000349704
2 *3534:X 0.000349704
3 *3535:A *3534:A 9.71197e-05
4 *3535:A *3725:A_N 1.70824e-05
5 *3535:A *3726:A 0
6 *3535:A *432:20 5.58875e-06
7 *3535:A *461:18 7.70035e-05
8 *3535:A *562:347 0
9 *3725:C *3535:A 5.38897e-05
10 *352:34 *3535:A 0.000100464
11 *403:36 *3535:A 3.67252e-05
*RES
1 *3534:X *3535:A 33.0643 
*END

*D_NET *432 0.0176599
*CONN
*I *4083:A I *D sky130_fd_sc_hd__clkbuf_2
*I *3546:S I *D sky130_fd_sc_hd__mux2_2
*I *3540:S I *D sky130_fd_sc_hd__mux2_2
*I *3550:S I *D sky130_fd_sc_hd__mux2_2
*I *3544:S I *D sky130_fd_sc_hd__mux2_2
*I *3535:X O *D sky130_fd_sc_hd__clkbuf_1
*CAP
1 *4083:A 0.000141727
2 *3546:S 0
3 *3540:S 0.00113731
4 *3550:S 5.75187e-05
5 *3544:S 0.000289053
6 *3535:X 0.00229044
7 *432:47 0.00125164
8 *432:34 0.00123649
9 *432:30 0.00245531
10 *432:20 0.00399685
11 *3540:S *3746:A1 7.49481e-05
12 *3540:S *3813:CLK 0
13 *3540:S *4095:A 0
14 *3540:S *544:116 0.00060908
15 *3540:S *562:162 8.22793e-06
16 *3540:S *624:48 4.40513e-06
17 *3540:S *624:50 4.25251e-05
18 *3544:S *3477:A1 9.84673e-05
19 *3544:S *3544:A1 5.66971e-05
20 *3544:S *3545:A 8.1932e-05
21 *3544:S *3550:A1 5.66157e-05
22 *3544:S *544:116 0.000598871
23 *3544:S *611:47 5.01685e-05
24 *3544:S *611:49 0.000185534
25 *3550:S *3476:S0 2.72967e-05
26 *4083:A *3985:A 0
27 *4083:A *442:14 0
28 *432:20 *461:18 3.30338e-05
29 *432:20 *562:329 1.76039e-05
30 *432:20 *562:347 1.0562e-05
31 *432:20 *683:59 0
32 *432:30 *3459:S1 9.73239e-06
33 *432:30 *3546:A0 2.14658e-05
34 *432:30 *3565:A 5.52302e-05
35 *432:30 *3750:S 0
36 *432:34 *3547:A 8.91703e-05
37 *432:34 *3550:A1 2.59355e-05
38 *432:34 *3565:A 0.000297514
39 *432:34 *461:57 0.000602236
40 *432:47 *3550:A1 0.000150625
41 *432:47 *4095:A 0
42 *432:47 *544:116 0.000165269
43 *3448:A0 *432:20 0.000154719
44 *3460:A1 *432:30 1.94879e-05
45 *3504:A *3540:S 0.000184109
46 *3521:A *3540:S 0.000122527
47 *3535:A *432:20 5.58875e-06
48 *3769:D *3540:S 9.04776e-05
49 *3777:D *3540:S 9.84e-05
50 *352:34 *432:20 3.39401e-05
51 *388:22 *3544:S 1.65169e-05
52 *413:91 *3540:S 0.000704608
*RES
1 *3535:X *432:20 28.1667 
2 *432:20 *432:30 12.4232 
3 *432:30 *432:34 20.6429 
4 *432:34 *3544:S 23.2821 
5 *432:34 *432:47 2.25 
6 *432:47 *3550:S 14.7464 
7 *432:47 *3540:S 40.7107 
8 *432:30 *3546:S 9.3 
9 *432:20 *4083:A 19.6118 
*END

*D_NET *433 0.000991613
*CONN
*I *3537:A I *D sky130_fd_sc_hd__buf_1
*I *3536:X O *D sky130_fd_sc_hd__mux2_2
*CAP
1 *3537:A 0.000168013
2 *3536:X 0.000168013
3 *3537:A *3417:A0 4.34267e-05
4 *3537:A *3417:A1 0.000185118
5 *3537:A *3554:A0 3.17148e-05
6 *3537:A *3555:A 0
7 *3537:A *686:122 0.000202365
8 *3537:A *772:10 9.22948e-05
9 *3784:D *3537:A 0.000100668
*RES
1 *3536:X *3537:A 32.2875 
*END

*D_NET *434 0.00207642
*CONN
*I *3539:A I *D sky130_fd_sc_hd__buf_1
*I *3538:X O *D sky130_fd_sc_hd__mux2_2
*CAP
1 *3539:A 0.000544694
2 *3538:X 0.000544694
3 *3539:A *3426:S0 0.000128154
4 *3539:A *3427:S1 0
5 *3539:A *3538:A0 1.17968e-05
6 *3539:A *3556:A0 0
7 *3539:A *3556:S 0.000232292
8 *3539:A *3972:A 0.000359394
9 *3539:A *4077:A 0
10 *3539:A *694:8 0
11 *3539:A *765:10 0.000126136
12 *3785:D *3539:A 0.000129263
*RES
1 *3538:X *3539:A 41.0464 
*END

*D_NET *435 0.00146897
*CONN
*I *3541:A I *D sky130_fd_sc_hd__buf_1
*I *3540:X O *D sky130_fd_sc_hd__mux2_2
*CAP
1 *3541:A 0.000362259
2 *3540:X 0.000362259
3 *3541:A *3540:A0 0.000456841
4 *3541:A *3554:S 0
5 *3541:A *3558:A0 0.000148901
6 *413:91 *3541:A 0.000138706
*RES
1 *3540:X *3541:A 36.1893 
*END

*D_NET *436 0.00128342
*CONN
*I *3543:A I *D sky130_fd_sc_hd__buf_1
*I *3542:X O *D sky130_fd_sc_hd__mux2_2
*CAP
1 *3543:A 0.000397671
2 *3542:X 0.000397671
3 *3543:A *3443:S0 0.000102353
4 *3543:A *3443:S1 0.000159656
5 *3543:A *602:21 0
6 *3543:A *699:52 0.000226067
*RES
1 *3542:X *3543:A 35.6179 
*END

*D_NET *437 0.00120683
*CONN
*I *3545:A I *D sky130_fd_sc_hd__buf_1
*I *3544:X O *D sky130_fd_sc_hd__mux2_2
*CAP
1 *3545:A 0.000149668
2 *3544:X 0.000149668
3 *3545:A *3788:CLK 0.000221636
4 *3545:A *544:116 0.000338693
5 *3545:A *611:49 0.000211928
6 *3544:S *3545:A 8.1932e-05
7 *388:22 *3545:A 5.33005e-05
*RES
1 *3544:X *3545:A 33.725 
*END

*D_NET *438 0.000216114
*CONN
*I *3547:A I *D sky130_fd_sc_hd__buf_1
*I *3546:X O *D sky130_fd_sc_hd__mux2_2
*CAP
1 *3547:A 1.88867e-05
2 *3546:X 1.88867e-05
3 *3547:A *3565:A 8.91703e-05
4 *432:34 *3547:A 8.91703e-05
*RES
1 *3546:X *3547:A 19.4661 
*END

*D_NET *439 0.00154552
*CONN
*I *3549:A I *D sky130_fd_sc_hd__buf_1
*I *3548:X O *D sky130_fd_sc_hd__mux2_2
*CAP
1 *3549:A 0.000769732
2 *3548:X 0.000769732
3 *3549:A *635:10 6.05161e-06
*RES
1 *3548:X *3549:A 40.7071 
*END

*D_NET *440 0.00172024
*CONN
*I *3551:A I *D sky130_fd_sc_hd__buf_1
*I *3550:X O *D sky130_fd_sc_hd__mux2_2
*CAP
1 *3551:A 0.000468412
2 *3550:X 0.000468412
3 *3551:A *3568:A0 5.52302e-05
4 *3551:A *3569:A 9.83388e-05
5 *3551:A *544:116 0.000147753
6 *3551:A *662:40 0.000151306
7 *3551:A *666:16 0.000227532
8 *3551:A *771:10 0.00010326
9 *3551:A *779:10 0
10 *3477:A2 *3551:A 0
*RES
1 *3550:X *3551:A 38.6536 
*END

*D_NET *441 0.00137453
*CONN
*I *3553:A I *D sky130_fd_sc_hd__clkbuf_1
*I *3552:X O *D sky130_fd_sc_hd__and4b_2
*CAP
1 *3553:A 0.000242541
2 *3552:X 0.000242541
3 *3553:A *683:59 0.000100947
4 *3553:A *703:61 5.49489e-05
5 *3553:A *726:31 0.000310236
6 *173:10 *3553:A 5.92161e-05
7 *373:14 *3553:A 0.000364096
*RES
1 *3552:X *3553:A 35.2786 
*END

*D_NET *442 0.0161481
*CONN
*I *4082:A I *D sky130_fd_sc_hd__buf_2
*I *3566:S I *D sky130_fd_sc_hd__mux2_2
*I *3556:S I *D sky130_fd_sc_hd__mux2_2
*I *3560:S I *D sky130_fd_sc_hd__mux2_2
*I *3553:X O *D sky130_fd_sc_hd__clkbuf_1
*CAP
1 *4082:A 0
2 *3566:S 0.000540464
3 *3556:S 0.00181265
4 *3560:S 7.53345e-05
5 *3553:X 0.00139156
6 *442:37 0.00321789
7 *442:24 0.00137227
8 *442:14 0.00182371
9 *3556:S *3556:A0 0.00027958
10 *3556:S *3557:A 0.000310611
11 *3556:S *3585:A 0.000141734
12 *3556:S *3601:A1 1.62025e-05
13 *3556:S *3601:S 0.00033462
14 *3556:S *3602:A 2.85321e-05
15 *3556:S *765:10 3.36406e-05
16 *3560:S *620:70 9.66977e-05
17 *3566:S *3467:A0 2.12005e-05
18 *3566:S *3467:A1 5.49544e-05
19 *3566:S *778:14 5.15722e-05
20 *442:14 *3985:A 9.60875e-05
21 *442:14 *4003:A 0
22 *442:14 *602:8 0.000142952
23 *442:14 *683:59 0
24 *442:14 *727:10 0.000479862
25 *442:24 *3524:A1 1.19309e-05
26 *442:24 *3542:A1 1.12578e-05
27 *442:24 *3560:A0 0.000191353
28 *442:24 *535:26 0
29 *442:24 *666:10 7.20217e-06
30 *442:24 *775:10 0.000125542
31 *442:37 *3443:S1 0
32 *442:37 *3466:A0 0.000100831
33 *442:37 *3467:S1 0
34 *442:37 *3542:A1 1.46689e-05
35 *442:37 *3561:A 2.02727e-05
36 *442:37 *3739:S 0
37 *442:37 *3756:A0 0.000150625
38 *442:37 *3790:CLK 0.000362109
39 *442:37 *722:16 0.000150613
40 *442:37 *858:10 0.000171368
41 *3217:A *442:14 0.00015234
42 *3221:A *442:14 9.24299e-05
43 *3444:A1 *442:24 0
44 *3448:A0 *442:14 0
45 *3468:A0 *442:37 0.000123295
46 *3468:A1 *442:37 0.000122984
47 *3539:A *3556:S 0.000232292
48 *3787:D *442:24 0.000588546
49 *3787:D *442:37 0.000115453
50 *3790:D *3566:S 1.74816e-05
51 *3798:D *3556:S 2.6913e-05
52 *3798:D *3566:S 5.33005e-05
53 *3798:D *442:37 0.000362517
54 *4083:A *442:14 0
55 *352:14 *442:14 0.000519836
56 *373:14 *442:14 0.000100823
*RES
1 *3553:X *442:14 49.3357 
2 *442:14 *442:24 16.3571 
3 *442:24 *3560:S 15.1571 
4 *442:24 *442:37 25.875 
5 *442:37 *3556:S 41.9964 
6 *442:37 *3566:S 26.8714 
7 *442:14 *4082:A 9.3 
*END

*D_NET *443 0.00139302
*CONN
*I *3555:A I *D sky130_fd_sc_hd__buf_1
*I *3554:X O *D sky130_fd_sc_hd__mux2_2
*CAP
1 *3555:A 0.000446031
2 *3554:X 0.000446031
3 *3555:A *3417:A1 5.30764e-05
4 *3555:A *3554:A0 0
5 *3555:A *3784:CLK 9.84729e-05
6 *3555:A *3792:CLK 7.60375e-06
7 *3555:A *585:18 5.63467e-05
8 *3555:A *585:38 0.000143728
9 *3555:A *686:122 0.000141734
10 *3537:A *3555:A 0
11 *3784:D *3555:A 0
*RES
1 *3554:X *3555:A 36.975 
*END

*D_NET *444 0.00126479
*CONN
*I *3557:A I *D sky130_fd_sc_hd__buf_1
*I *3556:X O *D sky130_fd_sc_hd__mux2_2
*CAP
1 *3557:A 0.000451554
2 *3556:X 0.000451554
3 *3556:S *3557:A 0.000310611
4 *3793:D *3557:A 5.107e-05
*RES
1 *3556:X *3557:A 34.1893 
*END

*D_NET *445 0.00099356
*CONN
*I *3559:A I *D sky130_fd_sc_hd__buf_1
*I *3558:X O *D sky130_fd_sc_hd__mux2_2
*CAP
1 *3559:A 0.000386161
2 *3558:X 0.000386161
3 *3559:A *3434:S0 2.44887e-05
4 *3559:A *3558:A1 9.45048e-06
5 *3559:A *3810:CLK 3.69008e-05
6 *3559:A *622:84 2.83284e-06
7 *3559:A *766:14 0
8 *3810:D *3559:A 0.000147566
*RES
1 *3558:X *3559:A 33.3679 
*END

*D_NET *446 0.00055206
*CONN
*I *3561:A I *D sky130_fd_sc_hd__buf_1
*I *3560:X O *D sky130_fd_sc_hd__mux2_2
*CAP
1 *3561:A 0.000119343
2 *3560:X 0.000119343
3 *3561:A *3739:S 1.12645e-05
4 *3561:A *620:70 1.84776e-05
5 *3787:D *3561:A 0.000172884
6 *3795:D *3561:A 9.04756e-05
7 *442:37 *3561:A 2.02727e-05
*RES
1 *3560:X *3561:A 30.9929 
*END

*D_NET *447 0.000179328
*CONN
*I *3563:A I *D sky130_fd_sc_hd__buf_1
*I *3562:X O *D sky130_fd_sc_hd__mux2_2
*CAP
1 *3563:A 8.96642e-05
2 *3562:X 8.96642e-05
*RES
1 *3562:X *3563:A 19.8768 
*END

*D_NET *448 0.00186103
*CONN
*I *3565:A I *D sky130_fd_sc_hd__buf_1
*I *3564:X O *D sky130_fd_sc_hd__mux2_2
*CAP
1 *3565:A 0.000338819
2 *3564:X 0.000338819
3 *3565:A *3459:S0 9.90431e-05
4 *3565:A *3459:S1 0.000119738
5 *3565:A *3546:A0 0.000189457
6 *3565:A *724:115 0.00011228
7 *3565:A *769:8 2.05938e-05
8 *3460:A1 *3565:A 5.86416e-05
9 *3547:A *3565:A 8.91703e-05
10 *3789:D *3565:A 0.000141729
11 *432:30 *3565:A 5.52302e-05
12 *432:34 *3565:A 0.000297514
*RES
1 *3564:X *3565:A 37.4393 
*END

*D_NET *449 0.00122758
*CONN
*I *3567:A I *D sky130_fd_sc_hd__buf_1
*I *3566:X O *D sky130_fd_sc_hd__mux2_2
*CAP
1 *3567:A 0.000428111
2 *3566:X 0.000428111
3 *3567:A *3467:A0 7.02183e-05
4 *3567:A *3467:A1 8.60897e-05
5 *3567:A *3790:CLK 4.07505e-05
6 *3567:A *722:76 0.0001743
*RES
1 *3566:X *3567:A 33.8054 
*END

*D_NET *450 0.000631923
*CONN
*I *3569:A I *D sky130_fd_sc_hd__buf_1
*I *3568:X O *D sky130_fd_sc_hd__mux2_2
*CAP
1 *3569:A 0.000137254
2 *3568:X 0.000137254
3 *3569:A *662:40 0.000259077
4 *3551:A *3569:A 9.83388e-05
*RES
1 *3568:X *3569:A 22.4571 
*END

*D_NET *451 0.00199861
*CONN
*I *3571:A I *D sky130_fd_sc_hd__buf_2
*I *3570:X O *D sky130_fd_sc_hd__and4b_2
*CAP
1 *3571:A 0.000639766
2 *3570:X 0.000639766
3 *3571:A *3471:A1 4.43256e-05
4 *3571:A *3517:B 1.41029e-05
5 *3571:A *3517:D 0
6 *3571:A *562:204 4.93928e-05
7 *3571:A *570:10 0.000331647
8 *3571:A *687:78 2.89016e-05
9 *3471:A2 *3571:A 5.52238e-05
10 *3517:C *3571:A 0.000150618
11 *26:22 *3571:A 0
12 *202:78 *3571:A 0
13 *352:34 *3571:A 2.15245e-05
14 *352:44 *3571:A 1.72894e-05
15 *395:16 *3571:A 0
16 *413:20 *3571:A 0
17 *422:10 *3571:A 6.05161e-06
*RES
1 *3570:X *3571:A 39.6536 
*END

*D_NET *452 0.0278737
*CONN
*I *3578:S I *D sky130_fd_sc_hd__mux2_2
*I *3574:S I *D sky130_fd_sc_hd__mux2_2
*I *3584:S I *D sky130_fd_sc_hd__mux2_2
*I *3576:S I *D sky130_fd_sc_hd__mux2_2
*I *3572:S I *D sky130_fd_sc_hd__mux2_2
*I *3580:S I *D sky130_fd_sc_hd__mux2_2
*I *3586:S I *D sky130_fd_sc_hd__mux2_2
*I *3582:S I *D sky130_fd_sc_hd__mux2_2
*I *3571:X O *D sky130_fd_sc_hd__buf_2
*CAP
1 *3578:S 0
2 *3574:S 0.00110197
3 *3584:S 4.24426e-05
4 *3576:S 0
5 *3572:S 0.000858219
6 *3580:S 0.00113554
7 *3586:S 0
8 *3582:S 0.000288687
9 *3571:X 0.00112975
10 *452:117 0.00228802
11 *452:111 0.00181493
12 *452:75 0.00129572
13 *452:48 0.00222282
14 *452:37 0.00183747
15 *452:27 0.00241237
16 *452:14 0.0019718
17 *3572:S *3435:A2 2.24405e-05
18 *3572:S *3572:A0 3.11088e-05
19 *3572:S *3576:A0 5.90911e-05
20 *3572:S *3577:A 0.000195842
21 *3572:S *3589:A0 5.66971e-05
22 *3572:S *3727:S 0.000134361
23 *3572:S *3808:CLK 0
24 *3572:S *584:12 0.000743856
25 *3572:S *622:43 9.58632e-05
26 *3572:S *622:63 5.33005e-05
27 *3572:S *626:92 9.84729e-05
28 *3572:S *782:10 6.77059e-05
29 *3574:S *3602:A 0.000126272
30 *3574:S *630:10 5.23735e-05
31 *3574:S *722:33 0
32 *3580:S *3474:S0 2.8138e-05
33 *3580:S *3580:A0 6.5883e-05
34 *3580:S *3581:A 4.82354e-05
35 *3580:S *3587:A 0
36 *3580:S *3735:S 0.000316612
37 *3580:S *3741:A0 0.00012501
38 *3580:S *3807:CLK 0.00013182
39 *3580:S *3996:A 0.000275094
40 *3580:S *461:88 0
41 *3580:S *610:23 8.59061e-05
42 *3580:S *618:6 4.33899e-05
43 *3580:S *618:8 0.000168579
44 *3580:S *662:40 0.00012501
45 *3580:S *662:59 0.000314565
46 *3580:S *720:36 7.83587e-05
47 *3582:S *729:80 0.000219081
48 *3584:S *3584:A0 0.000131657
49 *3584:S *3814:CLK 4.97967e-05
50 *452:14 *3737:A1 5.71472e-05
51 *452:14 *662:24 0
52 *452:14 *687:78 0.00031221
53 *452:14 *729:80 0.000258396
54 *452:14 *865:12 0
55 *452:27 *724:115 0.000247924
56 *452:37 *3433:A1 4.29414e-05
57 *452:37 *3586:A0 5.018e-05
58 *452:37 *3599:A1 2.8266e-06
59 *452:37 *4013:A 0
60 *452:37 *461:143 3.32631e-05
61 *452:37 *586:10 1.40415e-05
62 *452:37 *586:32 7.12758e-05
63 *452:37 *686:22 0.00152962
64 *452:37 *779:10 6.70624e-05
65 *452:48 *3586:A0 7.92229e-06
66 *452:48 *3586:A1 5.49544e-05
67 *452:48 *3587:A 1.44042e-05
68 *452:75 *3727:S 3.20477e-05
69 *452:75 *3731:A1 0.000477699
70 *452:75 *3996:A 0.00010326
71 *452:75 *461:88 0
72 *452:75 *662:59 0.000167
73 *452:111 *3578:A1 1.50575e-05
74 *452:111 *777:12 0.000176226
75 *452:117 *3513:A1 0
76 *452:117 *3806:CLK 0
77 *452:117 *3970:A 0.000277778
78 *452:117 *722:33 0
79 *452:117 *754:10 0
80 *3460:A1 *452:14 0
81 *3530:S *452:117 0
82 *3782:D *452:117 0.000345632
83 *3789:D *452:27 0.000188694
84 *3799:D *452:37 0.000260375
85 *3803:D *452:111 5.1061e-05
86 *3806:D *3574:S 7.59567e-05
87 *3806:D *452:117 0.00016132
88 *3807:D *3580:S 0
89 *3808:D *3572:S 7.40248e-05
90 *3814:D *3574:S 6.63354e-05
91 *3877:D *452:14 9.25014e-06
92 *347:10 *3572:S 0
93 *356:14 *452:37 9.60875e-05
94 *360:14 *452:37 7.14155e-05
95 *422:39 *452:111 0.000116103
*RES
1 *3571:X *452:14 37.9607 
2 *452:14 *3582:S 15.175 
3 *452:14 *452:27 20.6607 
4 *452:27 *452:37 35.5357 
5 *452:37 *3586:S 9.3 
6 *452:37 *452:48 12.0357 
7 *452:48 *3580:S 39.6036 
8 *452:48 *452:75 15.5536 
9 *452:75 *3572:S 40.5679 
10 *452:75 *3576:S 9.3 
11 *452:27 *452:111 21.1786 
12 *452:111 *452:117 27.0179 
13 *452:117 *3584:S 15.175 
14 *452:117 *3574:S 33.8357 
15 *452:111 *3578:S 9.3 
*END

*D_NET *453 0.000500569
*CONN
*I *3573:A I *D sky130_fd_sc_hd__buf_2
*I *3572:X O *D sky130_fd_sc_hd__mux2_2
*CAP
1 *3573:A 0.000183567
2 *3572:X 0.000183567
3 *3573:A *626:92 0.000133436
*RES
1 *3572:X *3573:A 30.5196 
*END

*D_NET *454 0.00119313
*CONN
*I *3575:A I *D sky130_fd_sc_hd__buf_2
*I *3574:X O *D sky130_fd_sc_hd__mux2_2
*CAP
1 *3575:A 0.000596566
2 *3574:X 0.000596566
3 *3575:A *3574:A0 0
*RES
1 *3574:X *3575:A 37.7071 
*END

*D_NET *455 0.00149621
*CONN
*I *3577:A I *D sky130_fd_sc_hd__buf_2
*I *3576:X O *D sky130_fd_sc_hd__mux2_2
*CAP
1 *3577:A 0.000381216
2 *3576:X 0.000381216
3 *3572:S *3577:A 0.000195842
4 *347:10 *3577:A 0.000537938
*RES
1 *3576:X *3577:A 37.4036 
*END

*D_NET *456 0.000298049
*CONN
*I *3579:A I *D sky130_fd_sc_hd__buf_2
*I *3578:X O *D sky130_fd_sc_hd__mux2_2
*CAP
1 *3579:A 7.54011e-05
2 *3578:X 7.54011e-05
3 *3579:A *3578:A0 5.61819e-05
4 *3579:A *3578:A1 6.85846e-05
5 *3803:D *3579:A 2.24804e-05
*RES
1 *3578:X *3579:A 20.9393 
*END

*D_NET *457 0.000334512
*CONN
*I *3581:A I *D sky130_fd_sc_hd__buf_2
*I *3580:X O *D sky130_fd_sc_hd__mux2_2
*CAP
1 *3581:A 7.3017e-05
2 *3580:X 7.3017e-05
3 *3581:A *618:8 0.000140243
4 *3580:S *3581:A 4.82354e-05
*RES
1 *3580:X *3581:A 20.6893 
*END

*D_NET *458 0.00240262
*CONN
*I *3583:A I *D sky130_fd_sc_hd__buf_2
*I *3582:X O *D sky130_fd_sc_hd__mux2_2
*CAP
1 *3583:A 0.000351195
2 *3582:X 0.000351195
3 *3583:A *3433:A1 5.84171e-05
4 *3583:A *3476:S0 2.00751e-05
5 *3583:A *3600:A 0.000701342
6 *3583:A *461:53 0.000388146
7 *3583:A *461:143 0.00024338
8 *3583:A *729:86 1.92789e-05
9 *3805:D *3583:A 9.65075e-05
10 *356:14 *3583:A 0.000173083
*RES
1 *3582:X *3583:A 40.8321 
*END

*D_NET *459 0.000602376
*CONN
*I *3585:A I *D sky130_fd_sc_hd__buf_2
*I *3584:X O *D sky130_fd_sc_hd__mux2_2
*CAP
1 *3585:A 0.00021353
2 *3584:X 0.00021353
3 *3585:A *3814:CLK 3.35813e-05
4 *3556:S *3585:A 0.000141734
*RES
1 *3584:X *3585:A 31.1804 
*END

*D_NET *460 0.000809947
*CONN
*I *3587:A I *D sky130_fd_sc_hd__buf_2
*I *3586:X O *D sky130_fd_sc_hd__mux2_2
*CAP
1 *3587:A 0.000293219
2 *3586:X 0.000293219
3 *3587:A *3474:S0 0
4 *3587:A *461:88 8.68445e-05
5 *3580:S *3587:A 0
6 *3815:D *3587:A 4.84319e-05
7 *363:12 *3587:A 7.3828e-05
8 *452:48 *3587:A 1.44042e-05
*RES
1 *3586:X *3587:A 33.0286 
*END

*D_NET *461 0.0421238
*CONN
*I *3601:S I *D sky130_fd_sc_hd__mux2_2
*I *3595:S I *D sky130_fd_sc_hd__mux2_2
*I *3599:S I *D sky130_fd_sc_hd__mux2_2
*I *3593:S I *D sky130_fd_sc_hd__mux2_2
*I *3591:S I *D sky130_fd_sc_hd__mux2_2
*I *3589:S I *D sky130_fd_sc_hd__mux2_2
*I *3603:S I *D sky130_fd_sc_hd__mux2_2
*I *3597:S I *D sky130_fd_sc_hd__mux2_2
*I *3588:X O *D sky130_fd_sc_hd__buf_2
*CAP
1 *3601:S 0.00110664
2 *3595:S 0
3 *3599:S 2.23854e-05
4 *3593:S 0
5 *3591:S 0.000814135
6 *3589:S 0.00046286
7 *3603:S 0.000153155
8 *3597:S 0.00123455
9 *3588:X 0.0028631
10 *461:168 0.0021857
11 *461:143 0.00139824
12 *461:98 0.00157619
13 *461:88 0.00198967
14 *461:57 0.00234956
15 *461:53 0.00146606
16 *461:26 0.00242088
17 *461:18 0.00338608
18 *3589:S *3416:S0 7.95581e-05
19 *3589:S *3417:A3 0.000273095
20 *3589:S *3589:A1 6.8255e-05
21 *3589:S *3590:A 0
22 *3589:S *584:12 0
23 *3589:S *585:38 0
24 *3589:S *626:55 0.000137983
25 *3589:S *686:122 7.79781e-06
26 *3591:S *3592:A 2.89114e-05
27 *3591:S *3801:CLK 4.38128e-05
28 *3591:S *3968:A 9.93955e-05
29 *3591:S *585:18 0.000448651
30 *3591:S *624:14 5.33005e-05
31 *3591:S *624:21 0.000139907
32 *3591:S *626:55 0.000348239
33 *3597:S *3450:S1 7.15905e-06
34 *3597:S *3453:A1 0.000122081
35 *3597:S *3453:B1 5.52302e-05
36 *3597:S *3562:A0 1.78649e-05
37 *3597:S *3562:A1 0.000279498
38 *3597:S *3597:A1 5.49489e-05
39 *3597:S *674:39 0.00024426
40 *3601:S *3466:S0 0
41 *3601:S *3467:S0 0.000306261
42 *3601:S *3467:S1 0
43 *3601:S *3601:A1 0.000356677
44 *3601:S *4100:A 0
45 *3601:S *688:51 0.000104246
46 *3603:S *3474:S1 0.000134531
47 *3603:S *3791:CLK 5.68713e-05
48 *3603:S *720:81 0.000169246
49 *461:18 *3460:S 0.000392661
50 *461:18 *3534:A 3.51773e-05
51 *461:18 *4052:A 0
52 *461:18 *544:22 0.00189298
53 *461:18 *544:32 0
54 *461:18 *562:37 1.01912e-05
55 *461:18 *683:59 0.000164818
56 *461:18 *727:28 2.47833e-05
57 *461:26 *3432:A1 0.000961358
58 *461:26 *633:45 0.000194612
59 *461:26 *681:58 0.000186669
60 *461:53 *3433:A1 0.000460406
61 *461:53 *3511:A0 1.3142e-05
62 *461:53 *3754:A1 0
63 *461:53 *3994:A 0.000483409
64 *461:53 *576:12 0.000344925
65 *461:53 *633:45 6.25702e-05
66 *461:53 *724:73 0
67 *461:57 *3550:A1 0.000147828
68 *461:57 *611:16 0.000355002
69 *461:57 *720:81 6.09804e-05
70 *461:88 *3418:S 3.41848e-05
71 *461:88 *3594:A 0.000137639
72 *461:88 *3996:A 0
73 *461:88 *3997:A 0.000170034
74 *461:88 *4095:A 0
75 *461:88 *622:84 7.22772e-05
76 *461:88 *666:49 8.12645e-05
77 *461:88 *686:33 0.000109434
78 *461:88 *686:35 5.54655e-05
79 *461:88 *790:12 0.000259723
80 *461:98 *3418:S 0.000713273
81 *461:98 *3594:A 3.14003e-05
82 *461:98 *585:22 0.000378183
83 *461:98 *688:85 0
84 *461:143 *3433:A1 0.000354175
85 *461:143 *3599:A0 5.10822e-05
86 *461:143 *3599:A1 2.27416e-05
87 *461:168 *3599:A1 1.92789e-05
88 *461:168 *3789:CLK 8.09285e-05
89 *461:168 *666:10 0.000313017
90 *3418:A0 *3589:S 0
91 *3418:A1 *3589:S 0.000209753
92 *3418:A1 *461:98 5.66157e-05
93 *3432:A2 *3597:S 0.000224583
94 *3436:A0 *461:88 0.00031551
95 *3453:A2 *3597:S 2.89114e-05
96 *3473:A2 *3601:S 6.74815e-05
97 *3512:A *461:53 0.00027717
98 *3535:A *461:18 7.70035e-05
99 *3556:S *3601:S 0.00033462
100 *3580:S *461:88 0
101 *3583:A *461:53 0.000388146
102 *3583:A *461:143 0.00024338
103 *3587:A *461:88 8.68445e-05
104 *3789:D *461:168 5.91935e-05
105 *3791:D *3603:S 1.64343e-05
106 *26:20 *3601:S 0
107 *352:14 *461:18 1.67308e-05
108 *352:34 *461:18 9.78137e-05
109 *352:58 *3597:S 0.000108077
110 *360:14 *3597:S 1.00073e-05
111 *360:14 *461:53 0
112 *363:12 *461:88 0
113 *373:14 *461:18 0.000396226
114 *374:10 *461:18 0.000177448
115 *395:16 *3601:S 0.000359859
116 *395:16 *461:168 0.00040262
117 *413:75 *3601:S 0.000694339
118 *413:75 *461:168 0.000488836
119 *422:39 *461:168 0.000575086
120 *432:20 *461:18 3.30338e-05
121 *432:34 *461:57 0.000602236
122 *452:37 *461:143 3.32631e-05
123 *452:75 *461:88 0
*RES
1 *3588:X *461:18 48.6077 
2 *461:18 *461:26 21.0179 
3 *461:26 *3597:S 40.6571 
4 *461:26 *461:53 19.6071 
5 *461:53 *461:57 16.125 
6 *461:57 *3603:S 13.9607 
7 *461:57 *461:88 36.1317 
8 *461:88 *461:98 19.8036 
9 *461:98 *3589:S 29.5321 
10 *461:98 *3591:S 27.2286 
11 *461:88 *3593:S 9.3 
12 *461:53 *461:143 20.7143 
13 *461:143 *3599:S 9.72857 
14 *461:143 *461:168 30.6429 
15 *461:168 *3595:S 13.8 
16 *461:168 *3601:S 43.4786 
*END

*D_NET *462 0.00122076
*CONN
*I *3590:A I *D sky130_fd_sc_hd__buf_1
*I *3589:X O *D sky130_fd_sc_hd__mux2_2
*CAP
1 *3590:A 0.000326563
2 *3589:X 0.000326563
3 *3590:A *3416:S0 0.000105572
4 *3590:A *3572:A0 0.000363399
5 *3590:A *3589:A0 1.29975e-05
6 *3590:A *584:12 0
7 *3589:S *3590:A 0
8 *3808:D *3590:A 8.5662e-05
*RES
1 *3589:X *3590:A 35.85 
*END

*D_NET *463 0.00215523
*CONN
*I *3592:A I *D sky130_fd_sc_hd__buf_1
*I *3591:X O *D sky130_fd_sc_hd__mux2_2
*CAP
1 *3592:A 0.000355589
2 *3591:X 0.000355589
3 *3592:A *3574:A0 0.000246629
4 *3592:A *624:14 0.000531509
5 *3592:A *686:122 7.6644e-05
6 *3592:A *781:8 0.000102545
7 *3592:A *789:10 0.000101146
8 *3591:S *3592:A 2.89114e-05
9 *3809:D *3592:A 0.00035667
*RES
1 *3591:X *3592:A 39.1714 
*END

*D_NET *464 0.00114455
*CONN
*I *3594:A I *D sky130_fd_sc_hd__buf_1
*I *3593:X O *D sky130_fd_sc_hd__mux2_2
*CAP
1 *3594:A 0.000214343
2 *3593:X 0.000214343
3 *3594:A *3418:S 7.86097e-05
4 *3594:A *3434:S0 8.81397e-05
5 *3594:A *3435:A2 0.000317534
6 *3594:A *3436:S 4.22135e-06
7 *3594:A *3997:A 8.6229e-06
8 *3594:A *622:63 3.37853e-05
9 *3594:A *622:84 1.59076e-05
10 *461:88 *3594:A 0.000137639
11 *461:98 *3594:A 3.14003e-05
*RES
1 *3593:X *3594:A 33.4571 
*END

*D_NET *465 0.00122135
*CONN
*I *3596:A I *D sky130_fd_sc_hd__buf_1
*I *3595:X O *D sky130_fd_sc_hd__mux2_2
*CAP
1 *3596:A 0.000216925
2 *3595:X 0.000216925
3 *3596:A *3578:A1 5.50052e-05
4 *3811:D *3596:A 0.000352326
5 *26:20 *3596:A 0.000367839
6 *26:22 *3596:A 1.23272e-05
*RES
1 *3595:X *3596:A 34.9214 
*END

*D_NET *466 0.00205517
*CONN
*I *3598:A I *D sky130_fd_sc_hd__buf_1
*I *3597:X O *D sky130_fd_sc_hd__mux2_2
*CAP
1 *3598:A 0.000644884
2 *3597:X 0.000644884
3 *3598:A *3450:A0 0
4 *3598:A *3450:S1 0.000521413
5 *3598:A *610:12 8.33559e-05
6 *3812:D *3598:A 1.24368e-05
7 *347:10 *3598:A 0
8 *402:14 *3598:A 0.000148196
*RES
1 *3597:X *3598:A 37.6714 
*END

*D_NET *467 0.00190955
*CONN
*I *3600:A I *D sky130_fd_sc_hd__buf_1
*I *3599:X O *D sky130_fd_sc_hd__mux2_2
*CAP
1 *3600:A 0.0002726
2 *3599:X 0.0002726
3 *3600:A *3433:A1 4.87953e-05
4 *3583:A *3600:A 0.000701342
5 *3805:D *3600:A 0.000534373
6 *3813:D *3600:A 5.97623e-05
7 *360:14 *3600:A 2.00751e-05
*RES
1 *3599:X *3600:A 37.475 
*END

*D_NET *468 0.000403356
*CONN
*I *3602:A I *D sky130_fd_sc_hd__buf_1
*I *3601:X O *D sky130_fd_sc_hd__mux2_2
*CAP
1 *3602:A 0.00011282
2 *3601:X 0.00011282
3 *3556:S *3602:A 2.85321e-05
4 *3574:S *3602:A 0.000126272
5 *3814:D *3602:A 2.29112e-05
*RES
1 *3601:X *3602:A 30.0821 
*END

*D_NET *469 0.000294104
*CONN
*I *3604:A I *D sky130_fd_sc_hd__buf_1
*I *3603:X O *D sky130_fd_sc_hd__mux2_2
*CAP
1 *3604:A 5.00789e-05
2 *3603:X 5.00789e-05
3 *3604:A *3474:S1 9.5929e-05
4 *3604:A *720:40 9.80173e-05
*RES
1 *3603:X *3604:A 20.2786 
*END

*D_NET *470 0.00717737
*CONN
*I *3618:S I *D sky130_fd_sc_hd__mux2_2
*I *4111:A I *D sky130_fd_sc_hd__clkbuf_2
*I *4085:A I *D sky130_fd_sc_hd__clkbuf_2
*I *3605:Y O *D sky130_fd_sc_hd__nor4b_4
*CAP
1 *3618:S 0
2 *4111:A 0.000936205
3 *4085:A 8.08324e-05
4 *3605:Y 0.000311563
5 *470:25 0.00124751
6 *470:10 0.000703696
7 *4085:A *3639:A_N 5.33005e-05
8 *4085:A *488:6 4.43256e-05
9 *4111:A *3646:S 0
10 *4111:A *3681:A0 0.000136676
11 *4111:A *3681:S 5.33005e-05
12 *4111:A *3698:A0 0.000354996
13 *4111:A *3698:A1 0.000142043
14 *4111:A *3698:S 9.41642e-05
15 *4111:A *488:65 0
16 *4111:A *516:24 0.000214195
17 *4111:A *562:204 7.57318e-05
18 *4111:A *619:45 0.000172699
19 *4111:A *663:26 0.000313314
20 *4111:A *670:44 0.000229284
21 *4111:A *672:14 0.000461621
22 *470:10 *3639:A_N 0.000213019
23 *470:10 *3639:B_N 8.99927e-05
24 *470:10 *3639:D 1.21258e-05
25 *470:10 *701:20 9.60939e-05
26 *470:25 *562:204 0.000343359
27 *470:25 *672:14 1.8356e-05
28 *470:25 *721:12 0.000300597
29 *470:25 *721:18 0.000212841
30 *3471:A2 *470:25 0.000171368
31 *3639:C *470:10 9.41642e-05
*RES
1 *3605:Y *470:10 14.4964 
2 *470:10 *4085:A 10.6571 
3 *470:10 *470:25 15.6071 
4 *470:25 *4111:A 40.0857 
5 *470:25 *3618:S 13.8 
*END

*D_NET *471 0.000857402
*CONN
*I *3607:A I *D sky130_fd_sc_hd__buf_2
*I *3606:X O *D sky130_fd_sc_hd__mux2_2
*CAP
1 *3607:A 0.00020056
2 *3606:X 0.00020056
3 *3607:A *3640:A0 0.000271872
4 *3607:A *3641:A 2.84026e-05
5 *3607:A *488:48 6.73404e-05
6 *3816:D *3607:A 8.86669e-05
*RES
1 *3606:X *3607:A 23.975 
*END

*D_NET *472 0.00211809
*CONN
*I *3609:A I *D sky130_fd_sc_hd__buf_2
*I *3608:X O *D sky130_fd_sc_hd__mux2_2
*CAP
1 *3609:A 0.000385229
2 *3608:X 0.000385229
3 *3609:A *3430:S1 0.000340059
4 *3609:A *3478:S0 0
5 *3609:A *3642:S 0
6 *3609:A *488:48 0
7 *3609:A *507:46 0.000816101
8 *3609:A *669:24 3.67142e-05
9 *3609:A *813:10 0.000154762
*RES
1 *3608:X *3609:A 38.9929 
*END

*D_NET *473 0.000859173
*CONN
*I *3611:A I *D sky130_fd_sc_hd__buf_2
*I *3610:X O *D sky130_fd_sc_hd__mux2_2
*CAP
1 *3611:A 0.000292116
2 *3610:X 0.000292116
3 *3611:A *3438:S1 0.00020042
4 *3611:A *3644:S 0
5 *3611:A *488:123 5.52302e-05
6 *3611:A *621:37 1.92905e-05
7 *3611:A *621:41 0
8 *3439:A1 *3611:A 0
*RES
1 *3610:X *3611:A 33.725 
*END

*D_NET *474 0.000284769
*CONN
*I *3613:A I *D sky130_fd_sc_hd__buf_2
*I *3612:X O *D sky130_fd_sc_hd__mux2_2
*CAP
1 *3613:A 9.14784e-05
2 *3612:X 9.14784e-05
3 *3613:A *3629:A1 0.000101812
*RES
1 *3612:X *3613:A 20.6893 
*END

*D_NET *475 0.00102863
*CONN
*I *3615:A I *D sky130_fd_sc_hd__buf_2
*I *3614:X O *D sky130_fd_sc_hd__mux2_2
*CAP
1 *3615:A 0.000376225
2 *3614:X 0.000376225
3 *3615:A *3455:A0 0
4 *3615:A *3455:A3 5.52302e-05
5 *3615:A *3455:S0 0.000114111
6 *3615:A *3631:A0 7.48091e-05
7 *3820:D *3615:A 3.2033e-05
8 *380:22 *3615:A 0
*RES
1 *3614:X *3615:A 34.6893 
*END

*D_NET *476 0.00210952
*CONN
*I *3617:A I *D sky130_fd_sc_hd__buf_2
*I *3616:X O *D sky130_fd_sc_hd__mux2_2
*CAP
1 *3617:A 0.000939702
2 *3616:X 0.000939702
3 *3617:A *3616:A0 0
4 *3617:A *3634:A 2.85234e-05
5 *3617:A *3765:CLK 0.000103245
6 *3617:A *488:88 9.83442e-05
7 *3617:A *516:51 0
8 *3617:A *591:12 0
9 *3617:A *723:38 0
*RES
1 *3616:X *3617:A 42.9036 
*END

*D_NET *477 0.00095991
*CONN
*I *3619:A I *D sky130_fd_sc_hd__buf_2
*I *3618:X O *D sky130_fd_sc_hd__mux2_2
*CAP
1 *3619:A 0.00026199
2 *3618:X 0.00026199
3 *3619:A *3470:A1 0.000267266
4 *3619:A *3618:A0 0.000104974
5 *3619:A *3980:A 1.95138e-05
6 *3619:A *488:65 3.81237e-05
7 *3619:A *674:8 0
8 *3619:A *746:6 6.05161e-06
9 *3822:D *3619:A 0
*RES
1 *3618:X *3619:A 34.1357 
*END

*D_NET *478 0.00133959
*CONN
*I *3621:A I *D sky130_fd_sc_hd__buf_2
*I *3620:X O *D sky130_fd_sc_hd__mux2_2
*CAP
1 *3621:A 0.000542293
2 *3620:X 0.000542293
3 *3621:A *605:22 9.99853e-05
4 *3823:D *3621:A 0.000155023
*RES
1 *3620:X *3621:A 37.1357 
*END

*D_NET *479 0.00979836
*CONN
*I *4081:A I *D sky130_fd_sc_hd__clkbuf_2
*I *3629:S I *D sky130_fd_sc_hd__mux2_2
*I *4110:A I *D sky130_fd_sc_hd__clkbuf_2
*I *3622:Y O *D sky130_fd_sc_hd__nor4b_4
*CAP
1 *4081:A 0.00022106
2 *3629:S 0.000273803
3 *4110:A 0.000692657
4 *3622:Y 0.00111607
5 *479:8 0.00186147
6 *3629:S *3629:A1 9.84673e-05
7 *3629:S *632:14 0.000200942
8 *4081:A *3715:S 3.34295e-05
9 *4081:A *525:29 0.000288557
10 *4081:A *663:16 0.000310307
11 *4110:A *3462:S1 0.000157962
12 *4110:A *3646:A0 9.25014e-06
13 *4110:A *3835:CLK 0.000315105
14 *479:8 *3646:A0 7.50697e-05
15 *479:8 *3646:S 0
16 *479:8 *3682:A 0
17 *479:8 *3698:S 1.90936e-05
18 *479:8 *3715:S 0.00107209
19 *479:8 *3763:CLK 0.000194299
20 *479:8 *3851:CLK 0.000224881
21 *479:8 *516:24 0.000352669
22 *479:8 *516:41 0.000244412
23 *479:8 *595:21 0.000148189
24 *479:8 *619:21 0
25 *479:8 *632:14 6.09057e-06
26 *479:8 *672:14 0.00165372
27 *479:8 *721:12 5.01213e-05
28 *479:8 *721:18 0.000146301
29 *3835:D *3629:S 0
30 *3851:D *479:8 4.40513e-06
31 *404:40 *4081:A 2.79421e-05
*RES
1 *3622:Y *479:8 44.4339 
2 *479:8 *4110:A 23.6839 
3 *479:8 *3629:S 19.8804 
4 *3622:Y *4081:A 32.6179 
*END

*D_NET *480 0.00134605
*CONN
*I *3624:A I *D sky130_fd_sc_hd__buf_4
*I *3623:X O *D sky130_fd_sc_hd__mux2_2
*CAP
1 *3624:A 0.00049218
2 *3623:X 0.00049218
3 *3624:A *3641:A 6.96564e-05
4 *3624:A *608:10 5.49489e-05
5 *3624:A *608:21 3.38774e-05
6 *3816:D *3624:A 0.000203203
*RES
1 *3623:X *3624:A 37.5821 
*END

*D_NET *481 0.001508
*CONN
*I *3626:A I *D sky130_fd_sc_hd__buf_4
*I *3625:X O *D sky130_fd_sc_hd__mux2_2
*CAP
1 *3626:A 0.000314112
2 *3625:X 0.000314112
3 *3626:A *507:65 0.000139337
4 *3626:A *525:60 0
5 *3626:A *690:14 0.000603816
6 *3825:D *3626:A 0.00013662
*RES
1 *3625:X *3626:A 36.6714 
*END

*D_NET *482 0.000752031
*CONN
*I *3628:A I *D sky130_fd_sc_hd__buf_4
*I *3627:X O *D sky130_fd_sc_hd__mux2_2
*CAP
1 *3628:A 0.000261247
2 *3627:X 0.000261247
3 *3628:A *3834:CLK 0.000229538
*RES
1 *3627:X *3628:A 32.475 
*END

*D_NET *483 0.000229173
*CONN
*I *3630:A I *D sky130_fd_sc_hd__buf_4
*I *3629:X O *D sky130_fd_sc_hd__mux2_2
*CAP
1 *3630:A 8.70866e-05
2 *3629:X 8.70866e-05
3 *3630:A *672:24 5.49995e-05
*RES
1 *3629:X *3630:A 20.2786 
*END

*D_NET *484 0.000924567
*CONN
*I *3632:A I *D sky130_fd_sc_hd__buf_4
*I *3631:X O *D sky130_fd_sc_hd__mux2_2
*CAP
1 *3632:A 0.000314921
2 *3631:X 0.000314921
3 *3632:A *594:34 5.65955e-05
4 *3632:A *664:48 9.62992e-05
5 *3632:A *725:22 0.000141831
*RES
1 *3631:X *3632:A 32.3857 
*END

*D_NET *485 0.000862148
*CONN
*I *3634:A I *D sky130_fd_sc_hd__buf_4
*I *3633:X O *D sky130_fd_sc_hd__mux2_2
*CAP
1 *3634:A 0.00028222
2 *3633:X 0.00028222
3 *3634:A *633:25 0
4 *3634:A *723:38 7.18002e-05
5 *3617:A *3634:A 2.85234e-05
6 *3829:D *3634:A 0.000197385
*RES
1 *3633:X *3634:A 33.725 
*END

*D_NET *486 0.00135423
*CONN
*I *3636:A I *D sky130_fd_sc_hd__buf_4
*I *3635:X O *D sky130_fd_sc_hd__mux2_2
*CAP
1 *3636:A 0.0005453
2 *3635:X 0.0005453
3 *3636:A *3838:CLK 1.02132e-05
4 *3636:A *562:214 7.61041e-05
5 *3636:A *593:16 2.07394e-05
6 *3636:A *593:24 1.48543e-05
7 *3636:A *634:31 0.000141716
8 *3636:A *685:34 0
*RES
1 *3635:X *3636:A 37.2429 
*END

*D_NET *487 0.000191504
*CONN
*I *3638:A I *D sky130_fd_sc_hd__buf_4
*I *3637:X O *D sky130_fd_sc_hd__mux2_2
*CAP
1 *3638:A 9.57519e-05
2 *3637:X 9.57519e-05
*RES
1 *3637:X *3638:A 20.2786 
*END

*D_NET *488 0.0295996
*CONN
*I *3654:S I *D sky130_fd_sc_hd__mux2_2
*I *3644:S I *D sky130_fd_sc_hd__mux2_2
*I *3650:S I *D sky130_fd_sc_hd__mux2_2
*I *3648:S I *D sky130_fd_sc_hd__mux2_2
*I *3646:S I *D sky130_fd_sc_hd__mux2_2
*I *3640:S I *D sky130_fd_sc_hd__mux2_2
*I *3642:S I *D sky130_fd_sc_hd__mux2_2
*I *3652:S I *D sky130_fd_sc_hd__mux2_2
*I *3639:X O *D sky130_fd_sc_hd__and4bb_2
*CAP
1 *3654:S 0.000616401
2 *3644:S 0.000244774
3 *3650:S 0
4 *3648:S 0.00243218
5 *3646:S 0.000435429
6 *3640:S 0
7 *3642:S 9.06047e-05
8 *3652:S 0
9 *3639:X 0.000142578
10 *488:123 0.00231113
11 *488:88 0.00170752
12 *488:65 0.00224039
13 *488:48 0.00229078
14 *488:27 0.00320373
15 *488:8 0.00111686
16 *488:6 0.00151675
17 *3642:S *3478:S0 5.80706e-06
18 *3642:S *623:28 0.00020455
19 *3642:S *813:10 0
20 *3644:S *3438:S1 0
21 *3644:S *3644:A0 6.13812e-05
22 *3644:S *583:18 0.000105301
23 *3644:S *621:22 0.000106403
24 *3646:S *3646:A0 0
25 *3646:S *3646:A1 2.89114e-05
26 *3646:S *3647:A 2.89114e-05
27 *3646:S *672:14 0
28 *3646:S *672:24 0.000225307
29 *3646:S *685:79 0.000114838
30 *3648:S *3610:S 0.000442628
31 *3648:S *3614:A1 0.000398815
32 *3648:S *3650:A0 0.000103315
33 *3648:S *3651:A 0.000140284
34 *3648:S *516:51 8.50152e-05
35 *3648:S *591:18 0.000129063
36 *3648:S *633:25 0
37 *3648:S *670:68 0.000212561
38 *3648:S *723:38 0.000270262
39 *3648:S *723:47 3.08664e-05
40 *3654:S *3654:A0 5.12625e-05
41 *3654:S *3654:A1 5.47176e-05
42 *3654:S *3696:A1 5.33005e-05
43 *3654:S *3696:S 6.05161e-06
44 *3654:S *3697:A 0.000180014
45 *3654:S *583:12 0.000131247
46 *3654:S *583:18 0.000173765
47 *3654:S *621:16 2.24646e-05
48 *3654:S *621:18 0.000117896
49 *3654:S *621:22 0.000539224
50 *3654:S *838:10 9.91086e-05
51 *488:6 *3639:A_N 9.41642e-05
52 *488:6 *669:14 1.92905e-05
53 *488:8 *3652:A0 0.00018372
54 *488:8 *669:14 0.000248989
55 *488:27 *3486:A0 6.86693e-05
56 *488:27 *3652:A0 3.18988e-05
57 *488:27 *3653:A 1.58163e-05
58 *488:27 *623:28 0.000484518
59 *488:27 *669:14 0.000786327
60 *488:27 *741:6 0.000116039
61 *488:48 *3640:A0 2.89979e-05
62 *488:48 *3640:A1 6.87831e-06
63 *488:48 *3643:A 0
64 *488:48 *623:28 2.31791e-05
65 *488:48 *625:35 3.06878e-06
66 *488:48 *669:24 0.00098811
67 *488:48 *690:14 0
68 *488:65 *3470:A0 0.000101545
69 *488:65 *3470:A1 0.000304357
70 *488:65 *3470:S0 6.94598e-05
71 *488:65 *3470:S1 0
72 *488:65 *3618:A0 0.000101545
73 *488:65 *562:204 0.000645199
74 *488:65 *663:26 0.000259971
75 *488:65 *674:8 0
76 *488:65 *685:73 0
77 *488:65 *685:79 0.000177951
78 *488:88 *3669:A 9.3111e-05
79 *488:88 *3699:A 2.89016e-05
80 *488:88 *670:44 0.000285493
81 *488:88 *723:47 0.000138448
82 *488:88 *723:62 3.42959e-05
83 *488:123 *3610:A0 0.000146523
84 *488:123 *3610:A1 2.88018e-06
85 *488:123 *3610:S 0.000450285
86 *488:123 *3627:A1 1.07719e-05
87 *488:123 *3649:A 5.33005e-05
88 *488:123 *621:37 9.60591e-05
89 *3487:A *488:27 4.53889e-05
90 *3607:A *488:48 6.73404e-05
91 *3609:A *3642:S 0
92 *3609:A *488:48 0
93 *3611:A *3644:S 0
94 *3611:A *488:123 5.52302e-05
95 *3617:A *488:88 9.83442e-05
96 *3619:A *488:65 3.81237e-05
97 *3760:D *488:48 4.87669e-06
98 *3761:D *488:27 0.000145979
99 *3821:D *3648:S 0.000150624
100 *3833:D *488:48 2.97074e-05
101 *3837:D *3648:S 0.000189929
102 *3845:D *488:88 5.71472e-05
103 *3867:D *488:65 0.000100478
104 *4085:A *488:6 4.43256e-05
105 *4111:A *3646:S 0
106 *4111:A *488:65 0
107 *479:8 *3646:S 0
*RES
1 *3639:X *488:6 11.8893 
2 *488:6 *488:8 6.69643 
3 *488:8 *3652:S 9.3 
4 *488:8 *488:27 24.2321 
5 *488:27 *3642:S 16.3536 
6 *488:27 *488:48 41.2143 
7 *488:48 *3640:S 9.3 
8 *488:6 *488:65 32.0536 
9 *488:65 *3646:S 22.3893 
10 *488:65 *488:88 19.2857 
11 *488:88 *3648:S 40.7107 
12 *488:88 *3650:S 9.3 
13 *3648:S *488:123 33.55 
14 *488:123 *3644:S 19.3893 
15 *488:123 *3654:S 29.5321 
*END

*D_NET *489 0.000479166
*CONN
*I *3641:A I *D sky130_fd_sc_hd__buf_2
*I *3640:X O *D sky130_fd_sc_hd__mux2_2
*CAP
1 *3641:A 0.00011929
2 *3640:X 0.00011929
3 *3607:A *3641:A 2.84026e-05
4 *3624:A *3641:A 6.96564e-05
5 *3816:D *3641:A 5.49489e-05
6 *3832:D *3641:A 8.75782e-05
*RES
1 *3640:X *3641:A 30.9929 
*END

*D_NET *490 0.000631525
*CONN
*I *3643:A I *D sky130_fd_sc_hd__buf_2
*I *3642:X O *D sky130_fd_sc_hd__mux2_2
*CAP
1 *3643:A 0.00026671
2 *3642:X 0.00026671
3 *3643:A *3833:CLK 4.79842e-05
4 *3643:A *623:28 0
5 *3643:A *690:14 0
6 *3833:D *3643:A 5.01213e-05
7 *488:48 *3643:A 0
*RES
1 *3642:X *3643:A 32.2071 
*END

*D_NET *491 0.000982168
*CONN
*I *3645:A I *D sky130_fd_sc_hd__buf_2
*I *3644:X O *D sky130_fd_sc_hd__mux2_2
*CAP
1 *3645:A 0.000256006
2 *3644:X 0.000256006
3 *3645:A *3627:A0 0.000125731
4 *3645:A *583:18 0
5 *3645:A *664:48 0.000143633
6 *3645:A *806:8 0.000200791
*RES
1 *3644:X *3645:A 33.0286 
*END

*D_NET *492 0.000706145
*CONN
*I *3647:A I *D sky130_fd_sc_hd__buf_2
*I *3646:X O *D sky130_fd_sc_hd__mux2_2
*CAP
1 *3647:A 0.000278299
2 *3646:X 0.000278299
3 *3647:A *3827:CLK 0
4 *3647:A *685:79 0.000120636
5 *3646:S *3647:A 2.89114e-05
*RES
1 *3646:X *3647:A 32.6357 
*END

*D_NET *493 0.00143731
*CONN
*I *3649:A I *D sky130_fd_sc_hd__buf_2
*I *3648:X O *D sky130_fd_sc_hd__mux2_2
*CAP
1 *3649:A 0.000386349
2 *3648:X 0.000386349
3 *3649:A *3610:S 2.59355e-05
4 *3649:A *3820:CLK 0.000172085
5 *3649:A *594:10 0.000413295
6 *3649:A *664:34 0
7 *3649:A *725:22 0
8 *3649:A *725:35 0
9 *488:123 *3649:A 5.33005e-05
*RES
1 *3648:X *3649:A 35.85 
*END

*D_NET *494 0.000652008
*CONN
*I *3651:A I *D sky130_fd_sc_hd__buf_2
*I *3650:X O *D sky130_fd_sc_hd__mux2_2
*CAP
1 *3651:A 0.000232158
2 *3650:X 0.000232158
3 *3651:A *516:51 4.74079e-05
4 *3651:A *633:25 0
5 *3648:S *3651:A 0.000140284
*RES
1 *3650:X *3651:A 32.225 
*END

*D_NET *495 0.000661205
*CONN
*I *3653:A I *D sky130_fd_sc_hd__buf_2
*I *3652:X O *D sky130_fd_sc_hd__mux2_2
*CAP
1 *3653:A 9.98171e-05
2 *3652:X 9.98171e-05
3 *3653:A *634:31 0.000222878
4 *387:8 *3653:A 0.000222878
5 *488:27 *3653:A 1.58163e-05
*RES
1 *3652:X *3653:A 30.9929 
*END

*D_NET *496 0.000103336
*CONN
*I *3655:A I *D sky130_fd_sc_hd__buf_2
*I *3654:X O *D sky130_fd_sc_hd__mux2_2
*CAP
1 *3655:A 5.16682e-05
2 *3654:X 5.16682e-05
*RES
1 *3654:X *3655:A 19.4661 
*END

*D_NET *497 0.00186066
*CONN
*I *3657:A I *D sky130_fd_sc_hd__clkbuf_1
*I *3656:X O *D sky130_fd_sc_hd__and3b_2
*CAP
1 *3657:A 0.000514459
2 *3656:X 0.000514459
3 *3657:A *3656:C 0
4 *3656:B *3657:A 0.000456457
5 *403:36 *3657:A 0.000375282
*RES
1 *3656:X *3657:A 37.4036 
*END

*D_NET *498 0.0111562
*CONN
*I *4080:A I *D sky130_fd_sc_hd__clkbuf_2
*I *3670:S I *D sky130_fd_sc_hd__mux2_2
*I *3660:S I *D sky130_fd_sc_hd__mux2_2
*I *3658:S I *D sky130_fd_sc_hd__mux2_2
*I *3672:S I *D sky130_fd_sc_hd__mux2_2
*I *3657:X O *D sky130_fd_sc_hd__clkbuf_1
*CAP
1 *4080:A 0.000107328
2 *3670:S 2.13113e-05
3 *3660:S 1.98239e-05
4 *3658:S 5.08025e-05
5 *3672:S 0.000581906
6 *3657:X 0.000278401
7 *498:38 0.00139118
8 *498:32 0.00214608
9 *498:22 0.00158388
10 *498:16 0.00058051
11 *3658:S *3658:A1 0.000141729
12 *3660:S *507:42 3.49456e-06
13 *3672:S *3672:A0 6.45537e-05
14 *3672:S *525:60 0.000308123
15 *4080:A *3691:B_N 8.9047e-06
16 *4080:A *3846:CLK 9.41642e-05
17 *4080:A *663:16 0.000183724
18 *4080:A *707:74 0.000122056
19 *498:16 *3656:C 9.58126e-05
20 *498:16 *3674:B_N 4.22431e-05
21 *498:16 *3691:A_N 0.00034893
22 *498:16 *3691:D 0.000214073
23 *498:16 *507:30 2.05612e-05
24 *498:16 *516:8 1.24368e-05
25 *498:22 *3983:A 6.50098e-05
26 *498:22 *663:16 0.000193004
27 *498:22 *707:74 0.000190745
28 *498:32 *3661:A 5.66971e-05
29 *498:32 *3670:A0 0.000348877
30 *498:32 *3671:A 5.50052e-05
31 *498:32 *3862:CLK 0.000471298
32 *498:32 *3983:A 4.37451e-05
33 *498:32 *507:42 0.000205228
34 *498:38 *3658:A0 0
35 *498:38 *3658:A1 0.000121842
36 *498:38 *3675:A1 4.6355e-05
37 *498:38 *3709:S 1.99271e-05
38 *498:38 *3712:A 0.000184503
39 *498:38 *507:42 7.2266e-05
40 *498:38 *525:45 0.000145921
41 *498:38 *525:60 5.79582e-06
42 *498:38 *623:62 6.92966e-06
43 *498:38 *623:71 0.000263078
44 *498:38 *625:82 2.59355e-05
45 *3480:A0 *3672:S 0
46 *193:14 *498:16 3.18747e-05
47 *202:54 *498:22 0.000180124
*RES
1 *3657:X *498:16 21.9071 
2 *498:16 *498:22 9.64286 
3 *498:22 *498:32 23 
4 *498:32 *498:38 19.9107 
5 *498:38 *3672:S 26.3714 
6 *498:38 *3658:S 15.1571 
7 *498:32 *3660:S 9.72857 
8 *498:22 *3670:S 9.72857 
9 *498:16 *4080:A 16.8 
*END

*D_NET *499 0.0013521
*CONN
*I *3659:A I *D sky130_fd_sc_hd__buf_1
*I *3658:X O *D sky130_fd_sc_hd__mux2_2
*CAP
1 *3659:A 0.000474061
2 *3658:X 0.000474061
3 *3659:A *3676:A 5.45307e-05
4 *3659:A *3840:CLK 6.05161e-06
5 *3659:A *3848:CLK 0.000100248
6 *3659:A *562:75 0.000106744
7 *3659:A *562:81 2.19684e-05
8 *3840:D *3659:A 1.47872e-05
9 *3848:D *3659:A 9.96487e-05
*RES
1 *3658:X *3659:A 36.85 
*END

*D_NET *500 0.000372291
*CONN
*I *3661:A I *D sky130_fd_sc_hd__buf_1
*I *3660:X O *D sky130_fd_sc_hd__mux2_2
*CAP
1 *3661:A 0.000117719
2 *3660:X 0.000117719
3 *3431:A2 *3661:A 8.01554e-05
4 *498:32 *3661:A 5.66971e-05
*RES
1 *3660:X *3661:A 30.0821 
*END

*D_NET *501 0.00184223
*CONN
*I *3663:A I *D sky130_fd_sc_hd__buf_1
*I *3662:X O *D sky130_fd_sc_hd__mux2_2
*CAP
1 *3663:A 0.000582865
2 *3662:X 0.000582865
3 *3663:A *3662:A1 0.000220095
4 *3663:A *3714:A 1.02504e-05
5 *3663:A *621:16 0
6 *3663:A *621:18 0
7 *3663:A *684:50 0.000128154
8 *3439:A1 *3663:A 0.000137983
9 *3439:S *3663:A 0.000180014
*RES
1 *3662:X *3663:A 36.2696 
*END

*D_NET *502 0.00140774
*CONN
*I *3665:A I *D sky130_fd_sc_hd__buf_1
*I *3664:X O *D sky130_fd_sc_hd__mux2_2
*CAP
1 *3665:A 0.000413414
2 *3664:X 0.000413414
3 *3665:A *3445:A2 0.000189898
4 *3665:A *3682:A 6.49381e-05
5 *3665:A *3685:S 3.69047e-06
6 *3665:A *3698:A0 3.17067e-05
7 *3665:A *3715:A0 5.107e-05
8 *3665:A *507:114 0.000129805
9 *3665:A *562:262 0.0001098
10 *3665:A *619:55 0
11 *3843:D *3665:A 0
*RES
1 *3664:X *3665:A 37.3679 
*END

*D_NET *503 0.000711511
*CONN
*I *3667:A I *D sky130_fd_sc_hd__buf_1
*I *3666:X O *D sky130_fd_sc_hd__mux2_2
*CAP
1 *3667:A 0.000271589
2 *3666:X 0.000271589
3 *3667:A *3455:S0 8.06331e-05
4 *3667:A *3974:A 0
5 *3667:A *516:51 8.35655e-05
6 *3667:A *590:25 4.1331e-06
*RES
1 *3666:X *3667:A 32.1357 
*END

*D_NET *504 0.00140286
*CONN
*I *3669:A I *D sky130_fd_sc_hd__buf_1
*I *3668:X O *D sky130_fd_sc_hd__mux2_2
*CAP
1 *3669:A 0.000328419
2 *3668:X 0.000328419
3 *3669:A *3668:A0 0.000134284
4 *3669:A *3827:CLK 0
5 *3669:A *670:44 0.0001827
6 *3463:A1 *3669:A 0.000335929
7 *488:88 *3669:A 9.3111e-05
*RES
1 *3668:X *3669:A 35.0196 
*END

*D_NET *505 0.000566832
*CONN
*I *3671:A I *D sky130_fd_sc_hd__buf_1
*I *3670:X O *D sky130_fd_sc_hd__mux2_2
*CAP
1 *3671:A 0.00013815
2 *3670:X 0.00013815
3 *3671:A *3983:A 0.000146991
4 *3671:A *507:30 1.58163e-05
5 *3671:A *562:204 7.27183e-05
6 *498:32 *3671:A 5.50052e-05
*RES
1 *3670:X *3671:A 30.6179 
*END

*D_NET *506 0.00163933
*CONN
*I *3673:A I *D sky130_fd_sc_hd__buf_1
*I *3672:X O *D sky130_fd_sc_hd__mux2_2
*CAP
1 *3673:A 0.000619551
2 *3672:X 0.000619551
3 *3673:A *3847:CLK 0
4 *3673:A *592:6 7.91448e-05
5 *3673:A *835:10 7.83587e-05
6 *3480:A0 *3673:A 7.83587e-05
7 *3847:D *3673:A 0.000164362
*RES
1 *3672:X *3673:A 36.4929 
*END

*D_NET *507 0.0292575
*CONN
*I *3685:S I *D sky130_fd_sc_hd__mux2_2
*I *3681:S I *D sky130_fd_sc_hd__mux2_2
*I *3687:S I *D sky130_fd_sc_hd__mux2_2
*I *3677:S I *D sky130_fd_sc_hd__mux2_2
*I *3675:S I *D sky130_fd_sc_hd__mux2_2
*I *3689:S I *D sky130_fd_sc_hd__mux2_2
*I *3679:S I *D sky130_fd_sc_hd__mux2_2
*I *3683:S I *D sky130_fd_sc_hd__mux2_2
*I *3674:X O *D sky130_fd_sc_hd__and4bb_2
*CAP
1 *3685:S 0.00109277
2 *3681:S 0.000547252
3 *3687:S 0
4 *3677:S 0
5 *3675:S 0.000851417
6 *3689:S 0
7 *3679:S 0.000437519
8 *3683:S 0.000344055
9 *3674:X 0.000230581
10 *507:114 0.00426414
11 *507:65 0.00109883
12 *507:46 0.00156802
13 *507:44 0.00141407
14 *507:42 0.00105818
15 *507:30 0.00203204
16 *507:12 0.00382856
17 *3675:S *3429:A1 9.8291e-05
18 *3675:S *3429:S1 8.27217e-05
19 *3675:S *3675:A1 0.000167933
20 *3675:S *3677:A0 0.000234033
21 *3675:S *3711:A1 0
22 *3675:S *633:45 0.000574919
23 *3675:S *684:21 0.000470985
24 *3675:S *845:10 4.88515e-05
25 *3679:S *3680:A 1.6806e-05
26 *3679:S *3689:A0 0.000141729
27 *3679:S *719:82 0.000108305
28 *3681:S *3612:S 6.56454e-05
29 *3681:S *3681:A0 1.90936e-05
30 *3681:S *619:55 6.35819e-05
31 *3683:S *3683:A0 0.000147774
32 *3683:S *582:10 0.00010092
33 *3683:S *633:25 0.000110637
34 *3685:S *3698:A0 0.000110341
35 *3685:S *3827:CLK 9.90431e-05
36 *3685:S *516:41 0.000394712
37 *3685:S *598:16 8.76257e-05
38 *3685:S *619:55 0
39 *3685:S *839:8 1.36589e-05
40 *507:12 *544:16 2.09956e-05
41 *507:12 *701:12 6.27272e-06
42 *507:12 *869:31 1.01912e-05
43 *507:12 *869:40 4.6025e-06
44 *507:30 *3470:S0 8.0025e-05
45 *507:30 *3470:S1 1.30914e-05
46 *507:30 *3656:A_N 2.02282e-05
47 *507:30 *3670:A0 0.000124019
48 *507:30 *3687:A1 4.17702e-05
49 *507:30 *3688:A 9.16602e-05
50 *507:30 *3691:A_N 2.59355e-05
51 *507:30 *3691:B_N 3.1559e-05
52 *507:30 *3691:D 2.94709e-06
53 *507:30 *3862:CLK 0.000348872
54 *507:30 *516:8 4.82865e-05
55 *507:30 *544:16 3.10745e-06
56 *507:30 *600:58 4.46431e-05
57 *507:42 *3687:A1 0.000269747
58 *507:42 *3862:CLK 0.000501574
59 *507:42 *623:62 0.000128605
60 *507:42 *623:71 1.02301e-05
61 *507:46 *3430:S1 6.1684e-05
62 *507:46 *3677:A0 1.00887e-05
63 *507:46 *525:39 0
64 *507:46 *582:10 3.00605e-05
65 *507:46 *633:25 0.000231318
66 *507:46 *633:45 0.000335885
67 *507:65 *3478:S1 0.000144803
68 *507:65 *3672:A1 0.00016565
69 *507:65 *3689:A0 5.49544e-05
70 *507:65 *665:14 0.000473851
71 *507:65 *665:34 0.000314087
72 *507:114 *516:24 0.00103658
73 *3472:A2 *507:30 4.83019e-06
74 *3486:S *507:46 7.83587e-05
75 *3609:A *507:46 0.000816101
76 *3626:A *507:65 0.000139337
77 *3660:S *507:42 3.49456e-06
78 *3665:A *3685:S 3.69047e-06
79 *3665:A *507:114 0.000129805
80 *3671:A *507:30 1.58163e-05
81 *3817:D *507:46 0.000175512
82 *3846:D *507:30 1.48114e-05
83 *3859:D *3685:S 2.7626e-05
84 *3862:D *507:42 0.000144972
85 *3865:D *3675:S 1.76204e-05
86 *4111:A *3681:S 5.33005e-05
87 *350:57 *3679:S 0.000555584
88 *404:40 *507:46 0.000166269
89 *498:16 *507:30 2.05612e-05
90 *498:32 *507:42 0.000205228
91 *498:38 *507:42 7.2266e-05
*RES
1 *3674:X *507:12 17.8581 
2 *507:12 *507:30 30.752 
3 *507:30 *507:42 17.9821 
4 *507:42 *507:44 4.5 
5 *507:44 *507:46 17.7321 
6 *507:46 *3683:S 21.9964 
7 *507:46 *507:65 19.9643 
8 *507:65 *3679:S 28.8179 
9 *507:65 *3689:S 9.3 
10 *507:44 *3675:S 35.8536 
11 *507:42 *3677:S 9.3 
12 *507:30 *3687:S 9.3 
13 *507:12 *507:114 13.1525 
14 *507:114 *3681:S 19.2892 
15 *507:114 *3685:S 34.0582 
*END

*D_NET *508 0.00207692
*CONN
*I *3676:A I *D sky130_fd_sc_hd__buf_1
*I *3675:X O *D sky130_fd_sc_hd__mux2_2
*CAP
1 *3676:A 0.000621839
2 *3675:X 0.000621839
3 *3676:A *3419:A0 6.69638e-05
4 *3676:A *3658:A0 0.000405694
5 *3676:A *3675:A0 2.93043e-05
6 *3676:A *828:10 2.00659e-05
7 *3422:A0 *3676:A 0.000256686
8 *3659:A *3676:A 5.45307e-05
*RES
1 *3675:X *3676:A 39.6536 
*END

*D_NET *509 0.00135235
*CONN
*I *3678:A I *D sky130_fd_sc_hd__buf_1
*I *3677:X O *D sky130_fd_sc_hd__mux2_2
*CAP
1 *3678:A 0.000385376
2 *3677:X 0.000385376
3 *3678:A *3711:A1 7.46072e-05
4 *3678:A *3712:A 0
5 *3678:A *633:45 0
6 *3849:D *3678:A 0.000506988
*RES
1 *3677:X *3678:A 36.5286 
*END

*D_NET *510 0.000594284
*CONN
*I *3680:A I *D sky130_fd_sc_hd__buf_1
*I *3679:X O *D sky130_fd_sc_hd__mux2_2
*CAP
1 *3680:A 0.000226379
2 *3679:X 0.000226379
3 *3680:A *3679:A0 5.35386e-05
4 *3680:A *3679:A1 9.44309e-06
5 *3439:S *3680:A 3.94857e-05
6 *3679:S *3680:A 1.6806e-05
7 *350:57 *3680:A 2.22526e-05
8 *366:16 *3680:A 0
*RES
1 *3679:X *3680:A 32.225 
*END

*D_NET *511 0.0021947
*CONN
*I *3682:A I *D sky130_fd_sc_hd__buf_1
*I *3681:X O *D sky130_fd_sc_hd__mux2_2
*CAP
1 *3682:A 0.000498695
2 *3681:X 0.000498695
3 *3682:A *3445:A2 0.000353288
4 *3682:A *3698:A0 0.000198691
5 *3682:A *3715:A0 0.00014852
6 *3682:A *3715:A1 7.58841e-05
7 *3682:A *3851:CLK 0.000125425
8 *3682:A *516:41 0
9 *3682:A *663:16 1.6815e-05
10 *3682:A *670:44 0.000138881
11 *3665:A *3682:A 6.49381e-05
12 *3851:D *3682:A 7.48644e-05
13 *479:8 *3682:A 0
*RES
1 *3681:X *3682:A 40.6179 
*END

*D_NET *512 0.00180112
*CONN
*I *3684:A I *D sky130_fd_sc_hd__buf_1
*I *3683:X O *D sky130_fd_sc_hd__mux2_2
*CAP
1 *3684:A 0.000308704
2 *3683:X 0.000308704
3 *3684:A *3454:S1 5.80706e-06
4 *3684:A *3455:S0 1.00375e-05
5 *3684:A *3683:A1 0.000395856
6 *3684:A *3717:A1 0.000265267
7 *3684:A *3719:S 0.000123769
8 *3684:A *525:86 0.000236209
9 *3684:A *690:14 1.50181e-05
10 *3684:A *690:16 6.16864e-05
11 *3684:A *725:59 7.00561e-05
*RES
1 *3683:X *3684:A 37.7071 
*END

*D_NET *513 0.000242253
*CONN
*I *3686:A I *D sky130_fd_sc_hd__buf_1
*I *3685:X O *D sky130_fd_sc_hd__mux2_2
*CAP
1 *3686:A 7.11337e-05
2 *3685:X 7.11337e-05
3 *3686:A *516:41 9.99853e-05
*RES
1 *3685:X *3686:A 20.2786 
*END

*D_NET *514 0.000996979
*CONN
*I *3688:A I *D sky130_fd_sc_hd__buf_1
*I *3687:X O *D sky130_fd_sc_hd__mux2_2
*CAP
1 *3688:A 0.000246206
2 *3687:X 0.000246206
3 *3688:A *3470:S0 0.000119679
4 *3688:A *3854:CLK 5.52302e-05
5 *3688:A *3862:CLK 0.000189583
6 *3688:A *562:204 4.60232e-06
7 *3688:A *600:25 4.38128e-05
8 *507:30 *3688:A 9.16602e-05
*RES
1 *3687:X *3688:A 32.2875 
*END

*D_NET *515 0.00167798
*CONN
*I *3690:A I *D sky130_fd_sc_hd__buf_1
*I *3689:X O *D sky130_fd_sc_hd__mux2_2
*CAP
1 *3690:A 0.000446575
2 *3689:X 0.000446575
3 *3690:A *567:8 0
4 *350:57 *3690:A 0.000784829
*RES
1 *3689:X *3690:A 38.0464 
*END

*D_NET *516 0.0325489
*CONN
*I *3704:S I *D sky130_fd_sc_hd__mux2_2
*I *3694:S I *D sky130_fd_sc_hd__mux2_2
*I *3692:S I *D sky130_fd_sc_hd__mux2_2
*I *3702:S I *D sky130_fd_sc_hd__mux2_2
*I *3700:S I *D sky130_fd_sc_hd__mux2_2
*I *3706:S I *D sky130_fd_sc_hd__mux2_2
*I *3696:S I *D sky130_fd_sc_hd__mux2_2
*I *3698:S I *D sky130_fd_sc_hd__mux2_2
*I *3691:X O *D sky130_fd_sc_hd__and4bb_2
*CAP
1 *3704:S 1.91978e-05
2 *3694:S 0
3 *3692:S 0.00148712
4 *3702:S 9.12256e-05
5 *3700:S 0
6 *3706:S 0.000447806
7 *3696:S 0.000222142
8 *3698:S 4.48468e-05
9 *3691:X 4.13047e-05
10 *516:109 0.00296638
11 *516:105 0.00246322
12 *516:57 0.00182706
13 *516:51 0.00216079
14 *516:41 0.00205573
15 *516:24 0.00385573
16 *516:8 0.00385612
17 *3692:S *3419:A0 5.33005e-05
18 *3692:S *3419:A1 0.000210203
19 *3692:S *3419:A3 0.000134362
20 *3692:S *3419:S0 0.000456546
21 *3692:S *3419:S1 3.11088e-05
22 *3692:S *3429:A2 0.000130733
23 *3692:S *3692:A0 0.000112962
24 *3692:S *3709:A1 3.02892e-05
25 *3692:S *562:75 6.23278e-05
26 *3692:S *689:25 9.45241e-05
27 *3692:S *690:14 9.84673e-05
28 *3696:S *3696:A1 1.21258e-05
29 *3698:S *3698:A1 9.60939e-05
30 *3702:S *3719:A0 3.27526e-05
31 *3706:S *3679:A0 0
32 *3706:S *3706:A0 1.00887e-05
33 *3706:S *684:48 0.000375895
34 *3706:S *684:50 0.000103041
35 *3706:S *830:10 0
36 *516:8 *3691:D 2.42516e-05
37 *516:24 *3715:S 0.000149194
38 *516:24 *663:16 0.000142837
39 *516:24 *672:14 0.000396504
40 *516:41 *3668:A1 0.000600577
41 *516:41 *3698:A0 0
42 *516:41 *3827:CLK 9.90431e-05
43 *516:41 *598:16 9.90367e-05
44 *516:41 *723:66 9.41642e-05
45 *516:51 *3650:A0 4.46186e-06
46 *516:51 *3666:A0 2.44318e-05
47 *516:51 *3666:A1 0.000689222
48 *516:51 *3666:S 0.000317082
49 *516:51 *3700:A0 3.18676e-05
50 *516:51 *633:25 0
51 *516:57 *3666:A1 5.52302e-05
52 *516:57 *3700:A0 2.89114e-05
53 *516:57 *3701:A 9.99853e-05
54 *516:57 *684:50 5.41054e-05
55 *516:57 *822:10 1.60719e-05
56 *516:57 *830:10 0
57 *516:105 *3469:S0 5.50052e-05
58 *516:105 *3691:B_N 9.8126e-05
59 *516:105 *663:16 0.00014615
60 *516:105 *691:12 8.36572e-05
61 *516:105 *691:16 0.000219696
62 *516:109 *3429:A1 9.41642e-05
63 *516:109 *3429:A2 0.000169277
64 *516:109 *3704:A1 5.50052e-05
65 *516:109 *691:16 0.000364897
66 *516:109 *821:10 1.21258e-05
67 *3439:A1 *516:57 0
68 *3440:A1 *3706:S 0.000107845
69 *3498:S *3706:S 0.000199782
70 *3617:A *516:51 0
71 *3648:S *516:51 8.50152e-05
72 *3651:A *516:51 4.74079e-05
73 *3654:S *3696:S 6.05161e-06
74 *3667:A *516:51 8.35655e-05
75 *3682:A *516:41 0
76 *3685:S *516:41 0.000394712
77 *3686:A *516:41 9.99853e-05
78 *3841:D *516:109 0.000447058
79 *3842:D *516:57 0.000603561
80 *3846:D *516:105 9.81617e-05
81 *3853:D *3702:S 1.9245e-05
82 *3859:D *516:41 8.65694e-05
83 *3860:D *516:57 1.48543e-05
84 *3864:D *3692:S 0.000357426
85 *3866:D *3696:S 2.89114e-05
86 *4111:A *3698:S 9.41642e-05
87 *4111:A *516:24 0.000214195
88 *202:56 *516:24 1.22852e-05
89 *202:56 *516:105 1.34741e-05
90 *202:65 *516:105 1.25275e-05
91 *366:16 *516:57 0
92 *479:8 *3698:S 1.90936e-05
93 *479:8 *516:24 0.000352669
94 *479:8 *516:41 0.000244412
95 *498:16 *516:8 1.24368e-05
96 *507:30 *516:8 4.82865e-05
97 *507:114 *516:24 0.00103658
*RES
1 *3691:X *516:8 14.7464 
2 *516:8 *516:24 20.5219 
3 *516:24 *3698:S 15.0232 
4 *516:24 *516:41 25.1875 
5 *516:41 *516:51 29.1429 
6 *516:51 *516:57 25.4107 
7 *516:57 *3696:S 17.2107 
8 *516:57 *3706:S 25.7643 
9 *516:51 *3700:S 9.3 
10 *516:41 *3702:S 19.9429 
11 *516:8 *516:105 18.3571 
12 *516:105 *516:109 19.0357 
13 *516:109 *3692:S 44.4429 
14 *516:109 *3694:S 9.3 
15 *516:105 *3704:S 9.72857 
*END

*D_NET *517 0.000109884
*CONN
*I *3693:A I *D sky130_fd_sc_hd__buf_2
*I *3692:X O *D sky130_fd_sc_hd__mux2_2
*CAP
1 *3693:A 5.49421e-05
2 *3692:X 5.49421e-05
*RES
1 *3692:X *3693:A 19.4661 
*END

*D_NET *518 0.000261443
*CONN
*I *3695:A I *D sky130_fd_sc_hd__buf_2
*I *3694:X O *D sky130_fd_sc_hd__mux2_2
*CAP
1 *3695:A 0.0001048
2 *3694:X 0.0001048
3 *3695:A *3675:A1 0
4 *3695:A *3712:A 0
5 *3695:A *3865:CLK 1.02504e-05
6 *3857:D *3695:A 4.15914e-05
*RES
1 *3694:X *3695:A 29.5464 
*END

*D_NET *519 0.000294302
*CONN
*I *3697:A I *D sky130_fd_sc_hd__buf_2
*I *3696:X O *D sky130_fd_sc_hd__mux2_2
*CAP
1 *3697:A 5.71443e-05
2 *3696:X 5.71443e-05
3 *3654:S *3697:A 0.000180014
*RES
1 *3696:X *3697:A 20.2875 
*END

*D_NET *520 0.000298153
*CONN
*I *3699:A I *D sky130_fd_sc_hd__buf_2
*I *3698:X O *D sky130_fd_sc_hd__mux2_2
*CAP
1 *3699:A 5.50921e-05
2 *3698:X 5.50921e-05
3 *3699:A *670:44 0.000159067
4 *488:88 *3699:A 2.89016e-05
*RES
1 *3698:X *3699:A 20.2786 
*END

*D_NET *521 0.000242253
*CONN
*I *3701:A I *D sky130_fd_sc_hd__buf_2
*I *3700:X O *D sky130_fd_sc_hd__mux2_2
*CAP
1 *3701:A 7.11337e-05
2 *3700:X 7.11337e-05
3 *516:57 *3701:A 9.99853e-05
*RES
1 *3700:X *3701:A 20.2786 
*END

*D_NET *522 0.000532472
*CONN
*I *3703:A I *D sky130_fd_sc_hd__buf_2
*I *3702:X O *D sky130_fd_sc_hd__mux2_2
*CAP
1 *3703:A 0.000237708
2 *3702:X 0.000237708
3 *3703:A *3702:A0 0
4 *3703:A *3720:A 0
5 *3703:A *633:25 0
6 *3703:A *663:43 5.70551e-05
*RES
1 *3702:X *3703:A 31.3143 
*END

*D_NET *523 0.00105475
*CONN
*I *3705:A I *D sky130_fd_sc_hd__buf_2
*I *3704:X O *D sky130_fd_sc_hd__mux2_2
*CAP
1 *3705:A 0.000307325
2 *3704:X 0.000307325
3 *3705:A *4052:A 0.000308213
4 *3705:A *599:8 1.19472e-05
5 *3705:A *599:18 7.35779e-05
6 *3862:D *3705:A 4.6361e-05
*RES
1 *3704:X *3705:A 35.3143 
*END

*D_NET *524 0.000942924
*CONN
*I *3707:A I *D sky130_fd_sc_hd__buf_2
*I *3706:X O *D sky130_fd_sc_hd__mux2_2
*CAP
1 *3707:A 0.000372093
2 *3706:X 0.000372093
3 *3707:A *3706:A0 0
4 *3707:A *684:31 0
5 *3707:A *684:48 0
6 *3480:A1 *3707:A 0
7 *3498:S *3707:A 0
8 *3863:D *3707:A 0.000198738
*RES
1 *3706:X *3707:A 35.3143 
*END

*D_NET *525 0.0241561
*CONN
*I *3721:S I *D sky130_fd_sc_hd__mux2_2
*I *3711:S I *D sky130_fd_sc_hd__mux2_2
*I *3717:S I *D sky130_fd_sc_hd__mux2_2
*I *3719:S I *D sky130_fd_sc_hd__mux2_2
*I *3723:S I *D sky130_fd_sc_hd__mux2_2
*I *3713:S I *D sky130_fd_sc_hd__mux2_2
*I *3709:S I *D sky130_fd_sc_hd__mux2_2
*I *3715:S I *D sky130_fd_sc_hd__mux2_2
*I *3708:Y O *D sky130_fd_sc_hd__nand3b_2
*CAP
1 *3721:S 0.000557566
2 *3711:S 0
3 *3717:S 0
4 *3719:S 0.00102134
5 *3723:S 0.000270979
6 *3713:S 0.000109866
7 *3709:S 0.000696256
8 *3715:S 0.000394407
9 *3708:Y 0.000619305
10 *525:86 0.00120097
11 *525:62 0.000961985
12 *525:60 0.00176877
13 *525:45 0.00217774
14 *525:39 0.00186338
15 *525:29 0.00289908
16 *525:8 0.00196534
17 *3709:S *625:82 0.000497166
18 *3715:S *3715:A0 3.23206e-05
19 *3715:S *3715:A1 1.83136e-05
20 *3715:S *663:16 0.000450718
21 *3715:S *721:12 1.50087e-05
22 *3719:S *3437:S0 5.33334e-05
23 *3719:S *3719:A0 2.07878e-05
24 *3719:S *3719:A1 0.000182598
25 *3719:S *590:6 0.000139913
26 *3719:S *590:25 0.000170385
27 *3719:S *690:14 6.17846e-05
28 *3721:S *3469:A1 7.93793e-05
29 *3721:S *3469:S0 0.000172635
30 *3721:S *3704:A0 5.06863e-05
31 *3721:S *3721:A1 0
32 *3721:S *3877:CLK 0
33 *3721:S *4019:A 0.00014285
34 *3721:S *674:8 0
35 *3721:S *685:10 0.000134726
36 *3721:S *685:18 5.07263e-06
37 *3721:S *721:64 0
38 *3721:S *834:10 6.87672e-05
39 *3721:S *842:8 5.85373e-05
40 *525:8 *3238:A3 0.000354056
41 *525:8 *707:41 0.000177053
42 *525:29 *663:16 0.00020943
43 *525:29 *685:18 4.64488e-06
44 *525:29 *721:64 0
45 *525:39 *834:10 0.000310286
46 *525:45 *3711:A1 5.49995e-05
47 *525:45 *623:71 0.000122317
48 *525:60 *3658:A1 3.54498e-05
49 *525:60 *3672:A1 2.55698e-05
50 *525:60 *3689:A0 0
51 *525:60 *690:14 0
52 *525:62 *3977:A 0.000101859
53 *525:62 *594:10 5.33005e-05
54 *525:86 *3683:A1 4.37451e-05
55 *525:86 *690:14 0.000106027
56 *3622:D_N *3715:S 8.32242e-05
57 *3622:D_N *525:29 0.000187726
58 *3626:A *525:60 0
59 *3672:S *525:60 0.000308123
60 *3684:A *3719:S 0.000123769
61 *3684:A *525:86 0.000236209
62 *3766:D *3715:S 0.000154762
63 *3825:D *525:60 0.000204302
64 *3848:D *3709:S 1.64343e-05
65 *3851:D *3715:S 6.13903e-05
66 *4081:A *3715:S 3.34295e-05
67 *4081:A *525:29 0.000288557
68 *202:104 *525:29 0.000352362
69 *350:26 *525:60 0.00014925
70 *352:44 *3721:S 4.46186e-06
71 *366:16 *3713:S 9.84673e-05
72 *479:8 *3715:S 0.00107209
73 *498:38 *3709:S 1.99271e-05
74 *498:38 *525:45 0.000145921
75 *498:38 *525:60 5.79582e-06
76 *507:46 *525:39 0
77 *516:24 *3715:S 0.000149194
*RES
1 *3708:Y *525:8 21.7286 
2 *525:8 *3715:S 29.6393 
3 *525:8 *525:29 15.6846 
4 *525:29 *525:39 34.5714 
5 *525:39 *525:45 7.25 
6 *525:45 *3709:S 18.4786 
7 *525:45 *525:60 30.375 
8 *525:60 *525:62 9.98214 
9 *525:62 *3713:S 11.4786 
10 *525:62 *3723:S 23.2821 
11 *525:60 *525:86 9.125 
12 *525:86 *3719:S 31.5857 
13 *525:86 *3717:S 13.8 
14 *525:39 *3711:S 9.3 
15 *525:29 *3721:S 26.5143 
*END

*D_NET *526 0.000802426
*CONN
*I *3710:A I *D sky130_fd_sc_hd__buf_1
*I *3709:X O *D sky130_fd_sc_hd__mux2_2
*CAP
1 *3710:A 0.000162821
2 *3709:X 0.000162821
3 *3710:A *3419:A3 4.50606e-05
4 *3710:A *3709:A1 0.000101813
5 *3710:A *562:75 0
6 *3710:A *625:65 1.84776e-05
7 *3422:S *3710:A 0.000311434
*RES
1 *3709:X *3710:A 32.2071 
*END

*D_NET *527 0.00172452
*CONN
*I *3712:A I *D sky130_fd_sc_hd__buf_1
*I *3711:X O *D sky130_fd_sc_hd__mux2_2
*CAP
1 *3712:A 0.000604406
2 *3711:X 0.000604406
3 *3712:A *3694:A1 0.00026637
4 *3712:A *3865:CLK 0
5 *3712:A *544:116 5.80706e-06
6 *3712:A *837:12 8.9047e-06
7 *3678:A *3712:A 0
8 *3695:A *3712:A 0
9 *3857:D *3712:A 0
10 *3865:D *3712:A 5.01213e-05
11 *498:38 *3712:A 0.000184503
*RES
1 *3711:X *3712:A 38.2964 
*END

*D_NET *528 0.00139227
*CONN
*I *3714:A I *D sky130_fd_sc_hd__buf_1
*I *3713:X O *D sky130_fd_sc_hd__mux2_2
*CAP
1 *3714:A 0.000264725
2 *3713:X 0.000264725
3 *3714:A *3713:A0 0.00029656
4 *3714:A *621:16 5.91569e-05
5 *3714:A *621:96 0.000211292
6 *3714:A *684:48 0.000168419
7 *3714:A *684:50 0.000117144
8 *3663:A *3714:A 1.02504e-05
*RES
1 *3713:X *3714:A 36.0643 
*END

*D_NET *529 0.000623039
*CONN
*I *3716:A I *D sky130_fd_sc_hd__buf_1
*I *3715:X O *D sky130_fd_sc_hd__mux2_2
*CAP
1 *3716:A 0.000204897
2 *3715:X 0.000204897
3 *3716:A *685:73 9.58632e-05
4 *3867:D *3716:A 0.000117381
*RES
1 *3715:X *3716:A 22.7429 
*END

*D_NET *530 0.00081418
*CONN
*I *3718:A I *D sky130_fd_sc_hd__buf_1
*I *3717:X O *D sky130_fd_sc_hd__mux2_2
*CAP
1 *3718:A 0.000223103
2 *3717:X 0.000223103
3 *3718:A *3437:S0 9.99853e-05
4 *3718:A *594:10 0.000214689
5 *3456:A0 *3718:A 5.33005e-05
*RES
1 *3717:X *3718:A 31.9393 
*END

*D_NET *531 0.00120621
*CONN
*I *3720:A I *D sky130_fd_sc_hd__buf_1
*I *3719:X O *D sky130_fd_sc_hd__mux2_2
*CAP
1 *3720:A 0.000374366
2 *3719:X 0.000374366
3 *3720:A *3702:A0 8.45624e-05
4 *3720:A *3719:A1 0.000103437
5 *3720:A *562:214 5.20751e-05
6 *3720:A *633:25 0
7 *3720:A *849:10 0.000165323
8 *3703:A *3720:A 0
9 *350:26 *3720:A 5.20751e-05
*RES
1 *3719:X *3720:A 36.2607 
*END

*D_NET *532 0.000738816
*CONN
*I *3722:A I *D sky130_fd_sc_hd__buf_1
*I *3721:X O *D sky130_fd_sc_hd__mux2_2
*CAP
1 *3722:A 0.000257966
2 *3721:X 0.000257966
3 *3722:A *4052:A 0.000222885
*RES
1 *3721:X *3722:A 32.6357 
*END

*D_NET *533 0.00277241
*CONN
*I *3724:A I *D sky130_fd_sc_hd__buf_1
*I *3723:X O *D sky130_fd_sc_hd__mux2_2
*CAP
1 *3724:A 0.000957035
2 *3723:X 0.000957035
3 *3724:A *3723:A1 0
4 *3724:A *3863:CLK 0.000395427
5 *3724:A *3871:CLK 0.000148153
6 *3724:A *3988:A 0.000120645
7 *3724:A *592:16 1.58163e-05
8 *3724:A *719:75 1.84776e-05
9 *3724:A *851:8 0
10 *3440:A1 *3724:A 0.000101777
11 *3871:D *3724:A 5.80423e-05
*RES
1 *3723:X *3724:A 44.9036 
*END

*D_NET *534 0.0016716
*CONN
*I *3726:A I *D sky130_fd_sc_hd__clkbuf_1
*I *3725:X O *D sky130_fd_sc_hd__and3b_2
*CAP
1 *3726:A 0.000570907
2 *3725:X 0.000570907
3 *3726:A *3534:A 2.69099e-05
4 *3726:A *535:8 1.93525e-05
5 *3726:A *535:18 0.000141734
6 *3726:A *562:347 0
7 *3448:A0 *3726:A 0.000341788
8 *3535:A *3726:A 0
*RES
1 *3725:X *3726:A 37.9571 
*END

*D_NET *535 0.0110858
*CONN
*I *4079:A I *D sky130_fd_sc_hd__buf_2
*I *3733:S I *D sky130_fd_sc_hd__mux2_2
*I *3739:S I *D sky130_fd_sc_hd__mux2_2
*I *3729:S I *D sky130_fd_sc_hd__mux2_2
*I *3726:X O *D sky130_fd_sc_hd__clkbuf_1
*CAP
1 *4079:A 0
2 *3733:S 0
3 *3739:S 0.000425971
4 *3729:S 0.00128568
5 *3726:X 6.30021e-05
6 *535:26 0.00257321
7 *535:18 0.00128876
8 *535:8 0.000490209
9 *3729:S *3729:A1 3.50166e-05
10 *3729:S *620:70 0.000137639
11 *3729:S *699:52 1.32056e-05
12 *3739:S *3466:S0 0.000365732
13 *3739:S *3468:S 5.33433e-05
14 *3739:S *858:10 0
15 *535:18 *3733:A0 5.49995e-05
16 *535:18 *571:8 0
17 *535:18 *662:12 0.000251742
18 *535:26 *3442:S0 0.000821176
19 *535:26 *3443:A2 3.75959e-05
20 *535:26 *3466:S0 6.20706e-05
21 *535:26 *3733:A0 0.000141786
22 *535:26 *3787:CLK 0.000160507
23 *535:26 *620:42 0.000102089
24 *535:26 *687:78 8.95645e-05
25 *535:26 *791:10 0.00015078
26 *3468:A0 *3739:S 9.90431e-05
27 *3520:S *3729:S 0.000305614
28 *3561:A *3739:S 1.12645e-05
29 *3726:A *535:8 1.93525e-05
30 *3726:A *535:18 0.000141734
31 *3787:D *535:26 0
32 *3795:D *3739:S 7.58841e-05
33 *3795:D *535:26 0.000409313
34 *3811:D *3729:S 9.59189e-06
35 *4084:A *535:26 5.49995e-05
36 *413:54 *535:26 0.000195443
37 *422:10 *535:18 0
38 *422:10 *535:26 1.6806e-05
39 *422:29 *535:26 0.00114263
40 *442:24 *535:26 0
41 *442:37 *3739:S 0
*RES
1 *3726:X *535:8 10.5679 
2 *535:8 *535:18 17.9643 
3 *535:18 *535:26 33.3571 
4 *535:26 *3729:S 30.5143 
5 *535:26 *3739:S 23.675 
6 *535:18 *3733:S 9.3 
7 *535:8 *4079:A 9.3 
*END

*D_NET *536 0.000322314
*CONN
*I *3728:A I *D sky130_fd_sc_hd__buf_1
*I *3727:X O *D sky130_fd_sc_hd__mux2_2
*CAP
1 *3728:A 8.9729e-05
2 *3727:X 8.9729e-05
3 *3728:A *626:18 0.000142856
*RES
1 *3727:X *3728:A 20.6893 
*END

*D_NET *537 0.00141754
*CONN
*I *3730:A I *D sky130_fd_sc_hd__buf_1
*I *3729:X O *D sky130_fd_sc_hd__mux2_2
*CAP
1 *3730:A 0.000285285
2 *3729:X 0.000285285
3 *3730:A *3428:S 0.000225719
4 *3730:A *630:14 0.000429972
5 *3730:A *681:124 0.00014589
6 *3873:D *3730:A 4.53889e-05
*RES
1 *3729:X *3730:A 35.3679 
*END

*D_NET *538 0.000750419
*CONN
*I *3732:A I *D sky130_fd_sc_hd__buf_1
*I *3731:X O *D sky130_fd_sc_hd__mux2_2
*CAP
1 *3732:A 0.000298682
2 *3731:X 0.000298682
3 *3732:A *662:59 0
4 *347:10 *3732:A 0.000153054
*RES
1 *3731:X *3732:A 32.9571 
*END

*D_NET *539 0.000727476
*CONN
*I *3734:A I *D sky130_fd_sc_hd__buf_1
*I *3733:X O *D sky130_fd_sc_hd__mux2_2
*CAP
1 *3734:A 0.000285167
2 *3733:X 0.000285167
3 *3734:A *3442:A2 3.45899e-05
4 *3734:A *3751:A 9.15842e-06
5 *3734:A *668:12 2.46444e-05
6 *3875:D *3734:A 3.75959e-05
7 *4084:A *3734:A 4.59064e-05
8 *413:54 *3734:A 5.24684e-06
*RES
1 *3733:X *3734:A 31.7518 
*END

*D_NET *540 0.000976509
*CONN
*I *3736:A I *D sky130_fd_sc_hd__buf_1
*I *3735:X O *D sky130_fd_sc_hd__mux2_2
*CAP
1 *3736:A 0.000286372
2 *3735:X 0.000286372
3 *3736:A *3509:A1 0.000104379
4 *3736:A *3526:S 0.000150458
5 *3736:A *628:22 0.000148928
*RES
1 *3735:X *3736:A 32.5464 
*END

*D_NET *541 0.000550325
*CONN
*I *3738:A I *D sky130_fd_sc_hd__buf_1
*I *3737:X O *D sky130_fd_sc_hd__mux2_2
*CAP
1 *3738:A 0.000136603
2 *3737:X 0.000136603
3 *3738:A *687:78 0.000277118
*RES
1 *3737:X *3738:A 21.9214 
*END

*D_NET *542 0.000263172
*CONN
*I *3740:A I *D sky130_fd_sc_hd__buf_1
*I *3739:X O *D sky130_fd_sc_hd__mux2_2
*CAP
1 *3740:A 0.000105916
2 *3739:X 0.000105916
3 *3740:A *3468:S 5.13406e-05
*RES
1 *3739:X *3740:A 20.6893 
*END

*D_NET *543 0.00106136
*CONN
*I *3742:A I *D sky130_fd_sc_hd__buf_1
*I *3741:X O *D sky130_fd_sc_hd__mux2_2
*CAP
1 *3742:A 0.000338074
2 *3741:X 0.000338074
3 *3742:A *3735:S 4.1331e-06
4 *3742:A *662:59 0.00015309
5 *347:10 *3742:A 0.000227989
*RES
1 *3741:X *3742:A 35.3679 
*END

*D_NET *544 0.0390316
*CONN
*I *3756:S I *D sky130_fd_sc_hd__mux2_2
*I *3750:S I *D sky130_fd_sc_hd__mux2_2
*I *3754:S I *D sky130_fd_sc_hd__mux2_2
*I *3746:S I *D sky130_fd_sc_hd__mux2_2
*I *3744:S I *D sky130_fd_sc_hd__mux2_2
*I *3748:S I *D sky130_fd_sc_hd__mux2_2
*I *3758:S I *D sky130_fd_sc_hd__mux2_2
*I *3752:S I *D sky130_fd_sc_hd__mux2_2
*I *3743:X O *D sky130_fd_sc_hd__and4bb_2
*CAP
1 *3756:S 0.00159224
2 *3750:S 0.00037211
3 *3754:S 0.00011127
4 *3746:S 0
5 *3744:S 0.000752783
6 *3748:S 4.86049e-05
7 *3758:S 0
8 *3752:S 0
9 *3743:X 0.000785237
10 *544:138 0.00298252
11 *544:116 0.00143299
12 *544:78 0.00147559
13 *544:61 0.00176802
14 *544:38 0.00250239
15 *544:32 0.00374779
16 *544:22 0.00223674
17 *544:16 0.00302265
18 *3744:S *3416:A2 0.000202842
19 *3744:S *3501:A0 0.000198705
20 *3744:S *3518:S 0
21 *3744:S *3744:A0 0.000101771
22 *3744:S *3744:A1 5.50052e-05
23 *3744:S *3872:CLK 0.000559409
24 *3744:S *628:14 0.000149113
25 *3744:S *628:20 0
26 *3744:S *756:12 5.01117e-05
27 *3748:S *622:14 1.4796e-05
28 *3748:S *622:23 5.49995e-05
29 *3750:S *3750:A0 0.000141131
30 *3750:S *3750:A1 5.75417e-05
31 *3750:S *571:8 1.90936e-05
32 *3750:S *687:54 0
33 *3754:S *3754:A1 9.9129e-05
34 *3754:S *4013:A 0
35 *3754:S *562:37 5.20669e-05
36 *3754:S *681:44 0.000133667
37 *3756:S *3443:S1 2.06178e-05
38 *3756:S *4049:A 0.00254272
39 *544:16 *3552:A_N 4.38265e-05
40 *544:16 *4049:A 0.000194992
41 *544:16 *562:302 4.07123e-05
42 *544:16 *701:10 0
43 *544:16 *703:12 1.00399e-05
44 *544:16 *869:40 5.56181e-05
45 *544:22 *681:44 0.000151658
46 *544:32 *3432:A1 0.000117621
47 *544:32 *4013:A 0
48 *544:32 *4019:A 0.000657232
49 *544:32 *681:44 1.94945e-05
50 *544:32 *681:58 0.000149091
51 *544:38 *3526:A0 0.000318316
52 *544:38 *3526:A1 2.72449e-05
53 *544:38 *618:25 3.34366e-05
54 *544:38 *681:58 0.000410206
55 *544:61 *3450:A1 0.000106542
56 *544:61 *3450:S0 0
57 *544:61 *3450:S1 0.000176234
58 *544:61 *3735:A0 0.000127939
59 *544:61 *3758:A0 0.000315339
60 *544:61 *3815:CLK 8.61138e-05
61 *544:61 *618:25 0.000323594
62 *544:61 *648:12 0
63 *544:61 *720:36 2.13481e-06
64 *544:61 *867:8 4.38511e-05
65 *544:78 *3748:A0 2.59355e-05
66 *544:78 *3758:A0 8.43535e-06
67 *544:78 *3759:A 5.52238e-05
68 *544:78 *3872:CLK 0.000169095
69 *544:78 *622:14 9.85599e-06
70 *544:78 *628:20 6.88014e-05
71 *544:78 *628:22 0.000456381
72 *544:78 *636:17 8.24047e-05
73 *544:78 *668:41 0.000153047
74 *544:116 *3477:A1 0.000447893
75 *544:116 *3746:A1 6.71327e-05
76 *544:116 *3788:CLK 7.252e-05
77 *544:116 *3810:CLK 7.80386e-05
78 *544:116 *3865:CLK 7.67221e-05
79 *544:116 *586:10 7.82734e-05
80 *544:116 *779:10 0
81 *544:138 *4049:A 0.0006842
82 *3440:A0 *544:38 0.000213767
83 *3440:A1 *544:38 9.90367e-05
84 *3440:S *544:38 0.00014285
85 *3441:A *544:38 3.20153e-05
86 *3464:A0 *544:32 5.45727e-06
87 *3468:A1 *3756:S 0.000208742
88 *3475:B *544:61 0.000105604
89 *3477:A2 *544:116 0
90 *3540:S *544:116 0.00060908
91 *3544:S *544:116 0.000598871
92 *3545:A *544:116 0.000338693
93 *3551:A *544:116 0.000147753
94 *3712:A *544:116 5.80706e-06
95 *3769:D *544:116 0.000144732
96 *3788:D *544:116 0.000123295
97 *3849:D *544:32 5.52302e-05
98 *3872:D *3744:S 0
99 *3879:D *544:61 0.000240487
100 *347:10 *544:38 0
101 *347:10 *544:61 9.36033e-05
102 *360:14 *544:116 0
103 *413:108 *3744:S 0.000440505
104 *413:108 *544:78 0.000114855
105 *413:112 *544:78 0
106 *432:30 *3750:S 0
107 *432:47 *544:116 0.000165269
108 *461:18 *544:22 0.00189298
109 *461:18 *544:32 0
110 *507:12 *544:16 2.09956e-05
111 *507:30 *544:16 3.10745e-06
*RES
1 *3743:X *544:16 23.4321 
2 *544:16 *544:22 10.2902 
3 *544:22 *544:32 21.7411 
4 *544:32 *544:38 31.7857 
5 *544:38 *3752:S 13.8 
6 *544:38 *544:61 31.5536 
7 *544:61 *3758:S 9.3 
8 *544:61 *544:78 25.7143 
9 *544:78 *3748:S 10.2464 
10 *544:78 *3744:S 38.1929 
11 *544:32 *544:116 46.5357 
12 *544:116 *3746:S 9.3 
13 *544:22 *3754:S 16.5411 
14 *544:16 *544:138 2.94847 
15 *544:138 *3750:S 24.2139 
16 *544:138 *3756:S 28.7821 
*END

*D_NET *545 0.000242253
*CONN
*I *3745:A I *D sky130_fd_sc_hd__buf_1
*I *3744:X O *D sky130_fd_sc_hd__mux2_2
*CAP
1 *3745:A 7.11337e-05
2 *3744:X 7.11337e-05
3 *3745:A *628:14 9.99853e-05
*RES
1 *3744:X *3745:A 20.2786 
*END

*D_NET *546 0.0029986
*CONN
*I *3747:A I *D sky130_fd_sc_hd__buf_1
*I *3746:X O *D sky130_fd_sc_hd__mux2_2
*CAP
1 *3747:A 0.000655617
2 *3746:X 0.000655617
3 *3747:A *3426:S0 0
4 *3747:A *3503:A0 0.000462033
5 *3747:A *3746:A0 1.69032e-05
6 *3747:A *3746:A1 1.84776e-05
7 *3747:A *3881:CLK 1.84776e-05
8 *3747:A *624:42 3.78846e-05
9 *3747:A *686:10 3.06406e-05
10 *3747:A *749:10 0.000259326
11 *3881:D *3747:A 0.000108163
12 *356:14 *3747:A 0.000735457
*RES
1 *3746:X *3747:A 43.4929 
*END

*D_NET *547 0.000321494
*CONN
*I *3749:A I *D sky130_fd_sc_hd__buf_1
*I *3748:X O *D sky130_fd_sc_hd__mux2_2
*CAP
1 *3749:A 9.02291e-05
2 *3748:X 9.02291e-05
3 *3749:A *3748:A0 0.000141036
*RES
1 *3748:X *3749:A 20.6893 
*END

*D_NET *548 0.00190234
*CONN
*I *3751:A I *D sky130_fd_sc_hd__buf_1
*I *3750:X O *D sky130_fd_sc_hd__mux2_2
*CAP
1 *3751:A 0.000714217
2 *3750:X 0.000714217
3 *3751:A *3442:A2 2.99064e-05
4 *3751:A *3750:A1 7.70505e-05
5 *3751:A *3883:CLK 5.62365e-05
6 *3751:A *620:22 7.16085e-05
7 *3751:A *729:78 9.84673e-05
8 *3734:A *3751:A 9.15842e-06
9 *3883:D *3751:A 8.11485e-05
10 *395:16 *3751:A 5.03296e-05
*RES
1 *3750:X *3751:A 37.6 
*END

*D_NET *549 0.00226081
*CONN
*I *3753:A I *D sky130_fd_sc_hd__buf_1
*I *3752:X O *D sky130_fd_sc_hd__mux2_2
*CAP
1 *3753:A 0.000356448
2 *3752:X 0.000356448
3 *3753:A *3752:A0 0.000132938
4 *3753:A *3856:CLK 0.00017875
5 *3753:A *628:22 0.00050705
6 *3753:A *631:28 0.000113064
7 *3425:A *3753:A 0.00021698
8 *3441:A *3753:A 0.000399137
*RES
1 *3752:X *3753:A 39.1982 
*END

*D_NET *550 0.00181333
*CONN
*I *3755:A I *D sky130_fd_sc_hd__buf_1
*I *3754:X O *D sky130_fd_sc_hd__mux2_2
*CAP
1 *3755:A 0.000520772
2 *3754:X 0.000520772
3 *3755:A *3754:A0 0.000174469
4 *3755:A *3781:CLK 0.000173614
5 *3755:A *4013:A 0
6 *3755:A *562:37 2.07878e-05
7 *3755:A *612:51 0.000157748
8 *3755:A *724:26 0.000141734
9 *3885:D *3755:A 0.000103437
*RES
1 *3754:X *3755:A 39.0821 
*END

*D_NET *551 0.000310118
*CONN
*I *3757:A I *D sky130_fd_sc_hd__buf_1
*I *3756:X O *D sky130_fd_sc_hd__mux2_2
*CAP
1 *3757:A 0.000134971
2 *3756:X 0.000134971
3 *3886:D *3757:A 4.01768e-05
*RES
1 *3756:X *3757:A 21.1 
*END

*D_NET *552 0.00160557
*CONN
*I *3759:A I *D sky130_fd_sc_hd__buf_1
*I *3758:X O *D sky130_fd_sc_hd__mux2_2
*CAP
1 *3759:A 0.000267164
2 *3758:X 0.000267164
3 *3759:A *3515:A0 0.000322366
4 *3759:A *3758:A0 1.98839e-05
5 *3759:A *628:22 0.000431497
6 *3759:A *668:41 4.35819e-05
7 *3759:A *755:10 0.000198691
8 *544:78 *3759:A 5.52238e-05
*RES
1 *3758:X *3759:A 35.3679 
*END

*D_NET *553 0.00206903
*CONN
*I *3368:B2 I *D sky130_fd_sc_hd__a32oi_2
*I *3383:A1 I *D sky130_fd_sc_hd__o2111a_2
*I *3889:Q O *D sky130_fd_sc_hd__dfrtp_2
*CAP
1 *3368:B2 0.000153239
2 *3383:A1 7.35895e-05
3 *3889:Q 0.000440752
4 *553:6 0.00066758
5 *553:6 *3380:A_N 2.59355e-05
6 *553:6 *3891:CLK 3.51226e-05
7 *3380:C *3383:A1 0.000272138
8 *3380:C *553:6 5.52413e-05
9 *3383:A2 *3368:B2 5.83768e-05
10 *312:6 *3368:B2 5.66971e-05
11 *312:6 *3383:A1 0.000230362
*RES
1 *3889:Q *553:6 14.3536 
2 *553:6 *3383:A1 12.6214 
3 *553:6 *3368:B2 20.8893 
*END

*D_NET *554 0.000903979
*CONN
*I *3368:A3 I *D sky130_fd_sc_hd__a32oi_2
*I *3380:A_N I *D sky130_fd_sc_hd__nand3b_2
*I *3890:Q O *D sky130_fd_sc_hd__dfrtp_2
*CAP
1 *3368:A3 7.74009e-05
2 *3380:A_N 2.3932e-05
3 *3890:Q 0.000106751
4 *554:10 0.000208084
5 *3368:A3 *3890:D 4.853e-05
6 *3380:A_N *3891:CLK 2.59355e-05
7 *554:10 *3890:D 1.78393e-05
8 *554:10 *3891:CLK 5.30737e-05
9 *3367:A1 *3368:A3 0.000168503
10 *3367:A1 *554:10 0.000147993
11 *553:6 *3380:A_N 2.59355e-05
*RES
1 *3890:Q *554:10 16.2821 
2 *554:10 *3380:A_N 14.3357 
3 *554:10 *3368:A3 16.05 
*END

*D_NET *555 0.000960156
*CONN
*I *3393:B1_N I *D sky130_fd_sc_hd__a21bo_2
*I *3377:A_N I *D sky130_fd_sc_hd__nand3b_2
*I *3891:Q O *D sky130_fd_sc_hd__dfrtp_2
*CAP
1 *3393:B1_N 1.5405e-05
2 *3377:A_N 0.000178729
3 *3891:Q 7.90072e-05
4 *555:10 0.000273141
5 *3377:B *3377:A_N 0.000108742
6 *3393:A1 *3377:A_N 9.90431e-05
7 *3393:A2 *3377:A_N 5.30479e-05
8 *3401:A1 *555:10 0
9 *3401:A2 *555:10 0.00015304
*RES
1 *3891:Q *555:10 20.2464 
2 *555:10 *3377:A_N 13.1571 
3 *555:10 *3393:B1_N 9.57679 
*END

*D_NET *556 0.000869543
*CONN
*I *3400:A I *D sky130_fd_sc_hd__or3_4
*I *3392:B1 I *D sky130_fd_sc_hd__o21ai_2
*I *3892:Q O *D sky130_fd_sc_hd__dfrtp_2
*CAP
1 *3400:A 0
2 *3392:B1 0.000125113
3 *3892:Q 0.000220831
4 *556:8 0.000345944
5 *556:8 *3892:CLK 9.90431e-05
6 *3392:A1 *3392:B1 2.14658e-05
7 *3400:C *3392:B1 5.71472e-05
*RES
1 *3892:Q *556:8 13.0321 
2 *556:8 *3392:B1 11.4964 
3 *556:8 *3400:A 9.3 
*END

*D_NET *557 0.000672774
*CONN
*I *3323:B I *D sky130_fd_sc_hd__nand2_2
*I *3894:Q O *D sky130_fd_sc_hd__dfrtp_2
*CAP
1 *3323:B 0.000155
2 *3894:Q 0.000155
3 *3308:A2_N *3323:B 0.000146991
4 *3327:B1 *3323:B 5.50052e-05
5 *3327:B2 *3323:B 0.000148651
6 *260:20 *3323:B 1.21258e-05
*RES
1 *3894:Q *3323:B 31.0286 
*END

*D_NET *558 0.0016221
*CONN
*I *3326:B1 I *D sky130_fd_sc_hd__o22ai_2
*I *3327:A1_N I *D sky130_fd_sc_hd__o2bb2ai_2
*I *3895:Q O *D sky130_fd_sc_hd__dfrtp_2
*CAP
1 *3326:B1 0.000237027
2 *3327:A1_N 9.33208e-05
3 *3895:Q 0.000118224
4 *558:10 0.000448572
5 *3326:B1 *3929:RESET_B 2.28378e-05
6 *3326:B1 *718:91 0.000115166
7 *558:10 *718:81 5.66971e-05
8 *558:10 *718:91 7.7939e-05
9 *3325:B1 *3326:B1 0.000225314
10 *3326:B2 *3326:B1 9.24491e-05
11 *3327:A2_N *3326:B1 0
12 *3327:B2 *3326:B1 0.000123944
13 *3327:B2 *558:10 1.0609e-05
*RES
1 *3895:Q *558:10 16.2821 
2 *558:10 *3327:A1_N 15.1571 
3 *558:10 *3326:B1 21.2107 
*END

*D_NET *559 0.000997788
*CONN
*I *3315:A I *D sky130_fd_sc_hd__nor2_2
*I *3328:A2 I *D sky130_fd_sc_hd__a21oi_2
*I *3896:Q O *D sky130_fd_sc_hd__dfrtp_2
*CAP
1 *3315:A 3.88021e-05
2 *3328:A2 0
3 *3896:Q 0.000426637
4 *559:12 0.000465439
5 *3315:B *3315:A 6.69094e-05
*RES
1 *3896:Q *559:12 24.55 
2 *559:12 *3328:A2 9.3 
3 *559:12 *3315:A 10.2643 
*END

*D_NET *560 0.00169752
*CONN
*I *3336:B1 I *D sky130_fd_sc_hd__a31oi_2
*I *3329:A2_N I *D sky130_fd_sc_hd__o2bb2ai_2
*I *3897:Q O *D sky130_fd_sc_hd__dfrtp_2
*CAP
1 *3336:B1 0.000294562
2 *3329:A2_N 0
3 *3897:Q 0.000148944
4 *560:8 0.000443506
5 *3336:B1 *3893:CLK 1.50087e-05
6 *3336:B1 *3900:CLK 5.80706e-06
7 *560:8 *3900:CLK 7.05143e-06
8 *560:8 *596:66 0.000165745
9 *3311:A *3336:B1 1.76039e-05
10 *3329:A1_N *3336:B1 0.000346639
11 *3329:B1 *3336:B1 4.97121e-06
12 *3329:B1 *560:8 4.79842e-05
13 *3338:A *3336:B1 0.000199699
14 *247:14 *560:8 0
*RES
1 *3897:Q *560:8 17.8714 
2 *560:8 *3329:A2_N 13.8 
3 *560:8 *3336:B1 21.675 
*END

*D_NET *561 0.00681804
*CONN
*I *3947:A I *D sky130_fd_sc_hd__clkbuf_16
*I *3946:A I *D sky130_fd_sc_hd__clkbuf_16
*I *3949:A I *D sky130_fd_sc_hd__clkbuf_16
*I *3948:A I *D sky130_fd_sc_hd__clkbuf_16
*I *3944:X O *D sky130_fd_sc_hd__clkbuf_16
*CAP
1 *3947:A 7.44121e-05
2 *3946:A 0.000125679
3 *3949:A 2.44413e-05
4 *3948:A 0.000134291
5 *3944:X 0
6 *561:73 0.000103823
7 *561:61 0.000162189
8 *561:59 0.000707813
9 *561:48 0.000741363
10 *561:35 0.000536755
11 *561:15 0.000280702
12 *561:13 0.001358
13 *561:6 0.000699271
14 *561:4 9.9471e-05
15 *3946:A *709:8 4.58194e-05
16 *3947:A *4038:A 5.39579e-05
17 *561:13 *3405:A 0
18 *561:59 *709:38 0.000361232
19 *3234:B *561:59 9.24299e-05
20 *3261:B *561:59 0
21 *3359:C *561:13 1.33329e-05
22 *3364:C1 *561:13 2.50593e-05
23 *3373:C *561:13 8.0025e-05
24 *3374:B *3948:A 2.65563e-07
25 *3374:B *561:15 2.89016e-05
26 *3374:C *3948:A 1.41736e-05
27 *3374:C *561:15 5.11686e-06
28 *3376:A1 *561:13 0.000270374
29 *3376:A2 *3948:A 3.13687e-05
30 *3386:A2 *561:13 1.59782e-05
31 *3387:B1 *561:35 0.000120112
32 *3387:B2 *561:35 2.95726e-05
33 *3391:A2 *561:35 5.80706e-06
34 *3407:B1 *561:59 0
35 *176:14 *561:13 0
36 *181:23 *561:13 0.000440311
37 *282:10 *561:13 9.96103e-05
38 *304:31 *561:13 0
39 *304:44 *561:13 0
40 *304:44 *561:35 0
41 *323:12 *3949:A 3.63822e-05
42 *323:12 *561:35 0
*RES
1 *3944:X *561:4 9.3 
2 *561:4 *561:6 4.5 
3 *561:6 *561:13 22.2321 
4 *561:13 *561:15 2.29911 
5 *561:15 *3948:A 11.6795 
6 *561:13 *561:35 13.4643 
7 *561:35 *3949:A 14.4116 
8 *561:4 *561:48 1.36161 
9 *561:48 *561:59 21.7455 
10 *561:59 *561:61 0.589286 
11 *561:61 *3946:A 11.0143 
12 *561:59 *561:73 0.477679 
13 *561:73 *3947:A 10.7152 
*END

*D_NET *562 0.03846
*CONN
*I *3954:A I *D sky130_fd_sc_hd__clkbuf_8
*I *3953:A I *D sky130_fd_sc_hd__clkbuf_8
*I *3956:A I *D sky130_fd_sc_hd__clkbuf_8
*I *3955:A I *D sky130_fd_sc_hd__clkbuf_8
*I *3952:A I *D sky130_fd_sc_hd__clkbuf_8
*I *3951:A I *D sky130_fd_sc_hd__clkbuf_8
*I *3964:A I *D sky130_fd_sc_hd__clkbuf_8
*I *3965:A I *D sky130_fd_sc_hd__clkbuf_8
*I *3959:A I *D sky130_fd_sc_hd__clkbuf_8
*I *3958:A I *D sky130_fd_sc_hd__clkbuf_8
*I *3963:A I *D sky130_fd_sc_hd__clkbuf_8
*I *3962:A I *D sky130_fd_sc_hd__clkbuf_8
*I *3961:A I *D sky130_fd_sc_hd__clkbuf_8
*I *3960:A I *D sky130_fd_sc_hd__clkbuf_8
*I *3957:A I *D sky130_fd_sc_hd__clkbuf_8
*I *3950:A I *D sky130_fd_sc_hd__clkbuf_8
*I *3945:X O *D sky130_fd_sc_hd__clkbuf_16
*CAP
1 *3954:A 0.000105742
2 *3953:A 3.7003e-05
3 *3956:A 3.336e-05
4 *3955:A 0.000108151
5 *3952:A 1.73943e-05
6 *3951:A 7.74533e-05
7 *3964:A 0
8 *3965:A 0
9 *3959:A 0
10 *3958:A 0
11 *3963:A 0
12 *3962:A 9.33013e-05
13 *3961:A 0
14 *3960:A 0
15 *3957:A 8.61686e-05
16 *3950:A 0
17 *3945:X 0.000163946
18 *562:347 0.000362853
19 *562:329 0.000351573
20 *562:308 0.000233347
21 *562:302 0.00227917
22 *562:289 0.00224752
23 *562:262 0.00125888
24 *562:248 0.00153259
25 *562:229 9.14545e-05
26 *562:224 0.000129377
27 *562:220 0.000148139
28 *562:214 0.000709749
29 *562:204 0.00236379
30 *562:176 0.000296123
31 *562:162 0.00160593
32 *562:137 0.00132793
33 *562:130 0.000111431
34 *562:126 0.000246978
35 *562:117 0.000338017
36 *562:110 0.000180485
37 *562:106 0.000859451
38 *562:81 0.000183514
39 *562:75 0.00131654
40 *562:69 0.00185977
41 *562:62 7.70414e-05
42 *562:60 8.96011e-05
43 *562:56 0.000409935
44 *562:47 0.000396624
45 *562:43 0.000178632
46 *562:37 0.00201263
47 *562:11 0.0033909
48 *562:6 0.000178754
49 *3951:A *568:8 5.67608e-05
50 *3952:A *3445:S0 3.20883e-05
51 *3952:A *3867:CLK 3.20883e-05
52 *3953:A *727:28 2.12503e-05
53 *3954:A *681:44 0.00010772
54 *3956:A *3932:CLK 3.20883e-05
55 *562:37 *3511:A0 4.04673e-05
56 *562:37 *3754:A0 1.81774e-05
57 *562:37 *4052:A 9.42175e-05
58 *562:37 *576:12 0.000198636
59 *562:56 *610:6 0.000254538
60 *562:56 *768:10 1.39726e-05
61 *562:60 *3993:A 2.89114e-05
62 *562:60 *610:6 8.30551e-05
63 *562:62 *3993:A 8.08756e-05
64 *562:62 *610:6 7.36734e-05
65 *562:69 *3993:A 9.50268e-05
66 *562:69 *610:6 4.69307e-05
67 *562:69 *610:12 5.33334e-05
68 *562:75 *3419:A3 0
69 *562:75 *3419:S1 0.000148851
70 *562:75 *3597:A1 0
71 *562:75 *610:45 0
72 *562:106 *3452:A2 0
73 *562:106 *3452:S0 0.000493474
74 *562:106 *3586:A1 0.000206999
75 *562:106 *3597:A1 0
76 *562:126 *578:10 2.38651e-06
77 *562:162 *3426:A1 1.95368e-05
78 *562:162 *3810:CLK 8.22793e-06
79 *562:162 *3813:CLK 4.64488e-06
80 *562:162 *630:14 7.57318e-05
81 *562:162 *749:10 1.84865e-05
82 *562:176 *3426:A1 7.15595e-05
83 *562:176 *3971:A 0.000263114
84 *562:176 *630:14 0.000382376
85 *562:204 *3470:S0 0
86 *562:204 *3635:S 2.4652e-05
87 *562:204 *3862:CLK 6.093e-05
88 *562:204 *3983:A 0.000155381
89 *562:204 *570:10 7.82324e-05
90 *562:214 *3635:A0 9.35419e-05
91 *562:214 *3635:A1 3.43708e-05
92 *562:214 *3635:S 2.97489e-05
93 *562:229 *633:25 7.70717e-05
94 *562:248 *3635:A0 2.59511e-05
95 *562:248 *3635:S 1.58559e-05
96 *562:248 *3980:A 0
97 *562:248 *3981:A 0
98 *562:248 *692:30 0
99 *562:262 *3843:CLK 6.05161e-06
100 *562:262 *3981:A 9.76689e-05
101 *562:262 *568:8 7.17922e-05
102 *562:262 *598:6 3.72932e-05
103 *562:262 *598:14 8.59515e-05
104 *562:262 *663:26 5.5674e-05
105 *562:262 *663:43 0.000178459
106 *562:302 *3552:A_N 1.01912e-05
107 *562:302 *3552:C 0
108 *562:302 *3915:CLK 0.000116207
109 *562:302 *606:14 0
110 *562:302 *683:59 8.97706e-05
111 *562:302 *701:84 0
112 *562:302 *707:91 6.50487e-05
113 *562:308 *885:10 2.85321e-05
114 *562:329 *707:91 4.29316e-05
115 *562:347 *681:44 0.000159289
116 *562:347 *703:107 0
117 *562:347 *707:91 6.22052e-05
118 *3246:A *562:302 7.07407e-05
119 *3246:A *562:308 3.92589e-05
120 *3422:S *562:75 0
121 *3422:S *562:81 0
122 *3440:A0 *562:75 0.000544416
123 *3440:A0 *562:106 8.85664e-07
124 *3448:A0 *562:347 0
125 *3453:A2 *562:56 0.000115072
126 *3463:A1 *562:248 0.000211201
127 *3463:A1 *562:262 9.47456e-05
128 *3463:S *562:248 7.17807e-05
129 *3464:A0 *562:37 9.18416e-05
130 *3471:A2 *562:204 0.000778712
131 *3511:S *562:37 0.000129561
132 *3535:A *562:347 0
133 *3540:S *562:162 8.22793e-06
134 *3571:A *562:204 4.93928e-05
135 *3636:A *562:214 7.61041e-05
136 *3659:A *562:75 0.000106744
137 *3659:A *562:81 2.19684e-05
138 *3665:A *562:262 0.0001098
139 *3671:A *562:204 7.27183e-05
140 *3688:A *562:204 4.60232e-06
141 *3692:S *562:75 6.23278e-05
142 *3710:A *562:75 0
143 *3720:A *562:214 5.20751e-05
144 *3726:A *562:347 0
145 *3754:S *562:37 5.20669e-05
146 *3755:A *562:37 2.07878e-05
147 *3796:D *562:43 1.24368e-05
148 *3796:D *562:47 4.72818e-05
149 *3796:D *562:56 0.000118339
150 *3843:D *562:262 9.66305e-05
151 *3869:D *562:214 0.000119466
152 *4111:A *562:204 7.57318e-05
153 *173:29 *562:204 0.000218197
154 *202:78 *562:204 0
155 *350:26 *562:214 0.000221287
156 *350:26 *562:220 3.82566e-05
157 *350:26 *562:224 5.23822e-05
158 *350:26 *562:248 7.69776e-06
159 *350:57 *562:81 0
160 *352:34 *562:302 9.65548e-05
161 *352:34 *562:329 2.99929e-05
162 *352:44 *562:37 0.000325397
163 *363:12 *562:75 7.39203e-06
164 *363:12 *562:106 0.000862276
165 *402:14 *562:75 0
166 *413:20 *562:37 2.47833e-05
167 *432:20 *562:329 1.76039e-05
168 *432:20 *562:347 1.0562e-05
169 *461:18 *562:37 1.01912e-05
170 *470:25 *562:204 0.000343359
171 *488:65 *562:204 0.000645199
172 *544:16 *562:302 4.07123e-05
*RES
1 *3945:X *562:6 10.7063 
2 *562:6 *562:11 1.30804 
3 *562:11 *562:37 41.7411 
4 *562:37 *562:43 1.99107 
5 *562:43 *562:47 5.44643 
6 *562:47 *562:56 12.6161 
7 *562:56 *562:60 1.5625 
8 *562:60 *562:62 1.44643 
9 *562:62 *562:69 6.17857 
10 *562:69 *562:75 20.625 
11 *562:75 *562:81 3.51786 
12 *562:81 *3950:A 13.8 
13 *562:75 *3957:A 15.1571 
14 *562:69 *562:106 26.7321 
15 *562:106 *562:110 1.44643 
16 *562:110 *3960:A 9.3 
17 *562:110 *562:117 1.47321 
18 *562:117 *562:126 8.79464 
19 *562:126 *562:130 4.5 
20 *562:130 *3961:A 9.3 
21 *562:130 *562:137 1.62946 
22 *562:137 *562:162 36.0813 
23 *562:162 *3962:A 15.1571 
24 *562:162 *562:176 9.53571 
25 *562:176 *3963:A 13.8 
26 *562:60 *3958:A 9.3 
27 *562:43 *3959:A 9.3 
28 *562:11 *562:204 46.0714 
29 *562:204 *562:214 12.6161 
30 *562:214 *562:220 2.20536 
31 *562:220 *562:224 5.44643 
32 *562:224 *562:229 1.94643 
33 *562:229 *3965:A 13.8 
34 *562:220 *3964:A 9.3 
35 *562:204 *562:248 12.2143 
36 *562:248 *562:262 34.7768 
37 *562:262 *3951:A 10.8625 
38 *562:248 *3952:A 14.3893 
39 *3945:X *562:289 14.7464 
40 *562:289 *562:302 19.0609 
41 *562:302 *562:308 6.88393 
42 *562:308 *3955:A 10.8625 
43 *562:302 *3956:A 14.3893 
44 *562:289 *562:329 1.64286 
45 *562:329 *3953:A 14.4116 
46 *562:329 *562:347 10.1964 
47 *562:347 *3954:A 11.55 
*END

*D_NET *563 0.00668504
*CONN
*I *4005:A I *D sky130_fd_sc_hd__clkbuf_4
*I *3909:CLK I *D sky130_fd_sc_hd__dfrtp_2
*I *3904:CLK I *D sky130_fd_sc_hd__dfrtp_2
*I *3912:CLK I *D sky130_fd_sc_hd__dfrtp_2
*I *3907:CLK I *D sky130_fd_sc_hd__dfrtp_2
*I *3935:CLK I *D sky130_fd_sc_hd__dfrtp_2
*I *3908:CLK I *D sky130_fd_sc_hd__dfrtp_2
*I *3934:CLK I *D sky130_fd_sc_hd__dfrtp_2
*I *3946:X O *D sky130_fd_sc_hd__clkbuf_16
*CAP
1 *4005:A 0
2 *3909:CLK 0
3 *3904:CLK 0.000336402
4 *3912:CLK 0.000293629
5 *3907:CLK 0
6 *3935:CLK 0.000718377
7 *3908:CLK 0
8 *3934:CLK 0.000325331
9 *3946:X 4.72345e-05
10 *563:61 0.00074596
11 *563:36 0.000869459
12 *563:30 0.000607749
13 *563:23 0.000193981
14 *563:14 0.000631217
15 *563:10 0.000804692
16 *563:6 0.000167425
17 *3904:CLK *729:54 0.000151616
18 *3912:CLK *3908:D 6.4443e-05
19 *3912:CLK *3908:RESET_B 0.000174741
20 *3912:CLK *3913:D 5.4959e-05
21 *563:6 *875:10 9.41642e-05
22 *563:10 *3909:RESET_B 0
23 *563:10 *894:25 6.8174e-05
24 *563:14 *3406:A 6.23879e-05
25 *563:14 *894:25 3.70036e-05
26 *563:30 *3908:D 6.22069e-05
27 *563:36 *3908:D 0
28 *563:61 *3904:RESET_B 4.67709e-05
29 *563:61 *729:54 2.85321e-05
30 *3231:A2 *3904:CLK 5.50052e-05
31 *180:20 *563:10 4.35849e-05
*RES
1 *3946:X *563:6 10.2464 
2 *563:6 *563:10 7.05357 
3 *563:10 *563:14 9.48214 
4 *563:14 *3934:CLK 14.7643 
5 *563:14 *563:23 0.535714 
6 *563:23 *3908:CLK 9.3 
7 *563:23 *563:30 3 
8 *563:30 *563:36 11.5536 
9 *563:36 *3935:CLK 20.925 
10 *563:36 *3907:CLK 9.3 
11 *563:30 *3912:CLK 15.9964 
12 *563:10 *563:61 11.625 
13 *563:61 *3904:CLK 25.1929 
14 *563:61 *3909:CLK 9.3 
15 *563:6 *4005:A 9.3 
*END

*D_NET *564 0.00728503
*CONN
*I *3943:CLK I *D sky130_fd_sc_hd__dfrtp_2
*I *3910:CLK I *D sky130_fd_sc_hd__dfrtp_2
*I *3938:CLK I *D sky130_fd_sc_hd__dfstp_2
*I *3911:CLK I *D sky130_fd_sc_hd__dfrtp_2
*I *3937:CLK I *D sky130_fd_sc_hd__dfrtp_2
*I *3905:CLK I *D sky130_fd_sc_hd__dfrtp_2
*I *3906:CLK I *D sky130_fd_sc_hd__dfrtp_2
*I *3947:X O *D sky130_fd_sc_hd__clkbuf_16
*CAP
1 *3943:CLK 0.000279467
2 *3910:CLK 2.3671e-05
3 *3938:CLK 2.50801e-05
4 *3911:CLK 0.00053231
5 *3937:CLK 0.000543125
6 *3905:CLK 0.000196628
7 *3906:CLK 0.000309865
8 *3947:X 0
9 *564:71 0.000353243
10 *564:18 0.000586148
11 *564:16 0.000786063
12 *564:10 0.000838196
13 *564:8 0.000235926
14 *564:6 0.000118348
15 *3906:CLK *3917:D 2.69965e-05
16 *3906:CLK *3918:D 0.000166723
17 *3910:CLK *3913:RESET_B 5.52302e-05
18 *3911:CLK *3912:RESET_B 0.000113845
19 *3911:CLK *896:10 7.22772e-05
20 *3938:CLK *3938:D 5.50052e-05
21 *3943:CLK *3943:D 0.000199698
22 *3943:CLK *730:31 4.36551e-06
23 *3943:CLK *898:10 4.52937e-05
24 *564:8 *3938:D 0.000240477
25 *564:10 *3918:D 7.36114e-05
26 *564:10 *3938:D 3.29297e-05
27 *564:10 *730:31 6.57675e-05
28 *564:16 *3918:D 0.000120133
29 *564:16 *3937:RESET_B 1.63058e-05
30 *564:18 *3917:D 0
31 *564:18 *3918:D 4.06782e-05
32 *564:71 *3938:D 6.81083e-05
33 *564:71 *730:31 2.91887e-05
34 *3449:A *3937:CLK 0.000310041
35 *15:30 *3943:CLK 0.000216184
36 *15:30 *564:8 0.000142698
37 *15:30 *564:10 0.000218807
38 *15:30 *564:16 5.51195e-05
39 *15:30 *564:71 8.74778e-05
*RES
1 *3947:X *564:6 13.8 
2 *564:6 *564:8 3.16071 
3 *564:8 *564:10 4.98214 
4 *564:10 *564:16 4.125 
5 *564:16 *564:18 1.64286 
6 *564:18 *3906:CLK 20.7643 
7 *564:18 *3905:CLK 16.8 
8 *564:16 *3937:CLK 21.2286 
9 *564:10 *3911:CLK 22.55 
10 *564:8 *3938:CLK 14.3357 
11 *564:6 *564:71 1.94643 
12 *564:71 *3910:CLK 14.3357 
13 *564:71 *3943:CLK 20.55 
*END

*D_NET *565 0.0159977
*CONN
*I *3941:CLK I *D sky130_fd_sc_hd__dfrtp_2
*I *4006:A I *D sky130_fd_sc_hd__clkbuf_4
*I *3940:CLK I *D sky130_fd_sc_hd__dfrtp_2
*I *3942:CLK I *D sky130_fd_sc_hd__dfrtp_2
*I *3891:CLK I *D sky130_fd_sc_hd__dfrtp_2
*I *3939:CLK I *D sky130_fd_sc_hd__dfrtp_2
*I *3889:CLK I *D sky130_fd_sc_hd__dfrtp_2
*I *3890:CLK I *D sky130_fd_sc_hd__dfrtp_2
*I *3948:X O *D sky130_fd_sc_hd__clkbuf_16
*CAP
1 *3941:CLK 0.00114961
2 *4006:A 0
3 *3940:CLK 0.000161714
4 *3942:CLK 0.00108152
5 *3891:CLK 0.000621315
6 *3939:CLK 2.23854e-05
7 *3889:CLK 0.000359578
8 *3890:CLK 0
9 *3948:X 0
10 *565:74 0.00129235
11 *565:72 8.19028e-05
12 *565:70 0.00127119
13 *565:26 0.000831932
14 *565:18 0.000709262
15 *565:10 0.00119295
16 *565:4 0.0004459
17 *3889:CLK *3889:D 1.95287e-05
18 *3889:CLK *713:98 0
19 *3891:CLK *3890:D 0.000102983
20 *3940:CLK *4023:A 1.84865e-05
21 *3940:CLK *688:14 3.32737e-05
22 *3940:CLK *732:27 0.000482791
23 *3941:CLK *3228:C 0.000397541
24 *3941:CLK *3229:B 0.000139338
25 *3941:CLK *683:30 1.62025e-05
26 *3941:CLK *687:24 2.80345e-05
27 *3941:CLK *698:6 3.29172e-05
28 *3941:CLK *699:34 1.28171e-05
29 *3941:CLK *715:12 0.000262841
30 *3941:CLK *726:12 3.85645e-05
31 *3941:CLK *729:20 3.01245e-06
32 *3942:CLK *3942:D 6.81786e-05
33 *3942:CLK *642:24 0.000440093
34 *3942:CLK *729:6 5.30637e-06
35 *3942:CLK *729:20 0
36 *3942:CLK *873:8 6.48863e-05
37 *565:10 *687:12 0
38 *565:18 *3362:B 6.444e-05
39 *565:26 *3362:B 3.15318e-05
40 *565:26 *3939:RESET_B 4.92917e-05
41 *565:26 *3940:RESET_B 0
42 *565:26 *713:98 0
43 *565:26 *713:100 0
44 *565:70 *688:14 0.000281455
45 *565:72 *688:14 9.18193e-05
46 *565:74 *688:14 0.000101915
47 *3362:A *3891:CLK 6.25338e-05
48 *3362:A *565:10 0.000175787
49 *3366:B1 *565:10 6.42095e-05
50 *3366:B2 *565:10 5.33005e-05
51 *3367:A1 *3891:CLK 7.5762e-05
52 *3367:A2 *3891:CLK 0.00014535
53 *3369:A1 *3942:CLK 1.24402e-05
54 *3369:A2 *3942:CLK 0.000103267
55 *3369:C1 *3942:CLK 6.66813e-05
56 *3369:D1 *3942:CLK 0
57 *3372:A1 *3942:CLK 0.000214626
58 *3372:A1 *565:74 3.29901e-05
59 *3378:A2 *565:18 5.33005e-05
60 *3380:A_N *3891:CLK 2.59355e-05
61 *3380:C *3891:CLK 0.000525029
62 *3381:B *3891:CLK 4.53295e-05
63 *3383:A2 *3891:CLK 0.000356793
64 *3383:D1 *3891:CLK 5.45307e-05
65 *3401:A2 *3891:CLK 9.77423e-05
66 *169:35 *3942:CLK 9.73841e-05
67 *169:48 *3942:CLK 2.97756e-05
68 *175:22 *3942:CLK 0
69 *178:6 *3941:CLK 0.000221058
70 *280:10 *3942:CLK 0.000173015
71 *280:10 *565:70 0.000290614
72 *280:10 *565:72 0.000101908
73 *280:10 *565:74 0.000175281
74 *284:10 *565:10 3.17148e-05
75 *284:21 *565:10 0.000164554
76 *284:34 *565:10 4.90803e-05
77 *284:43 *565:10 0.000165262
78 *297:12 *3891:CLK 5.41797e-06
79 *297:12 *565:10 0.000187607
80 *297:12 *565:18 2.04825e-05
81 *312:6 *3891:CLK 2.18985e-05
82 *553:6 *3891:CLK 3.51226e-05
83 *554:10 *3891:CLK 5.30737e-05
*RES
1 *3948:X *565:4 9.3 
2 *565:4 *565:10 13.8304 
3 *565:10 *565:18 8.3125 
4 *565:18 *565:26 11.5 
5 *565:26 *3890:CLK 13.8 
6 *565:26 *3889:CLK 19.9786 
7 *565:18 *3939:CLK 9.72857 
8 *565:10 *3891:CLK 29.4518 
9 *565:4 *565:70 8.26786 
10 *565:70 *565:72 1.33929 
11 *565:72 *565:74 2.25 
12 *565:74 *3942:CLK 38.55 
13 *565:74 *3940:CLK 18.4429 
14 *565:72 *4006:A 13.8 
15 *565:70 *3941:CLK 38.5321 
*END

*D_NET *566 0.0113584
*CONN
*I *3888:CLK I *D sky130_fd_sc_hd__dfstp_2
*I *3903:CLK I *D sky130_fd_sc_hd__dfrtp_2
*I *3901:CLK I *D sky130_fd_sc_hd__dfrtp_2
*I *3892:CLK I *D sky130_fd_sc_hd__dfrtp_2
*I *4007:A I *D sky130_fd_sc_hd__clkbuf_4
*I *3913:CLK I *D sky130_fd_sc_hd__dfrtp_2
*I *3936:CLK I *D sky130_fd_sc_hd__dfrtp_2
*I *3949:X O *D sky130_fd_sc_hd__clkbuf_16
*CAP
1 *3888:CLK 0.000161459
2 *3903:CLK 4.97931e-05
3 *3901:CLK 0.000106385
4 *3892:CLK 0.00052119
5 *4007:A 0
6 *3913:CLK 0
7 *3936:CLK 0.00065973
8 *3949:X 0.00172678
9 *566:74 0.000366108
10 *566:61 0.000500331
11 *566:48 0.00102198
12 *566:39 0.000290015
13 *566:10 0.00235819
14 *3888:CLK *3891:RESET_B 3.46801e-05
15 *3901:CLK *3901:D 1.08881e-05
16 *3903:CLK *3903:D 9.99899e-05
17 *3903:CLK *4042:A 2.95018e-05
18 *3936:CLK *3913:D 0.00047037
19 *3936:CLK *3936:D 0.000141935
20 *3936:CLK *709:12 0.000194914
21 *3936:CLK *709:38 0.000211205
22 *566:10 *709:38 0.000743849
23 *566:10 *709:58 0
24 *566:61 *3903:RESET_B 3.17067e-05
25 *566:74 *3903:RESET_B 0.000245708
26 *3349:A *566:10 6.44525e-05
27 *3355:C *566:10 0.000152033
28 *3355:D *566:10 5.21799e-05
29 *3387:A2_N *566:39 0.000104974
30 *3387:A2_N *566:48 3.34295e-05
31 *3391:A1 *566:10 1.29822e-05
32 *3391:A2 *566:10 3.83577e-05
33 *3394:A *566:61 0
34 *3401:A3 *566:61 0
35 *3401:C1 *566:48 4.1331e-06
36 *3401:C1 *566:61 7.08001e-05
37 *3409:B1 *3936:CLK 2.58997e-05
38 *3888:D *3888:CLK 7.18509e-05
39 *3888:D *566:61 0
40 *3888:D *566:74 0.000116099
41 *181:23 *566:10 0
42 *304:22 *566:10 7.79937e-05
43 *318:8 *566:10 1.40415e-05
44 *319:34 *566:48 0
45 *320:29 *566:39 0.000104974
46 *320:29 *566:48 0.000237521
47 *323:12 *566:10 0.00010096
48 *556:8 *3892:CLK 9.90431e-05
*RES
1 *3949:X *566:10 43.6214 
2 *566:10 *3936:CLK 26.3893 
3 *566:10 *3913:CLK 13.8 
4 *3949:X *566:39 15.1393 
5 *566:39 *4007:A 13.8 
6 *566:39 *566:48 5.58929 
7 *566:48 *3892:CLK 22.55 
8 *566:48 *566:61 9.48214 
9 *566:61 *3901:CLK 11.0679 
10 *566:61 *566:74 8.71429 
11 *566:74 *3903:CLK 15.175 
12 *566:74 *3888:CLK 16.9964 
*END

*D_NET *567 0.00258435
*CONN
*I *3966:A I *D sky130_fd_sc_hd__clkbuf_16
*I *3977:A I *D sky130_fd_sc_hd__clkbuf_16
*I *3950:X O *D sky130_fd_sc_hd__clkbuf_8
*CAP
1 *3966:A 0
2 *3977:A 0.000198596
3 *3950:X 0.000749681
4 *567:8 0.000948278
5 *567:8 *3689:A0 0.000166093
6 *567:8 *835:10 0.00031749
7 *3480:A0 *567:8 0.000102355
8 *3690:A *567:8 0
9 *525:62 *3977:A 0.000101859
*RES
1 *3950:X *567:8 28.1929 
2 *567:8 *3977:A 17.5143 
3 *567:8 *3966:A 13.8 
*END

*D_NET *568 0.0035679
*CONN
*I *3979:A I *D sky130_fd_sc_hd__clkbuf_16
*I *3978:A I *D sky130_fd_sc_hd__clkbuf_16
*I *3951:X O *D sky130_fd_sc_hd__clkbuf_8
*CAP
1 *3979:A 0.000514285
2 *3978:A 0.000226786
3 *3951:X 0.000329239
4 *568:8 0.00107031
5 *3978:A *632:25 0.000305998
6 *3979:A *4000:A 1.03105e-05
7 *3979:A *905:8 2.22999e-05
8 *3254:A *3979:A 5.52238e-05
9 *3322:A2 *3979:A 0
10 *3326:A1 *3979:A 0.000198698
11 *3447:A1 *3978:A 0.0007062
12 *3951:A *568:8 5.67608e-05
13 *562:262 *568:8 7.17922e-05
*RES
1 *3951:X *568:8 14.7821 
2 *568:8 *3978:A 27.2286 
3 *568:8 *3979:A 26.8536 
*END

*D_NET *569 0.00209587
*CONN
*I *3980:A I *D sky130_fd_sc_hd__clkbuf_16
*I *3981:A I *D sky130_fd_sc_hd__clkbuf_16
*I *3952:X O *D sky130_fd_sc_hd__clkbuf_8
*CAP
1 *3980:A 0.000473748
2 *3981:A 0.000177848
3 *3952:X 0
4 *569:6 0.000651596
5 *3980:A *674:8 8.63454e-05
6 *3980:A *685:73 0.000171105
7 *3981:A *663:26 0.000185643
8 *3981:A *685:73 4.97876e-05
9 *3981:A *685:79 0.000182619
10 *3463:A1 *3981:A 0
11 *3619:A *3980:A 1.95138e-05
12 *562:248 *3980:A 0
13 *562:248 *3981:A 0
14 *562:262 *3981:A 9.76689e-05
*RES
1 *3952:X *569:6 13.8 
2 *569:6 *3981:A 18.7286 
3 *569:6 *3980:A 23.3357 
*END

*D_NET *570 0.00423471
*CONN
*I *3982:A I *D sky130_fd_sc_hd__clkbuf_16
*I *3983:A I *D sky130_fd_sc_hd__clkbuf_16
*I *3953:X O *D sky130_fd_sc_hd__clkbuf_8
*CAP
1 *3982:A 0.000172415
2 *3983:A 0.000363838
3 *3953:X 0.00034124
4 *570:10 0.000877494
5 *3982:A *3470:S0 5.33005e-05
6 *3983:A *3470:S0 0.000600319
7 *3983:A *3670:A0 0.000182811
8 *3983:A *3670:A1 4.97967e-05
9 *3983:A *3862:CLK 5.49995e-05
10 *570:10 *3470:S0 2.24646e-05
11 *570:10 *727:28 0.00064938
12 *3472:A2 *570:10 4.56494e-05
13 *3571:A *570:10 0.000331647
14 *3671:A *3983:A 0.000146991
15 *26:22 *570:10 0
16 *498:22 *3983:A 6.50098e-05
17 *498:32 *3983:A 4.37451e-05
18 *562:204 *3983:A 0.000155381
19 *562:204 *570:10 7.82324e-05
*RES
1 *3953:X *570:10 23.8 
2 *570:10 *3983:A 25.3357 
3 *570:10 *3982:A 16.3893 
*END

*D_NET *571 0.00325442
*CONN
*I *3985:A I *D sky130_fd_sc_hd__clkbuf_16
*I *3984:A I *D sky130_fd_sc_hd__clkbuf_16
*I *3954:X O *D sky130_fd_sc_hd__clkbuf_8
*CAP
1 *3985:A 0.00036335
2 *3984:A 6.44867e-05
3 *3954:X 0.000722366
4 *571:8 0.0011502
5 *3985:A *4003:A 0
6 *3985:A *602:21 0
7 *571:8 *3442:A1 0
8 *571:8 *3517:A_N 0
9 *571:8 *687:54 0
10 *3444:A0 *571:8 0
11 *3444:A1 *3984:A 0.000185124
12 *3444:A1 *3985:A 0.000620276
13 *3444:A1 *571:8 3.34366e-05
14 *3448:A0 *3985:A 0
15 *3448:A0 *571:8 0
16 *3750:S *571:8 1.90936e-05
17 *4083:A *3985:A 0
18 *442:14 *3985:A 9.60875e-05
19 *535:18 *571:8 0
*RES
1 *3954:X *571:8 25.1571 
2 *571:8 *3984:A 15.5679 
3 *571:8 *3985:A 22.7643 
*END

*D_NET *572 0.00335958
*CONN
*I *3987:A I *D sky130_fd_sc_hd__clkbuf_16
*I *3986:A I *D sky130_fd_sc_hd__clkbuf_16
*I *3955:X O *D sky130_fd_sc_hd__clkbuf_8
*CAP
1 *3987:A 0.000233707
2 *3986:A 0.000147097
3 *3955:X 0.000291081
4 *572:10 0.000671886
5 *3986:A *3241:A1 5.20751e-05
6 *3987:A *3243:B 4.4873e-05
7 *3987:A *637:10 0.000870827
8 *3987:A *912:8 5.71472e-05
9 *572:10 *3243:C 3.00989e-05
10 *572:10 *4031:A 0.000137098
11 *572:10 *702:33 5.33614e-05
12 *3241:A2 *3986:A 4.16438e-05
13 *3243:D *3987:A 5.49489e-05
14 *3244:A3 *3987:A 0.000180951
15 *3412:B *3986:A 0.000291052
16 *3412:B *572:10 0.000111215
17 *183:38 *3986:A 1.3457e-05
18 *188:33 *572:10 1.60846e-05
19 *202:8 *3987:A 6.09804e-05
*RES
1 *3955:X *572:10 19.1214 
2 *572:10 *3986:A 17.9071 
3 *572:10 *3987:A 22.1393 
*END

*D_NET *573 0.00333054
*CONN
*I *3990:A I *D sky130_fd_sc_hd__clkbuf_16
*I *3989:A I *D sky130_fd_sc_hd__clkbuf_16
*I *3956:X O *D sky130_fd_sc_hd__clkbuf_8
*CAP
1 *3990:A 0.000695947
2 *3989:A 0
3 *3956:X 0.00062945
4 *573:14 0.0013254
5 *573:14 *3268:A1 0
6 *573:14 *3932:CLK 0.000141734
7 *573:14 *3932:D 0
8 *3246:A *573:14 0.000222878
9 *3268:B1_N *3990:A 0.000202842
10 *3588:A *3990:A 0.000103041
11 *188:43 *3990:A 9.25014e-06
*RES
1 *3956:X *573:14 29.6929 
2 *573:14 *3989:A 9.3 
3 *573:14 *3990:A 30.9786 
*END

*D_NET *574 0.00219263
*CONN
*I *3991:A I *D sky130_fd_sc_hd__clkbuf_16
*I *3988:A I *D sky130_fd_sc_hd__clkbuf_16
*I *3957:X O *D sky130_fd_sc_hd__clkbuf_8
*CAP
1 *3991:A 0.000132321
2 *3988:A 0.000351715
3 *3957:X 0.000109406
4 *574:8 0.000593442
5 *3988:A *592:14 0
6 *3988:A *851:8 3.79467e-05
7 *3991:A *625:65 0.000137639
8 *3422:A1 *574:8 2.27416e-05
9 *3422:S *3988:A 0.000214199
10 *3422:S *3991:A 0.000174629
11 *3440:A1 *3988:A 0
12 *3724:A *3988:A 0.000120645
13 *3855:D *3988:A 0
14 *350:57 *3988:A 0
15 *402:14 *3988:A 0.000211589
16 *402:14 *3991:A 8.63561e-05
*RES
1 *3957:X *574:8 15.5679 
2 *574:8 *3988:A 23.0321 
3 *574:8 *3991:A 17.4071 
*END

*D_NET *575 0.00339242
*CONN
*I *3993:A I *D sky130_fd_sc_hd__clkbuf_16
*I *3992:A I *D sky130_fd_sc_hd__clkbuf_16
*I *3958:X O *D sky130_fd_sc_hd__clkbuf_8
*CAP
1 *3993:A 0.000336909
2 *3992:A 0.00112338
3 *3958:X 2.23854e-05
4 *575:6 0.00148267
5 *3992:A *3450:S0 1.66373e-05
6 *3992:A *3450:S1 2.59355e-05
7 *3992:A *610:12 5.47653e-05
8 *3993:A *610:12 2.07491e-05
9 *3451:B *3992:A 1.48545e-05
10 *3481:A2 *3992:A 3.91385e-05
11 *3481:B2 *3992:A 2.42516e-05
12 *402:14 *3992:A 2.59355e-05
13 *562:60 *3993:A 2.89114e-05
14 *562:62 *3993:A 8.08756e-05
15 *562:69 *3993:A 9.50268e-05
*RES
1 *3958:X *575:6 9.72857 
2 *575:6 *3992:A 22.175 
3 *575:6 *3993:A 13.9607 
*END

*D_NET *576 0.00399422
*CONN
*I *3994:A I *D sky130_fd_sc_hd__clkbuf_16
*I *3995:A I *D sky130_fd_sc_hd__clkbuf_16
*I *3959:X O *D sky130_fd_sc_hd__clkbuf_8
*CAP
1 *3994:A 0.000327281
2 *3995:A 6.87854e-05
3 *3959:X 0.000385823
4 *576:12 0.00078189
5 *3994:A *3433:A1 0.00046212
6 *3994:A *3458:A3 7.04732e-05
7 *3994:A *3528:A0 8.7392e-05
8 *3994:A *3599:A0 0.00017462
9 *3994:A *724:49 0.000139711
10 *3995:A *3458:A2 9.90367e-05
11 *576:12 *3458:A3 1.78353e-05
12 *576:12 *3511:A0 0.000295137
13 *3512:A *576:12 5.71472e-05
14 *461:53 *3994:A 0.000483409
15 *461:53 *576:12 0.000344925
16 *562:37 *576:12 0.000198636
*RES
1 *3959:X *576:12 23.6571 
2 *576:12 *3995:A 15.1571 
3 *576:12 *3994:A 26.3714 
*END

*D_NET *577 0.00302116
*CONN
*I *3997:A I *D sky130_fd_sc_hd__clkbuf_16
*I *3996:A I *D sky130_fd_sc_hd__clkbuf_16
*I *3960:X O *D sky130_fd_sc_hd__clkbuf_8
*CAP
1 *3997:A 0.000384601
2 *3996:A 0.000422058
3 *3960:X 0
4 *577:4 0.000806659
5 *3997:A *3434:S0 2.0986e-05
6 *3997:A *3434:S1 0.000159029
7 *3997:A *3436:S 8.37905e-05
8 *3997:A *790:12 5.71028e-05
9 *3436:A1 *3997:A 0.000135028
10 *3580:S *3996:A 0.000275094
11 *3594:A *3997:A 8.6229e-06
12 *363:12 *3997:A 0.000394895
13 *452:75 *3996:A 0.00010326
14 *461:88 *3996:A 0
15 *461:88 *3997:A 0.000170034
*RES
1 *3960:X *577:4 9.3 
2 *577:4 *3996:A 26.3893 
3 *577:4 *3997:A 30.55 
*END

*D_NET *578 0.0032978
*CONN
*I *3968:A I *D sky130_fd_sc_hd__clkbuf_16
*I *3967:A I *D sky130_fd_sc_hd__clkbuf_16
*I *3961:X O *D sky130_fd_sc_hd__clkbuf_8
*CAP
1 *3968:A 0.000379118
2 *3967:A 6.64388e-05
3 *3961:X 0.000627162
4 *578:10 0.00107272
5 *3968:A *585:22 0
6 *578:10 *3540:A1 0.000479677
7 *578:10 *3558:A1 0.000239772
8 *578:10 *585:22 0
9 *578:10 *622:84 2.39441e-05
10 *578:10 *766:14 0.000165456
11 *3591:S *3968:A 9.93955e-05
12 *413:91 *3967:A 0.000141729
13 *562:126 *578:10 2.38651e-06
*RES
1 *3961:X *578:10 27.3357 
2 *578:10 *3967:A 15.1571 
3 *578:10 *3968:A 20.55 
*END

*D_NET *579 0.00248188
*CONN
*I *3970:A I *D sky130_fd_sc_hd__clkbuf_16
*I *3969:A I *D sky130_fd_sc_hd__clkbuf_16
*I *3962:X O *D sky130_fd_sc_hd__clkbuf_8
*CAP
1 *3970:A 0.000701882
2 *3969:A 0.000294824
3 *3962:X 3.68446e-05
4 *579:6 0.00103355
5 *3970:A *3806:CLK 0
6 *3970:A *587:42 0
7 *3970:A *754:10 5.62995e-05
8 *3873:D *3970:A 8.07068e-05
9 *452:117 *3970:A 0.000277778
*RES
1 *3962:X *579:6 9.83571 
2 *579:6 *3969:A 23.5857 
3 *579:6 *3970:A 31.7107 
*END

*D_NET *580 0.00388474
*CONN
*I *3972:A I *D sky130_fd_sc_hd__clkbuf_16
*I *3971:A I *D sky130_fd_sc_hd__clkbuf_16
*I *3963:X O *D sky130_fd_sc_hd__clkbuf_8
*CAP
1 *3972:A 0.000312554
2 *3971:A 0.000235227
3 *3963:X 7.64261e-05
4 *580:8 0.000624207
5 *3971:A *3426:A1 0.000121583
6 *3971:A *3426:S0 7.49566e-05
7 *3971:A *3729:A1 5.50052e-05
8 *3971:A *630:14 0
9 *3971:A *686:10 1.41665e-05
10 *3971:A *688:85 0.000248486
11 *3971:A *699:52 5.33005e-05
12 *3972:A *3426:S0 0.00012544
13 *3972:A *3427:A0 3.57366e-05
14 *3972:A *3538:A0 0.000436498
15 *3972:A *4026:A 0.000161468
16 *3972:A *688:85 0.000187012
17 *580:8 *4026:A 1.98839e-05
18 *3539:A *3972:A 0.000359394
19 *356:14 *580:8 0.000219711
20 *413:85 *580:8 0.000260574
21 *562:176 *3971:A 0.000263114
*RES
1 *3963:X *580:8 16.3893 
2 *580:8 *3971:A 21.4429 
3 *580:8 *3972:A 24.675 
*END

*D_NET *581 0.00448822
*CONN
*I *3973:A I *D sky130_fd_sc_hd__clkbuf_16
*I *3974:A I *D sky130_fd_sc_hd__clkbuf_16
*I *3964:X O *D sky130_fd_sc_hd__clkbuf_8
*CAP
1 *3973:A 0
2 *3974:A 0.000890324
3 *3964:X 0.000518281
4 *581:10 0.00140861
5 *3974:A *3455:S0 0
6 *3974:A *590:25 0
7 *3456:A0 *3974:A 0.000277524
8 *3456:A0 *581:10 0.000161012
9 *3667:A *3974:A 0
10 *350:26 *581:10 0.000356682
11 *380:22 *3974:A 0.000751129
12 *380:22 *581:10 0.000124657
*RES
1 *3964:X *581:10 24.0143 
2 *581:10 *3974:A 31.675 
3 *581:10 *3973:A 13.8 
*END

*D_NET *582 0.00345613
*CONN
*I *3976:A I *D sky130_fd_sc_hd__clkbuf_16
*I *3975:A I *D sky130_fd_sc_hd__clkbuf_16
*I *3965:X O *D sky130_fd_sc_hd__clkbuf_8
*CAP
1 *3976:A 0.000460946
2 *3975:A 0.000172645
3 *3965:X 0.000344519
4 *582:10 0.00097811
5 *3976:A *3430:A0 2.00015e-05
6 *3976:A *3430:A1 5.33005e-05
7 *3976:A *633:25 0.000128161
8 *3976:A *797:10 0.00010326
9 *582:10 *3430:A2 0.000295844
10 *582:10 *3430:S1 0.000363238
11 *582:10 *3625:A0 0.00012401
12 *3431:A2 *3976:A 1.72894e-05
13 *3487:A *3976:A 0
14 *3683:S *582:10 0.00010092
15 *3817:D *3975:A 0.000100374
16 *3817:D *3976:A 0.000163455
17 *507:46 *582:10 3.00605e-05
*RES
1 *3965:X *582:10 28.1393 
2 *582:10 *3975:A 11.8893 
3 *582:10 *3976:A 26.3536 
*END

*D_NET *583 0.00868933
*CONN
*I *3866:CLK I *D sky130_fd_sc_hd__dfxtp_2
*I *3831:CLK I *D sky130_fd_sc_hd__dfxtp_2
*I *3842:CLK I *D sky130_fd_sc_hd__dfxtp_2
*I *3826:CLK I *D sky130_fd_sc_hd__dfxtp_2
*I *3818:CLK I *D sky130_fd_sc_hd__dfxtp_2
*I *3966:X O *D sky130_fd_sc_hd__clkbuf_16
*CAP
1 *3866:CLK 0
2 *3831:CLK 0.000796109
3 *3842:CLK 0.000330797
4 *3826:CLK 0.000482042
5 *3818:CLK 0.000292896
6 *3966:X 0.000555848
7 *583:51 0.000796109
8 *583:18 0.00130071
9 *583:12 0.00125693
10 *583:10 0.000956218
11 *3818:CLK *3644:A0 1.00887e-05
12 *3826:CLK *664:48 0.000267025
13 *583:10 *631:28 0
14 *583:12 *3437:A2 0.000219193
15 *583:12 *631:28 0
16 *583:12 *838:10 0.000150625
17 *583:18 *3627:A0 0
18 *583:18 *3644:A0 0.000124012
19 *3498:S *583:10 0.000484489
20 *3644:S *583:18 0.000105301
21 *3645:A *583:18 0
22 *3654:S *583:12 0.000131247
23 *3654:S *583:18 0.000173765
24 *3826:D *3826:CLK 1.64343e-05
25 *3831:D *3831:CLK 1.64343e-05
26 *3842:D *3842:CLK 0.00018372
27 *3858:D *583:12 0
28 *3866:D *583:12 3.93374e-05
*RES
1 *3966:X *583:10 24.05 
2 *583:10 *583:12 9.83929 
3 *583:12 *583:18 10.5 
4 *583:18 *3818:CLK 18.5321 
5 *583:18 *3826:CLK 23.3893 
6 *583:12 *3842:CLK 19.2643 
7 *583:10 *583:51 4.5 
8 *583:51 *3831:CLK 21.8893 
9 *583:51 *3866:CLK 9.3 
*END

*D_NET *584 0.00537527
*CONN
*I *3808:CLK I *D sky130_fd_sc_hd__dfxtp_2
*I *3800:CLK I *D sky130_fd_sc_hd__dfxtp_2
*I *3880:CLK I *D sky130_fd_sc_hd__dfxtp_2
*I *3768:CLK I *D sky130_fd_sc_hd__dfxtp_2
*I *3776:CLK I *D sky130_fd_sc_hd__dfxtp_2
*I *3967:X O *D sky130_fd_sc_hd__clkbuf_16
*CAP
1 *3808:CLK 0.000125291
2 *3800:CLK 0
3 *3880:CLK 0.000223654
4 *3768:CLK 0.000385617
5 *3776:CLK 3.72884e-05
6 *3967:X 0.000389318
7 *584:25 0.000609271
8 *584:16 0.000607125
9 *584:14 0.000671629
10 *584:12 0.000616402
11 *3808:CLK *626:77 0
12 *584:12 *3416:S0 0
13 *584:12 *3416:S1 0.000139077
14 *584:12 *3727:S 0.000181368
15 *584:14 *3416:S1 0.000136765
16 *584:16 *3416:S1 0.00018632
17 *584:16 *756:12 5.03772e-05
18 *3418:A0 *584:12 6.42145e-05
19 *3572:S *3808:CLK 0
20 *3572:S *584:12 0.000743856
21 *3589:S *584:12 0
22 *3590:A *584:12 0
23 *3768:D *3768:CLK 3.32132e-06
24 *3776:D *3768:CLK 5.14943e-05
25 *3776:D *584:16 1.64343e-05
26 *3800:D *3808:CLK 5.57914e-05
27 *3800:D *584:14 1.64343e-05
28 *3808:D *584:12 6.42242e-05
29 *4057:A *3880:CLK 0
*RES
1 *3967:X *584:12 30.425 
2 *584:12 *584:14 2.58929 
3 *584:14 *584:16 10.3929 
4 *584:16 *3776:CLK 9.83571 
5 *584:16 *584:25 4.5 
6 *584:25 *3768:CLK 19.9607 
7 *584:25 *3880:CLK 17.3 
8 *584:14 *3800:CLK 9.3 
9 *584:12 *3808:CLK 20.8536 
*END

*D_NET *585 0.00531076
*CONN
*I *3801:CLK I *D sky130_fd_sc_hd__dfxtp_2
*I *3792:CLK I *D sky130_fd_sc_hd__dfxtp_2
*I *3784:CLK I *D sky130_fd_sc_hd__dfxtp_2
*I *3794:CLK I *D sky130_fd_sc_hd__dfxtp_2
*I *3802:CLK I *D sky130_fd_sc_hd__dfxtp_2
*I *3968:X O *D sky130_fd_sc_hd__clkbuf_16
*CAP
1 *3801:CLK 0.000111172
2 *3792:CLK 0.000101484
3 *3784:CLK 4.07447e-05
4 *3794:CLK 0.000120093
5 *3802:CLK 9.63429e-05
6 *3968:X 0
7 *585:38 0.000318981
8 *585:22 0.00056856
9 *585:18 0.00113652
10 *585:4 0.000718821
11 *3792:CLK *3417:A3 2.41848e-05
12 *3792:CLK *3589:A1 2.29112e-05
13 *3794:CLK *688:85 5.49544e-05
14 *3801:CLK *3554:S 0.000150625
15 *585:18 *626:55 0.000158282
16 *585:18 *686:122 9.45042e-05
17 *585:38 *3417:A3 7.04796e-05
18 *585:38 *686:122 0.000173797
19 *3418:A1 *585:22 4.56594e-05
20 *3418:A1 *585:38 2.23987e-05
21 *3555:A *3784:CLK 9.84729e-05
22 *3555:A *3792:CLK 7.60375e-06
23 *3555:A *585:18 5.63467e-05
24 *3555:A *585:38 0.000143728
25 *3589:S *585:38 0
26 *3591:S *3801:CLK 4.38128e-05
27 *3591:S *585:18 0.000448651
28 *3792:D *3792:CLK 0.000103437
29 *3968:A *585:22 0
30 *461:98 *585:22 0.000378183
31 *578:10 *585:22 0
*RES
1 *3968:X *585:4 9.3 
2 *585:4 *585:18 23.0179 
3 *585:18 *585:22 13.4286 
4 *585:22 *3802:CLK 10.6571 
5 *585:22 *3794:CLK 11.4786 
6 *585:18 *585:38 5.58929 
7 *585:38 *3784:CLK 14.7464 
8 *585:38 *3792:CLK 16.3536 
9 *585:4 *3801:CLK 20.7821 
*END

*D_NET *586 0.00612792
*CONN
*I *3803:CLK I *D sky130_fd_sc_hd__dfxtp_2
*I *3797:CLK I *D sky130_fd_sc_hd__dfxtp_2
*I *3789:CLK I *D sky130_fd_sc_hd__dfxtp_2
*I *3810:CLK I *D sky130_fd_sc_hd__dfxtp_2
*I *3769:CLK I *D sky130_fd_sc_hd__dfxtp_2
*I *3969:X O *D sky130_fd_sc_hd__clkbuf_16
*CAP
1 *3803:CLK 0.000472914
2 *3797:CLK 0
3 *3789:CLK 0.000131721
4 *3810:CLK 0.000467988
5 *3769:CLK 0
6 *3969:X 0
7 *586:47 0.000516357
8 *586:32 0.00037343
9 *586:10 0.00135254
10 *586:4 0.00108282
11 *3789:CLK *4013:A 0.000207253
12 *3789:CLK *630:14 2.29961e-05
13 *3803:CLK *777:12 4.01768e-05
14 *3810:CLK *3558:A0 5.66971e-05
15 *3810:CLK *3558:A1 0.000317038
16 *3810:CLK *3558:S 5.49995e-05
17 *3810:CLK *3746:A1 1.24368e-05
18 *586:10 *666:49 0
19 *586:47 *630:14 6.19567e-05
20 *3559:A *3810:CLK 3.69008e-05
21 *3769:D *3810:CLK 0.000124012
22 *3797:D *3789:CLK 0.000248493
23 *3797:D *3803:CLK 8.89117e-05
24 *3797:D *586:47 0.000127484
25 *452:37 *586:10 1.40415e-05
26 *452:37 *586:32 7.12758e-05
27 *461:168 *3789:CLK 8.09285e-05
28 *544:116 *3810:CLK 7.80386e-05
29 *544:116 *586:10 7.82734e-05
30 *562:162 *3810:CLK 8.22793e-06
*RES
1 *3969:X *586:4 9.3 
2 *586:4 *586:10 15.1964 
3 *586:10 *3769:CLK 13.8 
4 *586:10 *3810:CLK 23.9786 
5 *586:4 *586:32 7.08929 
6 *586:32 *3789:CLK 18.3179 
7 *586:32 *586:47 6.14286 
8 *586:47 *3797:CLK 9.3 
9 *586:47 *3803:CLK 17.6929 
*END

*D_NET *587 0.00524643
*CONN
*I *3873:CLK I *D sky130_fd_sc_hd__dfxtp_2
*I *3806:CLK I *D sky130_fd_sc_hd__dfxtp_2
*I *3774:CLK I *D sky130_fd_sc_hd__dfxtp_2
*I *3811:CLK I *D sky130_fd_sc_hd__dfxtp_2
*I *3795:CLK I *D sky130_fd_sc_hd__dfxtp_2
*I *3970:X O *D sky130_fd_sc_hd__clkbuf_16
*CAP
1 *3873:CLK 0
2 *3806:CLK 0.000417502
3 *3774:CLK 7.94707e-05
4 *3811:CLK 0
5 *3795:CLK 0.000392269
6 *3970:X 0.000456262
7 *587:42 0.000856657
8 *587:36 0.000498275
9 *587:12 0.000532817
10 *587:10 0.000735401
11 *3795:CLK *3443:A2 0.000170375
12 *3795:CLK *3578:A0 0.000265207
13 *587:36 *699:52 0.00018426
14 *587:42 *3428:S 0
15 *587:42 *699:52 0.000160988
16 *3428:A1 *3806:CLK 0
17 *3530:S *587:10 0
18 *3530:S *587:12 0
19 *3774:D *3806:CLK 0.000103267
20 *3782:D *3806:CLK 0
21 *3806:D *3806:CLK 0
22 *3811:D *3795:CLK 0.000183797
23 *3811:D *587:12 5.54817e-06
24 *3873:D *3774:CLK 1.93007e-05
25 *3873:D *587:42 0.000185034
26 *3970:A *3806:CLK 0
27 *3970:A *587:42 0
28 *26:20 *587:10 0
29 *26:20 *587:12 0
30 *452:117 *3806:CLK 0
*RES
1 *3970:X *587:10 19.5679 
2 *587:10 *587:12 2.25 
3 *587:12 *3795:CLK 22.7286 
4 *587:12 *3811:CLK 13.8 
5 *587:10 *587:36 7.91071 
6 *587:36 *587:42 12 
7 *587:42 *3774:CLK 15.2821 
8 *587:42 *3806:CLK 20.9071 
9 *587:36 *3873:CLK 9.3 
*END

*D_NET *588 0.00501046
*CONN
*I *3793:CLK I *D sky130_fd_sc_hd__dfxtp_2
*I *3777:CLK I *D sky130_fd_sc_hd__dfxtp_2
*I *3881:CLK I *D sky130_fd_sc_hd__dfxtp_2
*I *3813:CLK I *D sky130_fd_sc_hd__dfxtp_2
*I *3786:CLK I *D sky130_fd_sc_hd__dfxtp_2
*I *3971:X O *D sky130_fd_sc_hd__clkbuf_16
*CAP
1 *3793:CLK 0.000400689
2 *3777:CLK 0.000115229
3 *3881:CLK 1.83442e-05
4 *3813:CLK 0.000491818
5 *3786:CLK 0.000174216
6 *3971:X 0.000249205
7 *588:42 0.000664389
8 *588:22 0.000660576
9 *588:20 0.000373874
10 *3777:CLK *688:85 9.05499e-05
11 *3793:CLK *3427:S1 0
12 *3793:CLK *3591:A1 0.000247771
13 *3793:CLK *4026:A 8.96049e-05
14 *3793:CLK *624:14 0.000223592
15 *3793:CLK *624:42 0
16 *3793:CLK *624:48 6.07232e-05
17 *3793:CLK *686:122 4.16114e-05
18 *3813:CLK *3476:S0 0
19 *3813:CLK *3746:A1 4.27842e-06
20 *3813:CLK *4095:A 0.000152333
21 *3881:CLK *3746:A0 2.85234e-05
22 *588:20 *3729:A1 4.97967e-05
23 *588:22 *3746:A1 0.000107459
24 *588:22 *624:50 2.44553e-05
25 *588:42 *4026:A 6.44205e-05
26 *588:42 *624:48 0.000125944
27 *588:42 *624:50 4.45753e-05
28 *588:42 *699:52 1.58559e-05
29 *3504:A *3793:CLK 3.69865e-05
30 *3520:S *588:22 3.64514e-05
31 *3520:S *588:42 5.107e-05
32 *3521:A *3786:CLK 0.000141935
33 *3540:S *3813:CLK 0
34 *3747:A *3881:CLK 1.84776e-05
35 *3777:D *3777:CLK 0.000126137
36 *360:14 *3813:CLK 7.49239e-05
37 *562:162 *3813:CLK 4.64488e-06
*RES
1 *3971:X *3786:CLK 22.0107 
2 *3971:X *588:20 14.7464 
3 *588:20 *588:22 3.46429 
4 *588:22 *3813:CLK 23.3357 
5 *588:22 *3881:CLK 14.3357 
6 *588:20 *588:42 4.375 
7 *588:42 *3777:CLK 16.3893 
8 *588:42 *3793:CLK 24.175 
*END

*D_NET *589 0.00287496
*CONN
*I *3814:CLK I *D sky130_fd_sc_hd__dfxtp_2
*I *3809:CLK I *D sky130_fd_sc_hd__dfxtp_2
*I *3785:CLK I *D sky130_fd_sc_hd__dfxtp_2
*I *3782:CLK I *D sky130_fd_sc_hd__dfxtp_2
*I *3999:A I *D sky130_fd_sc_hd__clkbuf_4
*I *3972:X O *D sky130_fd_sc_hd__clkbuf_16
*CAP
1 *3814:CLK 0.000183603
2 *3809:CLK 0
3 *3785:CLK 0.000144118
4 *3782:CLK 0.000124606
5 *3999:A 3.36229e-05
6 *3972:X 0
7 *589:36 0.000593638
8 *589:32 0.000750332
9 *589:10 0.00032652
10 *589:6 0.000285499
11 *3814:CLK *3584:A0 1.46148e-05
12 *3814:CLK *3584:A1 7.21478e-05
13 *589:10 *630:14 0
14 *589:32 *630:14 0
15 *589:36 *624:8 0.000262878
16 *3584:S *3814:CLK 4.97967e-05
17 *3585:A *3814:CLK 3.35813e-05
18 *3806:D *589:10 0
19 *3806:D *589:32 0
*RES
1 *3972:X *589:6 13.8 
2 *589:6 *589:10 7.35714 
3 *589:10 *3999:A 9.83571 
4 *589:10 *3782:CLK 11.4964 
5 *589:6 *589:32 6.47321 
6 *589:32 *589:36 8.5625 
7 *589:36 *3785:CLK 20.55 
8 *589:36 *3809:CLK 9.3 
9 *589:32 *3814:CLK 13.3446 
*END

*D_NET *590 0.00425449
*CONN
*I *3860:CLK I *D sky130_fd_sc_hd__dfxtp_2
*I *3868:CLK I *D sky130_fd_sc_hd__dfxtp_2
*I *3850:CLK I *D sky130_fd_sc_hd__dfxtp_2
*I *3844:CLK I *D sky130_fd_sc_hd__dfxtp_2
*I *3852:CLK I *D sky130_fd_sc_hd__dfxtp_2
*I *3973:X O *D sky130_fd_sc_hd__clkbuf_16
*CAP
1 *3860:CLK 2.22847e-05
2 *3868:CLK 0
3 *3850:CLK 0.000124421
4 *3844:CLK 0
5 *3852:CLK 5.30141e-05
6 *3973:X 0.000211787
7 *590:42 0.000297672
8 *590:34 0.000727727
9 *590:25 0.000952342
10 *590:6 0.000684952
11 *3852:CLK *690:14 0.00012249
12 *590:6 *3437:S0 3.82357e-05
13 *590:25 *3455:S0 0
14 *590:25 *690:16 0
15 *590:34 *3662:S 0.000243394
16 *590:42 *3437:A0 5.5782e-05
17 *590:42 *3662:S 3.41074e-05
18 *590:42 *822:10 4.1331e-06
19 *3456:A0 *590:25 0.000116038
20 *3667:A *590:25 4.1331e-06
21 *3719:S *590:6 0.000139913
22 *3719:S *590:25 0.000170385
23 *3844:D *590:34 6.5647e-05
24 *3852:D *3852:CLK 9.96553e-05
25 *3852:D *590:25 6.99472e-05
26 *3860:D *590:34 1.64343e-05
27 *3974:A *590:25 0
*RES
1 *3973:X *590:6 11.8893 
2 *590:6 *3852:CLK 19.9429 
3 *590:6 *590:25 16.3571 
4 *590:25 *3844:CLK 9.3 
5 *590:25 *590:34 9.58929 
6 *590:34 *590:42 12.3036 
7 *590:42 *3850:CLK 11.0679 
8 *590:42 *3868:CLK 9.3 
9 *590:34 *3860:CLK 9.72857 
*END

*D_NET *591 0.0058553
*CONN
*I *3765:CLK I *D sky130_fd_sc_hd__dfxtp_2
*I *3821:CLK I *D sky130_fd_sc_hd__dfxtp_2
*I *3837:CLK I *D sky130_fd_sc_hd__dfxtp_2
*I *3861:CLK I *D sky130_fd_sc_hd__dfxtp_2
*I *3829:CLK I *D sky130_fd_sc_hd__dfxtp_2
*I *3974:X O *D sky130_fd_sc_hd__clkbuf_16
*CAP
1 *3765:CLK 0.000248471
2 *3821:CLK 0
3 *3837:CLK 0
4 *3861:CLK 0.000776611
5 *3829:CLK 0.000415046
6 *3974:X 0.000142738
7 *591:20 0.00119166
8 *591:18 0.000192088
9 *591:14 0.000248102
10 *591:12 0.000447223
11 *3765:CLK *3462:A2 0.000184941
12 *3765:CLK *3633:A0 8.02652e-05
13 *3765:CLK *809:6 3.69047e-06
14 *3829:CLK *3614:A0 0
15 *3829:CLK *633:25 0
16 *3829:CLK *800:8 0
17 *3861:CLK *3454:A0 0.000114838
18 *3861:CLK *3454:A1 0.00020955
19 *3861:CLK *3666:A0 6.75007e-05
20 *3861:CLK *3666:S 6.8646e-06
21 *3861:CLK *633:25 0
22 *591:12 *3462:A1 2.50656e-05
23 *591:12 *3462:A3 6.7438e-05
24 *591:12 *3616:A0 1.92528e-05
25 *591:12 *670:68 5.018e-05
26 *591:14 *3462:A3 5.10256e-05
27 *591:14 *670:68 8.22383e-05
28 *591:18 *670:68 0.000297143
29 *3617:A *3765:CLK 0.000103245
30 *3617:A *591:12 0
31 *3648:S *591:18 0.000129063
32 *3821:D *591:14 0.000114754
33 *3821:D *591:18 0.000398303
34 *3837:D *591:18 0.000188006
35 *380:22 *3861:CLK 0
*RES
1 *3974:X *591:12 21.6036 
2 *591:12 *591:14 2.17857 
3 *591:14 *591:18 7.53571 
4 *591:18 *591:20 4.5 
5 *591:20 *3829:CLK 20.55 
6 *591:20 *3861:CLK 29.55 
7 *591:18 *3837:CLK 9.3 
8 *591:14 *3821:CLK 9.3 
9 *591:12 *3765:CLK 23.9429 
*END

*D_NET *592 0.00552691
*CONN
*I *3833:CLK I *D sky130_fd_sc_hd__dfxtp_2
*I *3847:CLK I *D sky130_fd_sc_hd__dfxtp_2
*I *3855:CLK I *D sky130_fd_sc_hd__dfxtp_2
*I *3863:CLK I *D sky130_fd_sc_hd__dfxtp_2
*I *3871:CLK I *D sky130_fd_sc_hd__dfxtp_2
*I *3975:X O *D sky130_fd_sc_hd__clkbuf_16
*CAP
1 *3833:CLK 0.00038432
2 *3847:CLK 1.99857e-05
3 *3855:CLK 0
4 *3863:CLK 0.000501062
5 *3871:CLK 0.000156089
6 *3975:X 0.000841564
7 *592:16 0.000879498
8 *592:14 0.000362245
9 *592:6 0.000617127
10 *3833:CLK *3625:A1 0
11 *3833:CLK *623:28 0
12 *3833:CLK *665:34 0.000320738
13 *3863:CLK *3478:A2 3.18676e-05
14 *3863:CLK *3706:A0 9.31209e-05
15 *592:14 *851:8 5.56943e-05
16 *3440:A1 *3863:CLK 0.000213802
17 *3643:A *3833:CLK 4.79842e-05
18 *3673:A *3847:CLK 0
19 *3673:A *592:6 7.91448e-05
20 *3724:A *3863:CLK 0.000395427
21 *3724:A *3871:CLK 0.000148153
22 *3724:A *592:16 1.58163e-05
23 *3847:D *3847:CLK 1.04232e-05
24 *3847:D *592:6 0.0001042
25 *3847:D *592:14 5.62995e-05
26 *3855:D *592:14 2.8266e-06
27 *3863:D *3863:CLK 5.95099e-05
28 *3871:D *3871:CLK 0.00013001
29 *3988:A *592:14 0
30 *350:57 *592:14 0
*RES
1 *3975:X *592:6 16.4071 
2 *592:6 *592:14 11.8929 
3 *592:14 *592:16 3.41071 
4 *592:16 *3871:CLK 13.1214 
5 *592:16 *3863:CLK 29.9786 
6 *592:14 *3855:CLK 9.3 
7 *592:6 *3847:CLK 9.72857 
8 *3975:X *3833:CLK 34.2607 
*END

*D_NET *593 0.00510648
*CONN
*I *3761:CLK I *D sky130_fd_sc_hd__dfxtp_2
*I *3838:CLK I *D sky130_fd_sc_hd__dfxtp_2
*I *3830:CLK I *D sky130_fd_sc_hd__dfxtp_2
*I *3817:CLK I *D sky130_fd_sc_hd__dfxtp_2
*I *3825:CLK I *D sky130_fd_sc_hd__dfxtp_2
*I *3976:X O *D sky130_fd_sc_hd__clkbuf_16
*CAP
1 *3761:CLK 6.2733e-05
2 *3838:CLK 1.76869e-05
3 *3830:CLK 0
4 *3817:CLK 4.26117e-05
5 *3825:CLK 0.000378044
6 *3976:X 5.07055e-05
7 *593:30 0.00149513
8 *593:24 0.00134253
9 *593:16 0.000482398
10 *593:8 0.000310097
11 *3817:CLK *3478:S0 0.000128154
12 *3817:CLK *3625:A1 6.74911e-05
13 *3825:CLK *3478:S0 3.5394e-05
14 *593:24 *634:31 0
15 *593:30 *3478:S0 3.80953e-06
16 *593:30 *805:8 4.00276e-06
17 *3487:A *593:24 0
18 *3636:A *3838:CLK 1.02132e-05
19 *3636:A *593:16 2.07394e-05
20 *3636:A *593:24 1.48543e-05
21 *3761:D *593:24 5.49544e-05
22 *3825:D *3825:CLK 5.03707e-05
23 *3830:D *593:24 0.000175519
24 *3838:D *3761:CLK 0.000128154
25 *3838:D *593:16 0.000230878
*RES
1 *3976:X *593:8 14.3357 
2 *593:8 *593:16 8.83929 
3 *593:16 *593:24 13.625 
4 *593:24 *593:30 12.4821 
5 *593:30 *3825:CLK 14.2643 
6 *593:30 *3817:CLK 19.9429 
7 *593:24 *3830:CLK 9.3 
8 *593:16 *3838:CLK 9.72857 
9 *593:8 *3761:CLK 15.4429 
*END

*D_NET *594 0.00643134
*CONN
*I *3764:CLK I *D sky130_fd_sc_hd__dfxtp_2
*I *3828:CLK I *D sky130_fd_sc_hd__dfxtp_2
*I *3762:CLK I *D sky130_fd_sc_hd__dfxtp_2
*I *3836:CLK I *D sky130_fd_sc_hd__dfxtp_2
*I *3820:CLK I *D sky130_fd_sc_hd__dfxtp_2
*I *3977:X O *D sky130_fd_sc_hd__clkbuf_16
*CAP
1 *3764:CLK 0.000205711
2 *3828:CLK 0.000313493
3 *3762:CLK 9.69533e-05
4 *3836:CLK 0
5 *3820:CLK 0.000105843
6 *3977:X 0.00107608
7 *594:34 0.000531644
8 *594:25 0.000312995
9 *594:23 0.000397509
10 *594:10 0.00118193
11 *3764:CLK *816:10 2.11336e-05
12 *3820:CLK *664:34 0.000141935
13 *3820:CLK *808:12 6.94441e-06
14 *594:10 *3438:S0 1.01912e-05
15 *594:10 *725:39 0
16 *594:10 *725:59 0.000119794
17 *594:10 *808:12 3.10725e-05
18 *3632:A *594:34 5.65955e-05
19 *3649:A *3820:CLK 0.000172085
20 *3649:A *594:10 0.000413295
21 *3718:A *594:10 0.000214689
22 *3764:D *3764:CLK 9.84729e-05
23 *3820:D *3820:CLK 7.88641e-05
24 *3820:D *594:10 7.5802e-05
25 *3828:D *3762:CLK 5.22622e-05
26 *3828:D *3828:CLK 5.51571e-05
27 *3836:D *3764:CLK 4.08637e-05
28 *3836:D *3820:CLK 0.000101771
29 *3836:D *594:25 0.000273617
30 *350:26 *594:10 0.000191337
31 *381:28 *594:10 0
32 *525:62 *594:10 5.33005e-05
*RES
1 *3977:X *594:10 36.0143 
2 *594:10 *3820:CLK 17.4071 
3 *594:10 *594:23 4.5 
4 *594:23 *594:25 3.82143 
5 *594:25 *3836:CLK 9.3 
6 *594:25 *594:34 2.19643 
7 *594:34 *3762:CLK 11.0679 
8 *594:34 *3828:CLK 23.5679 
9 *594:23 *3764:CLK 13.1214 
*END

*D_NET *595 0.00404132
*CONN
*I *3894:CLK I *D sky130_fd_sc_hd__dfrtp_2
*I *3895:CLK I *D sky130_fd_sc_hd__dfrtp_2
*I *3763:CLK I *D sky130_fd_sc_hd__dfxtp_2
*I *3819:CLK I *D sky130_fd_sc_hd__dfxtp_2
*I *3835:CLK I *D sky130_fd_sc_hd__dfxtp_2
*I *3978:X O *D sky130_fd_sc_hd__clkbuf_16
*CAP
1 *3894:CLK 0.00011194
2 *3895:CLK 0.000245871
3 *3763:CLK 0.000173617
4 *3819:CLK 0
5 *3835:CLK 0.00021507
6 *3978:X 0.000483047
7 *595:48 0.000692703
8 *595:21 0.000225794
9 *595:6 0.000415402
10 *3763:CLK *3490:A0 0.000146533
11 *3763:CLK *619:21 0
12 *3763:CLK *632:14 1.02504e-05
13 *3835:CLK *3462:S1 1.32293e-05
14 *3835:CLK *3646:A0 0.0001399
15 *595:6 *3446:A3 1.07719e-05
16 *595:6 *3646:A0 0.000135028
17 *595:21 *632:14 0.000148189
18 *3447:A1 *3895:CLK 6.23278e-05
19 *3491:A *3763:CLK 0.000107004
20 *3835:D *3835:CLK 4.70437e-05
21 *4110:A *3835:CLK 0.000315105
22 *479:8 *3763:CLK 0.000194299
23 *479:8 *595:21 0.000148189
*RES
1 *3978:X *595:6 11.8893 
2 *595:6 *3835:CLK 14.9071 
3 *595:6 *595:21 6.44643 
4 *595:21 *3819:CLK 13.8 
5 *595:21 *3763:CLK 18.9429 
6 *3978:X *595:48 14.3714 
7 *595:48 *3895:CLK 22.9786 
8 *595:48 *3894:CLK 11.0679 
*END

*D_NET *596 0.00850585
*CONN
*I *3898:CLK I *D sky130_fd_sc_hd__dfrtp_2
*I *3893:CLK I *D sky130_fd_sc_hd__dfrtp_2
*I *3900:CLK I *D sky130_fd_sc_hd__dfrtp_2
*I *3897:CLK I *D sky130_fd_sc_hd__dfrtp_2
*I *3896:CLK I *D sky130_fd_sc_hd__dfrtp_2
*I *4000:A I *D sky130_fd_sc_hd__clkbuf_4
*I *3979:X O *D sky130_fd_sc_hd__clkbuf_16
*CAP
1 *3898:CLK 0
2 *3893:CLK 0.000220441
3 *3900:CLK 4.24909e-05
4 *3897:CLK 0
5 *3896:CLK 0.000115498
6 *4000:A 0.000603452
7 *3979:X 0.00148149
8 *596:66 0.000451883
9 *596:62 0.000653922
10 *596:55 0.000715611
11 *596:42 0.00124418
12 *596:42 *3282:B1 0.000228514
13 *596:42 *3307:A3 2.62066e-05
14 *596:42 *3307:C1 9.54798e-06
15 *596:62 *3897:D 7.62237e-05
16 *596:62 *3897:RESET_B 9.22893e-05
17 *3254:A *4000:A 1.92789e-05
18 *3282:A2 *596:42 7.71367e-05
19 *3298:B2 *596:42 0.000248493
20 *3307:A1 *596:42 4.5539e-05
21 *3307:A2 *596:42 4.82865e-05
22 *3307:B1 *4000:A 0.000145116
23 *3309:A2 *596:42 4.38511e-05
24 *3309:B1 *3896:CLK 8.84088e-05
25 *3309:B1 *596:42 9.65412e-05
26 *3312:B *596:42 1.08359e-05
27 *3313:A2 *596:42 0.000202835
28 *3326:A1 *4000:A 8.15939e-05
29 *3336:B1 *3893:CLK 1.50087e-05
30 *3336:B1 *3900:CLK 5.80706e-06
31 *3338:A *3893:CLK 0.000347354
32 *3338:A *3900:CLK 6.05161e-06
33 *3979:A *4000:A 1.03105e-05
34 *195:10 *4000:A 0.000153047
35 *205:40 *596:42 7.86072e-05
36 *205:55 *596:42 0
37 *213:50 *596:42 0.000217075
38 *214:26 *596:42 0.000107076
39 *214:37 *596:42 9.84763e-05
40 *215:8 *596:42 0.000224577
41 *219:10 *596:42 0
42 *560:8 *3900:CLK 7.05143e-06
43 *560:8 *596:66 0.000165745
*RES
1 *3979:X *4000:A 36.2429 
2 *3979:X *596:42 47.8309 
3 *596:42 *3896:CLK 16.3536 
4 *596:42 *596:55 8.73214 
5 *596:55 *3897:CLK 9.3 
6 *596:55 *596:62 8.75 
7 *596:62 *596:66 9.02679 
8 *596:66 *3900:CLK 14.6125 
9 *596:66 *3893:CLK 19.4696 
10 *596:62 *3898:CLK 9.3 
*END

*D_NET *597 0.00569663
*CONN
*I *3822:CLK I *D sky130_fd_sc_hd__dfxtp_2
*I *3869:CLK I *D sky130_fd_sc_hd__dfxtp_2
*I *3867:CLK I *D sky130_fd_sc_hd__dfxtp_2
*I *3853:CLK I *D sky130_fd_sc_hd__dfxtp_2
*I *3845:CLK I *D sky130_fd_sc_hd__dfxtp_2
*I *3980:X O *D sky130_fd_sc_hd__clkbuf_16
*CAP
1 *3822:CLK 0.000375862
2 *3869:CLK 0.000145011
3 *3867:CLK 0.000568385
4 *3853:CLK 0
5 *3845:CLK 6.76692e-05
6 *3980:X 0
7 *597:18 0.000432641
8 *597:12 0.00105319
9 *597:8 0.000397345
10 *597:6 0.000508363
11 *3822:CLK *3470:A2 8.71847e-05
12 *3822:CLK *692:30 0.0002168
13 *3845:CLK *3719:A0 0.000153047
14 *3867:CLK *3445:S0 0.000136604
15 *3867:CLK *3445:S1 2.97137e-05
16 *3867:CLK *833:8 5.94433e-06
17 *597:8 *692:30 0.000163231
18 *597:12 *3461:A0 7.74135e-05
19 *597:12 *634:31 0.000202089
20 *597:12 *692:30 9.84016e-05
21 *597:12 *692:32 3.51224e-05
22 *597:18 *833:8 2.22999e-05
23 *3853:D *3845:CLK 0.00020455
24 *3853:D *597:18 8.89117e-05
25 *3952:A *3867:CLK 3.20883e-05
26 *387:8 *3822:CLK 0.000213939
27 *387:8 *597:8 0.000323397
28 *387:8 *597:12 5.74242e-05
*RES
1 *3980:X *597:6 13.8 
2 *597:6 *597:8 4.375 
3 *597:8 *597:12 8.875 
4 *597:12 *597:18 5.91071 
5 *597:18 *3845:CLK 20.8536 
6 *597:18 *3853:CLK 9.3 
7 *597:12 *3867:CLK 16.7286 
8 *597:8 *3869:CLK 15.9786 
9 *597:6 *3822:CLK 21.7107 
*END

*D_NET *598 0.00440972
*CONN
*I *3843:CLK I *D sky130_fd_sc_hd__dfxtp_2
*I *3851:CLK I *D sky130_fd_sc_hd__dfxtp_2
*I *3859:CLK I *D sky130_fd_sc_hd__dfxtp_2
*I *4001:A I *D sky130_fd_sc_hd__clkbuf_4
*I *3827:CLK I *D sky130_fd_sc_hd__dfxtp_2
*I *3981:X O *D sky130_fd_sc_hd__clkbuf_16
*CAP
1 *3843:CLK 3.52588e-05
2 *3851:CLK 0.000179184
3 *3859:CLK 0
4 *4001:A 0
5 *3827:CLK 0.00071601
6 *3981:X 0.000135015
7 *598:16 0.000729061
8 *598:14 0.000538244
9 *598:6 0.000804134
10 *3827:CLK *685:79 0
11 *3851:CLK *3715:A1 3.75868e-05
12 *598:14 *3668:A1 2.56694e-05
13 *598:14 *663:26 0.000268409
14 *598:14 *685:79 5.74562e-05
15 *3463:A1 *3827:CLK 0
16 *3647:A *3827:CLK 0
17 *3669:A *3827:CLK 0
18 *3682:A *3851:CLK 0.000125425
19 *3685:S *3827:CLK 9.90431e-05
20 *3685:S *598:16 8.76257e-05
21 *3851:D *3851:CLK 1.00887e-05
22 *3859:D *3827:CLK 0
23 *3859:D *598:14 9.25014e-06
24 *479:8 *3851:CLK 0.000224881
25 *516:41 *3827:CLK 9.90431e-05
26 *516:41 *598:16 9.90367e-05
27 *562:262 *3843:CLK 6.05161e-06
28 *562:262 *598:6 3.72932e-05
29 *562:262 *598:14 8.59515e-05
*RES
1 *3981:X *598:6 10.6571 
2 *598:6 *598:14 16.5179 
3 *598:14 *598:16 0.946429 
4 *598:16 *3827:CLK 31.5143 
5 *598:16 *4001:A 9.3 
6 *598:14 *3859:CLK 9.3 
7 *598:6 *3851:CLK 23.8893 
8 *3981:X *3843:CLK 19.1357 
*END

*D_NET *599 0.00480377
*CONN
*I *3877:CLK I *D sky130_fd_sc_hd__dfxtp_2
*I *3841:CLK I *D sky130_fd_sc_hd__dfxtp_2
*I *3870:CLK I *D sky130_fd_sc_hd__dfxtp_2
*I *3849:CLK I *D sky130_fd_sc_hd__dfxtp_2
*I *3857:CLK I *D sky130_fd_sc_hd__dfxtp_2
*I *3982:X O *D sky130_fd_sc_hd__clkbuf_16
*CAP
1 *3877:CLK 0.000486909
2 *3841:CLK 0
3 *3870:CLK 2.22847e-05
4 *3849:CLK 0
5 *3857:CLK 2.75238e-05
6 *3982:X 0.000606921
7 *599:22 0.000642202
8 *599:18 0.00107586
9 *599:8 0.000558913
10 *3877:CLK *3460:S 0.000320474
11 *3877:CLK *3472:A1 0
12 *3877:CLK *3721:A0 0.00010326
13 *3877:CLK *3721:A1 7.83659e-05
14 *3877:CLK *4052:A 0
15 *3877:CLK *681:44 0.000162911
16 *599:22 *829:8 0.000346266
17 *3460:A1 *3877:CLK 0
18 *3705:A *599:8 1.19472e-05
19 *3705:A *599:18 7.35779e-05
20 *3721:S *3877:CLK 0
21 *3849:D *599:22 1.64343e-05
22 *3870:D *599:18 0.00014613
23 *352:44 *3877:CLK 0
24 *387:8 *3877:CLK 0.000123784
*RES
1 *3982:X *599:8 16.05 
2 *599:8 *599:18 12.0536 
3 *599:18 *599:22 10 
4 *599:22 *3857:CLK 9.83571 
5 *599:22 *3849:CLK 9.3 
6 *599:18 *3870:CLK 9.72857 
7 *599:8 *3841:CLK 13.8 
8 *3982:X *3877:CLK 37.8857 
*END

*D_NET *600 0.0112889
*CONN
*I *3915:CLK I *D sky130_fd_sc_hd__dfrtp_2
*I *3846:CLK I *D sky130_fd_sc_hd__dfxtp_2
*I *4002:A I *D sky130_fd_sc_hd__clkbuf_4
*I *3862:CLK I *D sky130_fd_sc_hd__dfxtp_2
*I *3854:CLK I *D sky130_fd_sc_hd__dfxtp_2
*I *3766:CLK I *D sky130_fd_sc_hd__dfxtp_2
*I *3983:X O *D sky130_fd_sc_hd__clkbuf_16
*CAP
1 *3915:CLK 0.000797789
2 *3846:CLK 6.94389e-05
3 *4002:A 0
4 *3862:CLK 0.000447271
5 *3854:CLK 0.000112003
6 *3766:CLK 0.000294697
7 *3983:X 0.000275609
8 *600:58 0.0010199
9 *600:25 0.000835268
10 *600:23 0.000412779
11 *600:10 0.0005125
12 *600:8 0.000509295
13 *3766:CLK *3622:C 0.000242913
14 *3766:CLK *3656:A_N 3.79104e-05
15 *3766:CLK *663:16 9.97648e-05
16 *3766:CLK *707:35 0.000168939
17 *3766:CLK *707:41 0.000146474
18 *3766:CLK *707:74 0.000298281
19 *3846:CLK *663:16 1.98839e-05
20 *3862:CLK *3470:S0 1.03904e-05
21 *3862:CLK *3670:A0 0.00015456
22 *3915:CLK *3534:B 6.59074e-05
23 *3915:CLK *3552:A_N 0
24 *3915:CLK *4030:A 0.000351985
25 *3915:CLK *700:6 3.97677e-05
26 *3915:CLK *700:10 0.000184825
27 *3915:CLK *707:74 0.000356424
28 *3915:CLK *707:91 5.46971e-05
29 *600:10 *3656:A_N 7.21627e-05
30 *600:10 *707:74 0.000211337
31 *600:58 *3656:A_N 6.1125e-05
32 *600:58 *707:74 0.000296035
33 *600:58 *869:40 0
34 *3688:A *3854:CLK 5.52302e-05
35 *3688:A *3862:CLK 0.000189583
36 *3688:A *600:25 4.38128e-05
37 *3854:D *3854:CLK 0.000193787
38 *3862:D *3862:CLK 0.000145973
39 *3983:A *3862:CLK 5.49995e-05
40 *4080:A *3846:CLK 9.41642e-05
41 *202:54 *600:8 0.000395382
42 *352:34 *3915:CLK 0.000181381
43 *404:8 *3766:CLK 4.8936e-05
44 *404:14 *3766:CLK 0.00018216
45 *498:32 *3862:CLK 0.000471298
46 *507:30 *3862:CLK 0.000348872
47 *507:30 *600:58 4.46431e-05
48 *507:42 *3862:CLK 0.000501574
49 *562:204 *3862:CLK 6.093e-05
50 *562:302 *3915:CLK 0.000116207
*RES
1 *3983:X *600:8 17.6214 
2 *600:8 *600:10 2.85714 
3 *600:10 *3766:CLK 23.9429 
4 *600:10 *600:23 6.26786 
5 *600:23 *600:25 3.82143 
6 *600:25 *3854:CLK 11.9071 
7 *600:25 *3862:CLK 33.3536 
8 *600:23 *4002:A 9.3 
9 *600:8 *600:58 4.07143 
10 *600:58 *3846:CLK 15.1571 
11 *600:58 *3915:CLK 31.5321 
*END

*D_NET *601 0.00616533
*CONN
*I *3883:CLK I *D sky130_fd_sc_hd__dfxtp_2
*I *3875:CLK I *D sky130_fd_sc_hd__dfxtp_2
*I *3787:CLK I *D sky130_fd_sc_hd__dfxtp_2
*I *3779:CLK I *D sky130_fd_sc_hd__dfxtp_2
*I *3771:CLK I *D sky130_fd_sc_hd__dfxtp_2
*I *3984:X O *D sky130_fd_sc_hd__clkbuf_16
*CAP
1 *3883:CLK 0.000315924
2 *3875:CLK 0.000278504
3 *3787:CLK 0.000217956
4 *3779:CLK 0.000177125
5 *3771:CLK 0.000510911
6 *3984:X 7.21432e-05
7 *601:52 0.000627206
8 *601:23 0.000465739
9 *601:8 0.000620933
10 *3771:CLK *751:10 9.41642e-05
11 *3779:CLK *3459:S0 0.000137558
12 *3787:CLK *3442:S0 8.15095e-05
13 *3787:CLK *620:33 0.000236106
14 *3787:CLK *620:42 0.000154762
15 *3875:CLK *3442:A3 0.000244362
16 *3875:CLK *620:22 3.17148e-05
17 *3875:CLK *687:54 6.97936e-06
18 *3875:CLK *687:78 0.000112133
19 *3883:CLK *620:22 5.33005e-05
20 *601:8 *3442:S0 0.000128146
21 *601:8 *620:33 0.000125717
22 *601:23 *3442:S0 0.0002452
23 *601:23 *620:33 0.00023595
24 *601:52 *3442:A3 0.000103267
25 *601:52 *620:22 9.22948e-05
26 *3751:A *3883:CLK 5.62365e-05
27 *3771:D *3771:CLK 4.35854e-05
28 *3779:D *3779:CLK 0.000126137
29 *3883:D *3883:CLK 1.64343e-05
30 *422:10 *3875:CLK 0.000191337
31 *422:29 *3875:CLK 0.000201484
32 *535:26 *3787:CLK 0.000160507
*RES
1 *3984:X *601:8 15.4429 
2 *601:8 *3771:CLK 20.1527 
3 *601:8 *601:23 3.16071 
4 *601:23 *3779:CLK 17.6214 
5 *601:23 *3787:CLK 20.1393 
6 *3984:X *601:52 15.1393 
7 *601:52 *3875:CLK 21.5143 
8 *601:52 *3883:CLK 18.4607 
*END

*D_NET *602 0.00782481
*CONN
*I *3790:CLK I *D sky130_fd_sc_hd__dfxtp_2
*I *3798:CLK I *D sky130_fd_sc_hd__dfxtp_2
*I *3886:CLK I *D sky130_fd_sc_hd__dfxtp_2
*I *3878:CLK I *D sky130_fd_sc_hd__dfxtp_2
*I *4003:A I *D sky130_fd_sc_hd__clkbuf_4
*I *3985:X O *D sky130_fd_sc_hd__clkbuf_16
*CAP
1 *3790:CLK 0.000190001
2 *3798:CLK 2.24011e-05
3 *3886:CLK 0.000138085
4 *3878:CLK 3.78839e-05
5 *4003:A 0.000140594
6 *3985:X 0.000192756
7 *602:49 0.000740162
8 *602:32 0.00084844
9 *602:21 0.000848212
10 *602:8 0.000961083
11 *3790:CLK *3467:S1 0
12 *3798:CLK *667:31 3.18676e-05
13 *3878:CLK *3473:A1 9.87617e-05
14 *3886:CLK *688:31 7.44399e-05
15 *4003:A *667:12 0.000100823
16 *4003:A *687:54 9.8591e-05
17 *4003:A *697:46 6.76152e-05
18 *602:21 *3443:S1 0
19 *602:21 *667:12 0.000627598
20 *602:21 *667:27 0.000638293
21 *602:21 *767:12 0.000292669
22 *602:32 *3443:S1 0
23 *602:32 *667:27 0.000369825
24 *602:49 *3548:S 2.49484e-05
25 *602:49 *4049:A 0
26 *602:49 *635:10 0
27 *602:49 *667:27 0.00036496
28 *602:49 *667:31 0.000332445
29 *3444:A1 *602:21 0
30 *3543:A *602:21 0
31 *3567:A *3790:CLK 4.07505e-05
32 *3790:D *3790:CLK 3.67279e-06
33 *3798:D *602:49 1.64343e-05
34 *3878:D *602:32 0
35 *3886:D *3886:CLK 1.64343e-05
36 *3985:A *4003:A 0
37 *3985:A *602:21 0
38 *442:14 *4003:A 0
39 *442:14 *602:8 0.000142952
40 *442:37 *3790:CLK 0.000362109
*RES
1 *3985:X *602:8 16.3893 
2 *602:8 *4003:A 17.5143 
3 *602:8 *602:21 17.7321 
4 *602:21 *3878:CLK 14.7464 
5 *602:21 *602:32 4.67857 
6 *602:32 *3886:CLK 16.4071 
7 *602:32 *602:49 16.0714 
8 *602:49 *3798:CLK 9.83571 
9 *602:49 *3790:CLK 23.2821 
*END

*D_NET *603 0.0116186
*CONN
*I *3925:CLK I *D sky130_fd_sc_hd__dfrtp_2
*I *3920:CLK I *D sky130_fd_sc_hd__dfrtp_2
*I *3930:CLK I *D sky130_fd_sc_hd__dfrtp_2
*I *3929:CLK I *D sky130_fd_sc_hd__dfrtp_2
*I *3931:CLK I *D sky130_fd_sc_hd__dfrtp_2
*I *3986:X O *D sky130_fd_sc_hd__clkbuf_16
*CAP
1 *3925:CLK 0.00122741
2 *3920:CLK 0.000612314
3 *3930:CLK 0.000126788
4 *3929:CLK 0.00121619
5 *3931:CLK 0.000338807
6 *3986:X 0.0012728
7 *603:23 0.00134298
8 *603:10 0.000482626
9 *603:8 0.000801521
10 *3920:CLK *3920:D 1.19388e-05
11 *3920:CLK *3920:RESET_B 0.000136733
12 *3920:CLK *637:10 0.000198541
13 *3920:CLK *708:39 6.35892e-05
14 *3920:CLK *714:52 1.50087e-05
15 *3920:CLK *884:14 0
16 *3925:CLK *3241:A1 0.000607286
17 *3925:CLK *3241:B1 6.62983e-05
18 *3929:CLK *3238:B1 2.14378e-05
19 *3929:CLK *3262:B1 0.000212954
20 *3929:CLK *3319:B1 0
21 *3929:CLK *3930:D 2.51343e-06
22 *3929:CLK *3930:RESET_B 2.15245e-05
23 *3929:CLK *868:8 0.000346639
24 *3929:CLK *868:17 0.000115474
25 *3930:CLK *3930:D 5.21641e-05
26 *3931:CLK *3930:D 4.35048e-05
27 *3931:CLK *714:34 0.000392726
28 *603:8 *643:16 5.41609e-05
29 *603:10 *3930:D 3.98131e-05
30 *603:10 *708:39 1.69497e-05
31 *603:10 *714:52 4.75521e-05
32 *3236:A *3920:CLK 0
33 *3236:A *603:8 5.33334e-05
34 *3242:A1 *3925:CLK 1.40034e-05
35 *3263:A1 *3929:CLK 0.000171375
36 *3263:B1 *3929:CLK 9.24491e-05
37 *3266:B *3925:CLK 0
38 *3330:B *3925:CLK 0.000315798
39 *3412:B *3925:CLK 0.000101056
40 *3413:A *3931:CLK 0.00027275
41 *184:18 *3929:CLK 7.83659e-05
42 *185:31 *3929:CLK 3.06878e-06
43 *185:31 *3931:CLK 0.000126439
44 *185:31 *603:10 0.000122047
45 *202:54 *3925:CLK 0
46 *218:39 *3929:CLK 0.000201151
47 *226:12 *3929:CLK 0.000178503
*RES
1 *3986:X *603:8 15.1571 
2 *603:8 *603:10 3.46429 
3 *603:10 *3931:CLK 22.55 
4 *603:10 *603:23 4.5 
5 *603:23 *3929:CLK 38.9786 
6 *603:23 *3930:CLK 11.5143 
7 *603:8 *3920:CLK 25.8893 
8 *3986:X *3925:CLK 45.35 
*END

*D_NET *604 0.00525882
*CONN
*I *3917:CLK I *D sky130_fd_sc_hd__dfrtp_2
*I *3922:CLK I *D sky130_fd_sc_hd__dfrtp_2
*I *3923:CLK I *D sky130_fd_sc_hd__dfrtp_2
*I *3928:CLK I *D sky130_fd_sc_hd__dfrtp_2
*I *3918:CLK I *D sky130_fd_sc_hd__dfrtp_2
*I *3987:X O *D sky130_fd_sc_hd__clkbuf_16
*CAP
1 *3917:CLK 0.000122616
2 *3922:CLK 0.000135171
3 *3923:CLK 0.000305226
4 *3928:CLK 2.23854e-05
5 *3918:CLK 0.000115156
6 *3987:X 0
7 *604:36 0.000799743
8 *604:25 0.000665945
9 *604:8 0.0005252
10 *604:6 0.000248448
11 *3917:CLK *3905:D 1.58163e-05
12 *3917:CLK *3918:D 0.000146603
13 *3917:CLK *3925:RESET_B 9.41642e-05
14 *3917:CLK *716:58 5.50052e-05
15 *3917:CLK *886:10 6.85942e-05
16 *3918:CLK *3918:D 0.000133875
17 *3918:CLK *887:10 0.000128161
18 *3922:CLK *3922:RESET_B 0
19 *3922:CLK *4113:A 6.97972e-05
20 *3923:CLK *3922:RESET_B 0
21 *3923:CLK *3923:D 7.1724e-05
22 *3923:CLK *4045:A 0.000202835
23 *604:8 *3918:D 0.000489429
24 *604:8 *886:10 0.000126209
25 *604:8 *886:16 4.23086e-05
26 *604:8 *887:10 0.000190148
27 *604:25 *3928:D 3.97657e-05
28 *604:25 *3928:RESET_B 4.75537e-05
29 *604:25 *4093:A 4.08328e-06
30 *604:36 *3928:D 8.0318e-05
31 *604:36 *4093:A 0.000201383
32 *3414:D *3918:CLK 5.90791e-05
33 *3415:A *604:36 5.20751e-05
34 *4065:A *3922:CLK 0
35 *4065:A *3923:CLK 0
*RES
1 *3987:X *604:6 13.8 
2 *604:6 *604:8 6.19643 
3 *604:8 *3918:CLK 16.8 
4 *604:8 *604:25 8.33929 
5 *604:25 *3928:CLK 9.72857 
6 *604:25 *604:36 11.1964 
7 *604:36 *3923:CLK 20.6036 
8 *604:36 *3922:CLK 16.6571 
9 *604:6 *3917:CLK 17.1036 
*END

*D_NET *605 0.00706607
*CONN
*I *3823:CLK I *D sky130_fd_sc_hd__dfxtp_2
*I *3767:CLK I *D sky130_fd_sc_hd__dfxtp_2
*I *3839:CLK I *D sky130_fd_sc_hd__dfxtp_2
*I *3858:CLK I *D sky130_fd_sc_hd__dfxtp_2
*I *3834:CLK I *D sky130_fd_sc_hd__dfxtp_2
*I *3988:X O *D sky130_fd_sc_hd__clkbuf_16
*CAP
1 *3823:CLK 0.000373535
2 *3767:CLK 0
3 *3839:CLK 0
4 *3858:CLK 0.000105974
5 *3834:CLK 0.000581124
6 *3988:X 0.000301672
7 *605:28 0.0011761
8 *605:22 0.00122375
9 *605:14 0.00100557
10 *605:6 0.00094602
11 *3834:CLK *3637:S 0
12 *3834:CLK *664:48 0
13 *605:6 *3479:A1 0.000312209
14 *605:6 *3620:A0 5.52302e-05
15 *605:6 *4047:A 5.71472e-05
16 *605:6 *719:6 2.84109e-05
17 *605:6 *719:10 1.98839e-05
18 *605:14 *3620:A0 1.00399e-05
19 *3621:A *605:22 9.99853e-05
20 *3628:A *3834:CLK 0.000229538
21 *3767:D *605:14 0.00014836
22 *3823:D *3823:CLK 8.63855e-05
23 *3823:D *605:22 1.26059e-05
24 *3826:D *3834:CLK 1.00887e-05
25 *3831:D *605:22 0.000117424
26 *3839:D *605:22 1.02504e-05
27 *3839:D *605:28 0.000154762
*RES
1 *3988:X *605:6 15.5857 
2 *605:6 *605:14 14.1429 
3 *605:14 *605:22 18.7679 
4 *605:22 *605:28 13.3036 
5 *605:28 *3834:CLK 29.3893 
6 *605:28 *3858:CLK 11.0679 
7 *605:22 *3839:CLK 13.8 
8 *605:14 *3767:CLK 9.3 
9 *605:6 *3823:CLK 15.1036 
*END

*D_NET *606 0.00373255
*CONN
*I *3927:CLK I *D sky130_fd_sc_hd__dfrtp_2
*I *3914:CLK I *D sky130_fd_sc_hd__dfrtp_2
*I *3924:CLK I *D sky130_fd_sc_hd__dfrtp_2
*I *3932:CLK I *D sky130_fd_sc_hd__dfrtp_2
*I *3919:CLK I *D sky130_fd_sc_hd__dfrtp_2
*I *3989:X O *D sky130_fd_sc_hd__clkbuf_16
*CAP
1 *3927:CLK 0.000195765
2 *3914:CLK 2.91823e-05
3 *3924:CLK 0
4 *3932:CLK 0.000409353
5 *3919:CLK 0.000401761
6 *3989:X 8.97055e-05
7 *606:39 0.000379095
8 *606:14 0.000976736
9 *606:10 0.000301552
10 *606:8 0.000379783
11 *3914:CLK *3927:RESET_B 1.92789e-05
12 *3919:CLK *3919:D 7.77751e-05
13 *3927:CLK *3927:RESET_B 0.000193643
14 *3932:CLK *3932:D 6.05161e-06
15 *606:8 *3920:D 9.90431e-05
16 *606:10 *3914:RESET_B 0
17 *606:10 *3920:D 0
18 *606:10 *3924:D 0
19 *606:10 *714:77 0
20 *606:14 *3924:D 0
21 *606:39 *3914:RESET_B 0
22 *3246:A *606:10 0
23 *3956:A *3932:CLK 3.20883e-05
24 *562:302 *606:14 0
25 *573:14 *3932:CLK 0.000141734
*RES
1 *3989:X *606:8 15.5679 
2 *606:8 *606:10 2.25 
3 *606:10 *606:14 6.75 
4 *606:14 *3919:CLK 15.9964 
5 *606:14 *3932:CLK 16.4071 
6 *606:10 *3924:CLK 13.8 
7 *606:8 *606:39 7.35714 
8 *606:39 *3914:CLK 9.83571 
9 *606:39 *3927:CLK 13.9429 
*END

*D_NET *607 0.00465534
*CONN
*I *4004:A I *D sky130_fd_sc_hd__clkbuf_4
*I *3916:CLK I *D sky130_fd_sc_hd__dfrtp_2
*I *3933:CLK I *D sky130_fd_sc_hd__dfrtp_2
*I *3926:CLK I *D sky130_fd_sc_hd__dfrtp_2
*I *3921:CLK I *D sky130_fd_sc_hd__dfrtp_2
*I *3990:X O *D sky130_fd_sc_hd__clkbuf_16
*CAP
1 *4004:A 0
2 *3916:CLK 0
3 *3933:CLK 0.000229461
4 *3926:CLK 2.93647e-05
5 *3921:CLK 0.000833501
6 *3990:X 0.000534847
7 *607:22 0.00103702
8 *607:18 0.000592199
9 *607:10 0.000723433
10 *3921:CLK *3921:RESET_B 8.79458e-05
11 *3921:CLK *3926:D 0
12 *3921:CLK *886:10 0.000144035
13 *3926:CLK *3926:RESET_B 1.84865e-05
14 *3933:CLK *909:6 5.62995e-05
15 *607:10 *3916:D 0.00015304
16 *607:18 *3916:D 0.00016049
17 *607:22 *3916:D 0
18 *3248:A *3933:CLK 5.52238e-05
19 *3330:B *3921:CLK 0
20 *3330:B *607:22 0
21 *191:10 *607:18 0
*RES
1 *3990:X *607:10 20.8 
2 *607:10 *607:18 8.23214 
3 *607:18 *607:22 7.05357 
4 *607:22 *3921:CLK 24.8179 
5 *607:22 *3926:CLK 14.3357 
6 *607:18 *3933:CLK 13.55 
7 *607:18 *3916:CLK 9.3 
8 *607:10 *4004:A 13.8 
*END

*D_NET *608 0.00363956
*CONN
*I *3864:CLK I *D sky130_fd_sc_hd__dfxtp_2
*I *3760:CLK I *D sky130_fd_sc_hd__dfxtp_2
*I *3832:CLK I *D sky130_fd_sc_hd__dfxtp_2
*I *3824:CLK I *D sky130_fd_sc_hd__dfxtp_2
*I *3816:CLK I *D sky130_fd_sc_hd__dfxtp_2
*I *3991:X O *D sky130_fd_sc_hd__clkbuf_16
*CAP
1 *3864:CLK 0.000253444
2 *3760:CLK 0.000151716
3 *3832:CLK 9.40906e-05
4 *3824:CLK 0.000204977
5 *3816:CLK 0
6 *3991:X 0.000253444
7 *608:21 0.000454594
8 *608:10 0.000637955
9 *608:4 0.000634144
10 *3760:CLK *3420:S0 8.68131e-05
11 *3760:CLK *3479:S0 9.4736e-05
12 *3760:CLK *628:22 4.87908e-05
13 *3864:CLK *3692:A1 4.6829e-05
14 *608:10 *796:10 0.000140243
15 *3485:A *3864:CLK 0.000126416
16 *3624:A *608:10 5.49489e-05
17 *3624:A *608:21 3.38774e-05
18 *3760:D *3760:CLK 6.07532e-05
19 *3816:D *608:10 1.64343e-05
20 *3824:D *3824:CLK 0.000131481
21 *3832:D *3824:CLK 2.47319e-05
22 *3832:D *3832:CLK 8.9145e-05
*RES
1 *3991:X *608:4 9.3 
2 *608:4 *608:10 8.07143 
3 *608:10 *3816:CLK 9.3 
4 *608:10 *608:21 7.10714 
5 *608:21 *3824:CLK 17.9607 
6 *608:21 *3832:CLK 16.05 
7 *608:4 *3760:CLK 22.675 
8 *3991:X *3864:CLK 31.4214 
*END

*D_NET *609 0.00642707
*CONN
*I *3884:CLK I *D sky130_fd_sc_hd__dfxtp_2
*I *3780:CLK I *D sky130_fd_sc_hd__dfxtp_2
*I *3856:CLK I *D sky130_fd_sc_hd__dfxtp_2
*I *3876:CLK I *D sky130_fd_sc_hd__dfxtp_2
*I *3772:CLK I *D sky130_fd_sc_hd__dfxtp_2
*I *3992:X O *D sky130_fd_sc_hd__clkbuf_16
*CAP
1 *3884:CLK 0
2 *3780:CLK 0.000250522
3 *3856:CLK 0.000681778
4 *3876:CLK 0
5 *3772:CLK 0
6 *3992:X 0.000632943
7 *609:60 0.000723873
8 *609:25 0.00124798
9 *609:12 0.000725795
10 *3780:CLK *4108:A 0.000179656
11 *3856:CLK *3420:S0 8.72419e-05
12 *3856:CLK *3450:A2 0.000165032
13 *3856:CLK *3450:S0 0.000100009
14 *3856:CLK *3526:A1 0
15 *3856:CLK *628:22 0
16 *3856:CLK *631:28 0.000104988
17 *3856:CLK *648:12 0.000245105
18 *3856:CLK *684:27 0
19 *609:12 *4107:A 0.000148911
20 *609:12 *4108:A 1.69115e-05
21 *609:25 *3450:A2 8.20639e-05
22 *609:25 *3509:A0 1.72894e-05
23 rd_data[5] *3780:CLK 3.69047e-06
24 *3441:A *3856:CLK 0
25 *3485:A *3856:CLK 9.77423e-05
26 *3510:A *609:60 0
27 *3527:A *3780:CLK 0
28 *3527:A *609:25 9.58181e-05
29 *3753:A *3856:CLK 0.00017875
30 *3772:D *609:25 0.000189363
31 *3780:D *3780:CLK 0.000153047
32 *3780:D *609:12 0.000104974
33 *3876:D *3856:CLK 2.78509e-05
34 *3876:D *609:25 0.00010844
35 *3884:D *609:60 5.7298e-05
*RES
1 *3992:X *609:12 21.6036 
2 *609:12 *3772:CLK 9.3 
3 *609:12 *609:25 10.5536 
4 *609:25 *3876:CLK 9.3 
5 *609:25 *3856:CLK 34.175 
6 *3992:X *609:60 25.0143 
7 *609:60 *3780:CLK 23.55 
8 *609:60 *3884:CLK 9.3 
*END

*D_NET *610 0.00703881
*CONN
*I *3840:CLK I *D sky130_fd_sc_hd__dfxtp_2
*I *3848:CLK I *D sky130_fd_sc_hd__dfxtp_2
*I *3807:CLK I *D sky130_fd_sc_hd__dfxtp_2
*I *3804:CLK I *D sky130_fd_sc_hd__dfxtp_2
*I *3812:CLK I *D sky130_fd_sc_hd__dfxtp_2
*I *3993:X O *D sky130_fd_sc_hd__clkbuf_16
*CAP
1 *3840:CLK 2.45924e-05
2 *3848:CLK 0.000238319
3 *3807:CLK 0.000191874
4 *3804:CLK 0
5 *3812:CLK 2.36895e-05
6 *3993:X 0.000434244
7 *610:45 0.00110708
8 *610:23 0.000366543
9 *610:12 0.000543808
10 *610:6 0.00162387
11 *3807:CLK *3475:A 2.49484e-05
12 *3807:CLK *662:40 1.92905e-05
13 *3848:CLK *625:82 4.04446e-05
14 *610:6 *768:10 9.60939e-05
15 *610:12 *3475:A 1.81805e-05
16 *610:12 *652:20 5.52238e-05
17 *610:23 *3450:A0 0
18 *610:45 *3419:S1 0.000146554
19 *3451:B *610:12 9.60875e-05
20 *3481:A1 *3807:CLK 0.000149439
21 *3481:A1 *610:12 0.000148189
22 *3481:A1 *610:23 0.000406829
23 *3481:A2 *610:12 3.79521e-05
24 *3481:B2 *610:12 8.50152e-05
25 *3580:S *3807:CLK 0.00013182
26 *3580:S *610:23 8.59061e-05
27 *3598:A *610:12 8.33559e-05
28 *3659:A *3840:CLK 6.05161e-06
29 *3659:A *3848:CLK 0.000100248
30 *3812:D *3812:CLK 5.52238e-05
31 *3840:D *3840:CLK 5.49995e-05
32 *3992:A *610:12 5.47653e-05
33 *3993:A *610:12 2.07491e-05
34 *363:12 *3807:CLK 0
35 *402:14 *610:12 5.58941e-05
36 *562:56 *610:6 0.000254538
37 *562:60 *610:6 8.30551e-05
38 *562:62 *610:6 7.36734e-05
39 *562:69 *610:6 4.69307e-05
40 *562:69 *610:12 5.33334e-05
41 *562:75 *610:45 0
*RES
1 *3993:X *610:6 17.6393 
2 *610:6 *610:12 12.4107 
3 *610:12 *3812:CLK 14.3357 
4 *610:12 *610:23 5.28571 
5 *610:23 *3804:CLK 13.8 
6 *610:23 *3807:CLK 19.0143 
7 *610:6 *610:45 18.5893 
8 *610:45 *3848:CLK 17.8357 
9 *610:45 *3840:CLK 14.3357 
*END

*D_NET *611 0.00562539
*CONN
*I *3805:CLK I *D sky130_fd_sc_hd__dfxtp_2
*I *3796:CLK I *D sky130_fd_sc_hd__dfxtp_2
*I *3788:CLK I *D sky130_fd_sc_hd__dfxtp_2
*I *3799:CLK I *D sky130_fd_sc_hd__dfxtp_2
*I *3791:CLK I *D sky130_fd_sc_hd__dfxtp_2
*I *3994:X O *D sky130_fd_sc_hd__clkbuf_16
*CAP
1 *3805:CLK 3.03372e-05
2 *3796:CLK 0
3 *3788:CLK 0.00028664
4 *3799:CLK 0.000136012
5 *3791:CLK 8.76676e-05
6 *3994:X 0.000632413
7 *611:49 0.00062357
8 *611:47 0.000437052
9 *611:16 0.000786309
10 *3788:CLK *612:20 0.000178847
11 *3788:CLK *768:10 2.61441e-05
12 *3791:CLK *3474:S1 2.84109e-05
13 *3791:CLK *686:35 0
14 *3799:CLK *686:22 7.36373e-05
15 *3799:CLK *686:33 0
16 *3805:CLK *662:40 7.77751e-05
17 *3805:CLK *666:16 7.77751e-05
18 *611:16 *3476:A1 7.02611e-05
19 *611:16 *3476:A3 9.77793e-05
20 *611:16 *3568:A0 5.10822e-05
21 *611:16 *666:49 0.000103253
22 *611:16 *686:33 7.37062e-05
23 *611:47 *3550:A1 9.25014e-06
24 *611:47 *4095:A 3.55115e-05
25 *3544:S *611:47 5.01685e-05
26 *3544:S *611:49 0.000185534
27 *3545:A *3788:CLK 0.000221636
28 *3545:A *611:49 0.000211928
29 *3603:S *3791:CLK 5.68713e-05
30 *3773:D *3788:CLK 0
31 *3788:D *3788:CLK 8.65694e-05
32 *3791:D *3791:CLK 0
33 *3799:D *3791:CLK 0.000125717
34 *3799:D *3799:CLK 0.000336009
35 *360:14 *3788:CLK 0
36 *360:14 *611:49 0
37 *461:57 *611:16 0.000355002
38 *544:116 *3788:CLK 7.252e-05
*RES
1 *3994:X *611:16 31.7821 
2 *611:16 *3791:CLK 15.9786 
3 *611:16 *3799:CLK 17.9071 
4 *3994:X *611:47 15.4429 
5 *611:47 *611:49 7.41071 
6 *611:49 *3788:CLK 20.675 
7 *611:49 *3796:CLK 13.8 
8 *611:47 *3805:CLK 15.1571 
*END

*D_NET *612 0.00672069
*CONN
*I *3781:CLK I *D sky130_fd_sc_hd__dfxtp_2
*I *3885:CLK I *D sky130_fd_sc_hd__dfxtp_2
*I *3998:A I *D sky130_fd_sc_hd__clkbuf_4
*I *3773:CLK I *D sky130_fd_sc_hd__dfxtp_2
*I *3865:CLK I *D sky130_fd_sc_hd__dfxtp_2
*I *3995:X O *D sky130_fd_sc_hd__clkbuf_16
*CAP
1 *3781:CLK 0.000113696
2 *3885:CLK 3.0064e-05
3 *3998:A 2.23854e-05
4 *3773:CLK 0.000210502
5 *3865:CLK 0.000408026
6 *3995:X 4.14811e-05
7 *612:51 0.000283945
8 *612:20 0.00134176
9 *612:16 0.00127404
10 *612:6 0.000710088
11 *3773:CLK *3477:A1 0.000151175
12 *3781:CLK *724:32 5.49489e-05
13 *3865:CLK *3477:A1 0.000437934
14 *3885:CLK *668:12 1.79145e-05
15 *612:16 *3458:A2 0.000518818
16 *612:16 *3458:A3 7.6644e-05
17 *612:16 *3511:A0 7.83659e-05
18 *612:20 *768:10 5.46079e-05
19 *612:51 *3458:A2 1.41642e-05
20 *612:51 *4013:A 0
21 *3453:A2 *3865:CLK 0
22 *3695:A *3865:CLK 1.02504e-05
23 *3712:A *3865:CLK 0
24 *3755:A *3781:CLK 0.000173614
25 *3755:A *612:51 0.000157748
26 *3788:CLK *612:20 0.000178847
27 *3796:D *3773:CLK 7.76491e-05
28 *3796:D *3865:CLK 0.000170523
29 *3865:D *3865:CLK 3.47737e-05
30 *544:116 *3865:CLK 7.67221e-05
*RES
1 *3995:X *612:6 9.83571 
2 *612:6 *612:16 16.4464 
3 *612:16 *612:20 12.8393 
4 *612:20 *3865:CLK 24.2464 
5 *612:20 *3773:CLK 17.925 
6 *612:16 *3998:A 9.72857 
7 *612:6 *612:51 7.96429 
8 *612:51 *3885:CLK 14.3357 
9 *612:51 *3781:CLK 16.5857 
*END

*D_NET *613 0.00402001
*CONN
*I *3815:CLK I *D sky130_fd_sc_hd__dfxtp_2
*I *3879:CLK I *D sky130_fd_sc_hd__dfxtp_2
*I *3887:CLK I *D sky130_fd_sc_hd__dfxtp_2
*I *3775:CLK I *D sky130_fd_sc_hd__dfxtp_2
*I *3783:CLK I *D sky130_fd_sc_hd__dfxtp_2
*I *3996:X O *D sky130_fd_sc_hd__clkbuf_16
*CAP
1 *3815:CLK 0.000341709
2 *3879:CLK 0
3 *3887:CLK 0.00017775
4 *3775:CLK 0
5 *3783:CLK 0.000115291
6 *3996:X 0.000514063
7 *613:18 0.000477311
8 *613:12 0.000842471
9 *613:10 0.000475054
10 *3783:CLK *4095:A 4.5534e-05
11 *3783:CLK *4104:A 6.74911e-05
12 *3815:CLK *3474:S0 3.69047e-06
13 *3815:CLK *720:36 0.000198538
14 *3887:CLK *4098:A 2.07878e-05
15 *613:10 *3450:S0 6.10606e-05
16 *613:10 *3758:A0 6.07232e-05
17 *613:10 *628:22 0
18 *613:10 *867:8 0.000116014
19 *613:12 *755:10 6.86792e-05
20 *3509:S *3887:CLK 0.00020176
21 *3516:A *3783:CLK 0
22 *3516:A *3887:CLK 0
23 *3775:D *613:18 0.000145973
24 *544:61 *3815:CLK 8.61138e-05
*RES
1 *3996:X *613:10 22.675 
2 *613:10 *613:12 4.64286 
3 *613:12 *613:18 6.42857 
4 *613:18 *3783:CLK 20.8536 
5 *613:18 *3775:CLK 9.3 
6 *613:12 *3887:CLK 21.925 
7 *613:10 *3879:CLK 9.3 
8 *3996:X *3815:CLK 25.3143 
*END

*D_NET *614 0.00517753
*CONN
*I *3770:CLK I *D sky130_fd_sc_hd__dfxtp_2
*I *3874:CLK I *D sky130_fd_sc_hd__dfxtp_2
*I *3882:CLK I *D sky130_fd_sc_hd__dfxtp_2
*I *3872:CLK I *D sky130_fd_sc_hd__dfxtp_2
*I *3778:CLK I *D sky130_fd_sc_hd__dfxtp_2
*I *3997:X O *D sky130_fd_sc_hd__clkbuf_16
*CAP
1 *3770:CLK 0.000229571
2 *3874:CLK 0
3 *3882:CLK 0.000312682
4 *3872:CLK 0.000338447
5 *3778:CLK 0.000521939
6 *3997:X 0.000307271
7 *614:52 0.000396168
8 *614:37 0.000672968
9 *614:6 0.000973969
10 *3778:CLK *3434:A3 3.51284e-05
11 *3872:CLK *628:20 0
12 *3882:CLK *628:22 0
13 *3882:CLK *631:28 0.000118344
14 *614:6 *3434:A3 3.76286e-05
15 *614:37 *3434:S1 9.15784e-06
16 *3506:A *3770:CLK 5.50052e-05
17 *3744:S *3872:CLK 0.000559409
18 *3770:D *3770:CLK 4.51148e-05
19 *3778:D *3778:CLK 1.64343e-05
20 *3874:D *3882:CLK 0.00014913
21 *3874:D *614:52 1.64343e-05
22 *3882:D *3882:CLK 8.08376e-05
23 *3882:D *614:37 5.4031e-05
24 *347:10 *3882:CLK 0
25 *413:108 *3872:CLK 7.87601e-05
26 *544:78 *3872:CLK 0.000169095
*RES
1 *3997:X *614:6 11.0679 
2 *614:6 *3778:CLK 17.2464 
3 *614:6 *3872:CLK 27.5321 
4 *3997:X *614:37 16.9964 
5 *614:37 *3882:CLK 20.6036 
6 *614:37 *614:52 7.10714 
7 *614:52 *3874:CLK 9.3 
8 *614:52 *3770:CLK 13.1393 
*END

*D_NET *615 0.000270535
*CONN
*I *3898:D I *D sky130_fd_sc_hd__dfrtp_2
*I *3899:HI O *D sky130_fd_sc_hd__conb_1
*CAP
1 *3898:D 0.000107765
2 *3899:HI 0.000107765
3 *3898:D *3897:RESET_B 5.50052e-05
*RES
1 *3899:HI *3898:D 29.475 
*END

*D_NET *616 0.000463706
*CONN
*I *3889:D I *D sky130_fd_sc_hd__dfrtp_2
*I *4055:X O *D sky130_fd_sc_hd__clkdlybuf4s25_1
*CAP
1 *3889:D 0.000222089
2 *4055:X 0.000222089
3 *3889:CLK *3889:D 1.95287e-05
*RES
1 *4055:X *3889:D 30.9036 
*END

*D_NET *617 0.00203428
*CONN
*I *3903:RESET_B I *D sky130_fd_sc_hd__dfrtp_2
*I *3901:RESET_B I *D sky130_fd_sc_hd__dfrtp_2
*I *4056:X O *D sky130_fd_sc_hd__clkdlybuf4s25_1
*CAP
1 *3903:RESET_B 0.000293405
2 *3901:RESET_B 0.000755166
3 *4056:X 0.000461761
4 *3901:RESET_B *3903:D 0.000109531
5 *3901:RESET_B *713:12 0
6 *3903:RESET_B *3901:D 6.04401e-05
7 *3903:RESET_B *4042:A 5.00521e-05
8 aempty *3901:RESET_B 9.60337e-06
9 *3888:D *3901:RESET_B 0
10 *3888:D *3903:RESET_B 1.69115e-05
11 *566:61 *3903:RESET_B 3.17067e-05
12 *566:74 *3903:RESET_B 0.000245708
*RES
1 *4056:X *3901:RESET_B 26.7196 
2 *3901:RESET_B *3903:RESET_B 15.7143 
*END

*D_NET *618 0.0118756
*CONN
*I *3544:A1 I *D sky130_fd_sc_hd__mux2_2
*I *3580:A1 I *D sky130_fd_sc_hd__mux2_2
*I *3735:A1 I *D sky130_fd_sc_hd__mux2_2
*I *3562:A1 I *D sky130_fd_sc_hd__mux2_2
*I *3597:A0 I *D sky130_fd_sc_hd__mux2_2
*I *3752:A1 I *D sky130_fd_sc_hd__mux2_2
*I *3526:A0 I *D sky130_fd_sc_hd__mux2_2
*I *3509:A1 I *D sky130_fd_sc_hd__mux2_2
*I *4008:X O *D sky130_fd_sc_hd__clkdlybuf4s25_1
*CAP
1 *3544:A1 0.000437341
2 *3580:A1 0
3 *3735:A1 0
4 *3562:A1 0.000149303
5 *3597:A0 0
6 *3752:A1 0
7 *3526:A0 0.000397727
8 *3509:A1 0.000306133
9 *4008:X 0
10 *618:47 0.00108315
11 *618:38 0.000933849
12 *618:25 0.000604309
13 *618:12 0.000582661
14 *618:8 0.000361139
15 *618:6 0.000369618
16 *618:4 0.000515766
17 *3509:A1 *668:20 0.000252212
18 *3526:A0 *3450:A3 7.83659e-05
19 *3526:A0 *3526:A1 0.000417571
20 *3526:A0 *3526:S 9.71197e-05
21 *3544:A1 *3453:B1 2.71192e-05
22 *3544:A1 *3477:A1 9.54004e-05
23 *3544:A1 *3544:A0 2.97578e-05
24 *3544:A1 *633:45 6.7224e-05
25 *3544:A1 *668:20 0.000139202
26 *3544:A1 *686:35 9.9129e-05
27 *3562:A1 *3450:S1 0.000237842
28 *3562:A1 *3597:A1 2.36643e-05
29 *618:6 *3580:A0 2.70242e-05
30 *618:6 *633:45 0.00016927
31 *618:6 *668:20 0.000444664
32 *618:8 *3735:S 0.000313209
33 *618:8 *668:20 0.00111214
34 *618:12 *668:20 4.11572e-05
35 *618:25 *3450:A3 0.000268981
36 *618:25 *3450:S1 0.000177941
37 *618:25 *648:12 0.00012785
38 *618:47 *3450:A1 6.62868e-05
39 *618:47 *3450:S1 0.000259491
40 *618:47 *3451:A 2.89114e-05
41 *3481:A2 *3544:A1 5.49544e-05
42 *3544:S *3544:A1 5.66971e-05
43 *3580:S *618:6 4.33899e-05
44 *3580:S *618:8 0.000168579
45 *3581:A *618:8 0.000140243
46 *3597:S *3562:A1 0.000279498
47 *3736:A *3509:A1 0.000104379
48 *388:22 *3544:A1 9.94411e-06
49 *544:38 *3526:A0 0.000318316
50 *544:38 *618:25 3.34366e-05
51 *544:61 *618:25 0.000323594
*RES
1 *4008:X *618:4 9.3 
2 *618:4 *618:6 4.23214 
3 *618:6 *618:8 10.8036 
4 *618:8 *618:12 1.375 
5 *618:12 *3509:A1 16.0143 
6 *618:12 *618:25 12.8214 
7 *618:25 *3526:A0 23.7464 
8 *618:25 *618:38 4.5 
9 *618:38 *3752:A1 9.3 
10 *618:38 *618:47 12.0536 
11 *618:47 *3597:A0 9.3 
12 *618:47 *3562:A1 14.3893 
13 *618:8 *3735:A1 9.3 
14 *618:6 *3580:A1 9.3 
15 *618:4 *3544:A1 25.6393 
*END

*D_NET *619 0.0111247
*CONN
*I *3612:A1 I *D sky130_fd_sc_hd__mux2_2
*I *3629:A1 I *D sky130_fd_sc_hd__mux2_2
*I *3681:A1 I *D sky130_fd_sc_hd__mux2_2
*I *3664:A1 I *D sky130_fd_sc_hd__mux2_2
*I *3715:A0 I *D sky130_fd_sc_hd__mux2_2
*I *3698:A1 I *D sky130_fd_sc_hd__mux2_2
*I *3490:A1 I *D sky130_fd_sc_hd__mux2_2
*I *3646:A1 I *D sky130_fd_sc_hd__mux2_2
*I *4009:X O *D sky130_fd_sc_hd__clkdlybuf4s25_1
*CAP
1 *3612:A1 0
2 *3629:A1 0.000506945
3 *3681:A1 0
4 *3664:A1 0
5 *3715:A0 0.000522036
6 *3698:A1 0.000247693
7 *3490:A1 0.000226668
8 *3646:A1 0.000296194
9 *4009:X 0.000224515
10 *619:94 0.000814374
11 *619:55 0.00125379
12 *619:45 0.00096281
13 *619:34 0.000547027
14 *619:21 0.000474075
15 *619:10 0.000661889
16 *619:6 0.00071851
17 *3490:A1 *3490:A0 0.000230475
18 *3490:A1 *672:14 6.05161e-06
19 *3646:A1 *632:14 7.60966e-05
20 *3715:A0 *3664:S 0.000315451
21 *3715:A0 *3715:A1 1.43137e-05
22 *3715:A0 *663:16 8.91963e-06
23 *619:6 *632:14 0.000182598
24 *619:6 *632:23 0.000303351
25 *619:10 *632:14 0.000355363
26 *619:21 *3446:A0 0
27 *619:55 *3664:S 4.17433e-05
28 *619:55 *3681:A0 0.000297594
29 *619:55 *3698:A0 0
30 *619:55 *831:10 6.19467e-05
31 *619:94 *3446:A0 0.000388798
32 *619:94 *3612:A0 3.66572e-05
33 *3491:A *619:21 5.85135e-05
34 *3613:A *3629:A1 0.000101812
35 *3629:S *3629:A1 9.84673e-05
36 *3646:S *3646:A1 2.89114e-05
37 *3665:A *3715:A0 5.107e-05
38 *3665:A *619:55 0
39 *3681:S *619:55 6.35819e-05
40 *3682:A *3715:A0 0.00014852
41 *3685:S *619:55 0
42 *3698:S *3698:A1 9.60939e-05
43 *3715:S *3715:A0 3.23206e-05
44 *3763:CLK *619:21 0
45 *3763:D *619:21 0.000142327
46 *3763:D *619:94 0
47 *3819:D *3629:A1 5.50052e-05
48 *3819:D *3646:A1 1.64343e-05
49 *3819:D *619:21 1.52978e-05
50 *3843:D *619:55 9.62971e-05
51 *3851:D *3715:A0 2.93969e-05
52 *4111:A *3698:A1 0.000142043
53 *4111:A *619:45 0.000172699
54 *479:8 *619:21 0
*RES
1 *4009:X *619:6 13.9429 
2 *619:6 *619:10 3.83929 
3 *619:10 *3646:A1 12.7107 
4 *619:10 *619:21 8.57143 
5 *619:21 *3490:A1 16.8 
6 *619:21 *619:34 5.53571 
7 *619:34 *3698:A1 12.7107 
8 *619:34 *619:45 3.42857 
9 *619:45 *619:55 23.25 
10 *619:55 *3715:A0 27.5321 
11 *619:55 *3664:A1 9.3 
12 *619:45 *3681:A1 9.3 
13 *619:6 *619:94 15.7321 
14 *619:94 *3629:A1 16.55 
15 *619:94 *3612:A1 9.3 
*END

*D_NET *620 0.0109543
*CONN
*I *3733:A1 I *D sky130_fd_sc_hd__mux2_2
*I *3750:A1 I *D sky130_fd_sc_hd__mux2_2
*I *3560:A1 I *D sky130_fd_sc_hd__mux2_2
*I *3542:A1 I *D sky130_fd_sc_hd__mux2_2
*I *3578:A1 I *D sky130_fd_sc_hd__mux2_2
*I *3595:A0 I *D sky130_fd_sc_hd__mux2_2
*I *3524:A0 I *D sky130_fd_sc_hd__mux2_2
*I *3507:A1 I *D sky130_fd_sc_hd__mux2_2
*I *4010:X O *D sky130_fd_sc_hd__clkdlybuf4s25_1
*CAP
1 *3733:A1 0
2 *3750:A1 0.000180724
3 *3560:A1 0
4 *3542:A1 0.000255112
5 *3578:A1 0.000674932
6 *3595:A0 2.13113e-05
7 *3524:A0 0
8 *3507:A1 7.5329e-05
9 *4010:X 0.000151481
10 *620:70 0.000580512
11 *620:46 0.000839234
12 *620:42 0.000686999
13 *620:33 0.000505457
14 *620:22 0.000731259
15 *620:12 0.00070479
16 *620:6 0.000306465
17 *3507:A1 *3507:A0 1.55885e-05
18 *3542:A1 *3443:A0 0.000358963
19 *3542:A1 *3443:S0 0.000480507
20 *3542:A1 *3443:S1 0.000224883
21 *3542:A1 *3560:A0 0.000201442
22 *3542:A1 *775:10 1.00887e-05
23 *3578:A1 *3578:A0 3.37853e-05
24 *3750:A1 *3750:A0 0.000257371
25 *3750:A1 *863:8 5.49489e-05
26 *620:6 *3733:A0 0.000126021
27 *620:12 *3442:A1 0.000117831
28 *620:12 *687:54 0.000131306
29 *620:12 *687:78 5.01234e-05
30 *620:33 *3442:A2 7.90803e-05
31 *620:33 *3442:S0 2.14474e-05
32 *620:33 *751:10 0.000145406
33 *620:42 *3443:A2 7.58841e-05
34 *620:42 *3466:S0 3.2923e-05
35 *620:42 *791:10 1.34741e-05
36 *620:46 *3595:A1 4.23526e-05
37 *620:70 *3466:S0 0.000198115
38 *3507:S *3507:A1 5.33005e-05
39 *3507:S *620:22 1.24368e-05
40 *3560:S *620:70 9.66977e-05
41 *3561:A *620:70 1.84776e-05
42 *3579:A *3578:A1 6.85846e-05
43 *3596:A *3578:A1 5.50052e-05
44 *3729:S *620:70 0.000137639
45 *3750:S *3750:A1 5.75417e-05
46 *3751:A *3750:A1 7.70505e-05
47 *3751:A *620:22 7.16085e-05
48 *3787:CLK *620:33 0.000236106
49 *3787:CLK *620:42 0.000154762
50 *3803:D *3578:A1 7.4057e-06
51 *3875:CLK *620:22 3.17148e-05
52 *3883:CLK *620:22 5.33005e-05
53 *413:54 *620:22 4.08637e-05
54 *413:54 *620:33 3.17148e-05
55 *413:75 *620:33 0.00023809
56 *413:75 *620:42 0.000303439
57 *413:75 *620:70 0.000100618
58 *422:29 *620:22 0.000125724
59 *442:24 *3542:A1 1.12578e-05
60 *442:37 *3542:A1 1.46689e-05
61 *452:111 *3578:A1 1.50575e-05
62 *535:26 *620:42 0.000102089
63 *601:8 *620:33 0.000125717
64 *601:23 *620:33 0.00023595
65 *601:52 *620:22 9.22948e-05
*RES
1 *4010:X *620:6 11.4786 
2 *620:6 *620:12 13.375 
3 *620:12 *620:22 15 
4 *620:22 *3507:A1 10.2464 
5 *620:22 *620:33 13.125 
6 *620:33 *3524:A0 13.8 
7 *620:33 *620:42 7.41071 
8 *620:42 *620:46 6.67857 
9 *620:46 *3595:A0 9.72857 
10 *620:46 *3578:A1 18.175 
11 *620:42 *620:70 11.2857 
12 *620:70 *3542:A1 27.3536 
13 *620:70 *3560:A1 9.3 
14 *620:12 *3750:A1 13.9607 
15 *620:6 *3733:A1 9.3 
*END

*D_NET *621 0.0113767
*CONN
*I *3713:A0 I *D sky130_fd_sc_hd__mux2_2
*I *3679:A1 I *D sky130_fd_sc_hd__mux2_2
*I *3696:A1 I *D sky130_fd_sc_hd__mux2_2
*I *3662:A1 I *D sky130_fd_sc_hd__mux2_2
*I *3610:A1 I *D sky130_fd_sc_hd__mux2_2
*I *3644:A1 I *D sky130_fd_sc_hd__mux2_2
*I *3488:A1 I *D sky130_fd_sc_hd__mux2_2
*I *3627:A1 I *D sky130_fd_sc_hd__mux2_2
*I *4011:X O *D sky130_fd_sc_hd__clkdlybuf4s25_1
*CAP
1 *3713:A0 0.000309344
2 *3679:A1 0.000655211
3 *3696:A1 8.12892e-05
4 *3662:A1 0.000515358
5 *3610:A1 7.20434e-05
6 *3644:A1 0.000253221
7 *3488:A1 0.000454986
8 *3627:A1 0.000492125
9 *4011:X 5.51715e-05
10 *621:96 0.0010658
11 *621:41 0.000956579
12 *621:37 0.000548971
13 *621:22 0.00102389
14 *621:18 0.000887143
15 *621:16 0.000260492
16 *621:10 0.000267045
17 *3488:A1 *3488:A0 0
18 *3610:A1 *3610:A0 2.27416e-05
19 *3627:A1 *3627:A0 0.000100341
20 *3644:A1 *664:48 0.00016231
21 *3644:A1 *742:8 9.84673e-05
22 *3679:A1 *3679:A0 0.000354078
23 *3713:A0 *684:48 1.58559e-05
24 *621:10 *3437:A2 1.07719e-05
25 *621:16 *3437:A2 2.37817e-05
26 *621:16 *838:10 2.72545e-05
27 *621:18 *684:50 0
28 *621:22 *3438:S1 0
29 *621:22 *684:50 0
30 *621:37 *3610:S 3.99614e-06
31 *621:41 *3438:S0 2.23393e-05
32 *621:41 *664:48 6.56629e-05
33 *3439:A1 *3662:A1 0.000137983
34 *3439:A1 *621:41 0
35 *3439:S *3662:A1 0.000276211
36 *3489:A *3488:A1 5.70551e-05
37 *3611:A *621:37 1.92905e-05
38 *3611:A *621:41 0
39 *3644:S *621:22 0.000106403
40 *3654:S *3696:A1 5.33005e-05
41 *3654:S *621:16 2.24646e-05
42 *3654:S *621:18 0.000117896
43 *3654:S *621:22 0.000539224
44 *3663:A *3662:A1 0.000220095
45 *3663:A *621:16 0
46 *3663:A *621:18 0
47 *3680:A *3679:A1 9.44309e-06
48 *3696:S *3696:A1 1.21258e-05
49 *3714:A *3713:A0 0.00029656
50 *3714:A *621:16 5.91569e-05
51 *3714:A *621:96 0.000211292
52 *3818:D *3644:A1 5.49995e-05
53 *3866:D *3713:A0 1.12578e-05
54 *3866:D *621:10 1.12323e-05
55 *3866:D *621:16 6.54117e-05
56 *3866:D *621:96 0.000100047
57 *366:16 *3662:A1 7.32173e-05
58 *366:16 *3713:A0 6.05161e-06
59 *488:123 *3610:A1 2.88018e-06
60 *488:123 *3627:A1 1.07719e-05
61 *488:123 *621:37 9.60591e-05
*RES
1 *4011:X *621:10 14.6125 
2 *621:10 *621:16 3.0625 
3 *621:16 *621:18 1.64286 
4 *621:18 *621:22 12.5179 
5 *621:22 *3627:A1 16.55 
6 *621:22 *621:37 4.25 
7 *621:37 *621:41 9.17857 
8 *621:41 *3488:A1 21.7821 
9 *621:41 *3644:A1 18.9964 
10 *621:37 *3610:A1 10.2464 
11 *621:18 *3662:A1 25.0321 
12 *621:16 *3696:A1 14.7464 
13 *621:10 *621:96 3.24107 
14 *621:96 *3679:A1 21.7286 
15 *621:96 *3713:A0 20.2643 
*END

*D_NET *622 0.011087
*CONN
*I *3540:A1 I *D sky130_fd_sc_hd__mux2_2
*I *3558:A1 I *D sky130_fd_sc_hd__mux2_2
*I *3593:A0 I *D sky130_fd_sc_hd__mux2_2
*I *3576:A1 I *D sky130_fd_sc_hd__mux2_2
*I *3731:A1 I *D sky130_fd_sc_hd__mux2_2
*I *3505:A1 I *D sky130_fd_sc_hd__mux2_2
*I *3522:A0 I *D sky130_fd_sc_hd__mux2_2
*I *3748:A1 I *D sky130_fd_sc_hd__mux2_2
*I *4012:X O *D sky130_fd_sc_hd__clkdlybuf4s25_1
*CAP
1 *3540:A1 0.000413513
2 *3558:A1 0.000310495
3 *3593:A0 0
4 *3576:A1 0
5 *3731:A1 0.000135832
6 *3505:A1 0.000266928
7 *3522:A0 4.06461e-05
8 *3748:A1 0
9 *4012:X 0.00042871
10 *622:84 0.00113391
11 *622:63 0.000656651
12 *622:43 0.0008386
13 *622:23 0.000451065
14 *622:14 0.000543405
15 *622:12 0.00128465
16 *3505:A1 *668:51 0.000526427
17 *3522:A0 *3522:S 6.05161e-06
18 *3540:A1 *3540:A0 0
19 *3558:A1 *3558:A0 0
20 *3731:A1 *3727:S 0.000480096
21 *622:12 *628:20 0
22 *622:14 *3748:A0 0.000308913
23 *622:23 *3522:A1 7.53919e-05
24 *622:23 *3522:S 5.20751e-05
25 *622:63 *3435:A2 1.12391e-05
26 *622:84 *3434:S0 0
27 *622:84 *3434:S1 1.9774e-05
28 *622:84 *3435:A2 4.04683e-05
29 *622:84 *3435:A3 0.000277109
30 *622:84 *3435:S1 2.36643e-05
31 *622:84 *688:85 1.39782e-05
32 *622:84 *766:14 0.000119246
33 *622:84 *790:12 5.33005e-05
34 *3436:A1 *3540:A1 0
35 *3436:A1 *622:84 0.000135028
36 *3559:A *3558:A1 9.45048e-06
37 *3559:A *622:84 2.83284e-06
38 *3572:S *622:43 9.58632e-05
39 *3572:S *622:63 5.33005e-05
40 *3594:A *622:63 3.37853e-05
41 *3594:A *622:84 1.59076e-05
42 *3748:S *622:14 1.4796e-05
43 *3748:S *622:23 5.49995e-05
44 *3794:D *3540:A1 0.000337658
45 *3810:CLK *3558:A1 0.000317038
46 *3882:D *622:12 5.72374e-05
47 *347:10 *622:12 0
48 *413:91 *3540:A1 0.000143703
49 *452:75 *3731:A1 0.000477699
50 *461:88 *622:84 7.22772e-05
51 *544:78 *622:14 9.85599e-06
52 *578:10 *3540:A1 0.000479677
53 *578:10 *3558:A1 0.000239772
54 *578:10 *622:84 2.39441e-05
*RES
1 *4012:X *622:12 24.2643 
2 *622:12 *622:14 5.05357 
3 *622:14 *3748:A1 9.3 
4 *622:14 *622:23 3.32143 
5 *622:23 *3522:A0 9.83571 
6 *622:23 *3505:A1 25.1036 
7 *622:12 *622:43 5.46429 
8 *622:43 *3731:A1 24.4964 
9 *622:43 *3576:A1 9.3 
10 *622:43 *622:63 3.42857 
11 *622:63 *3593:A0 9.3 
12 *622:63 *622:84 22.7143 
13 *622:84 *3558:A1 20.3714 
14 *622:84 *3540:A1 22.8893 
*END

*D_NET *623 0.00821879
*CONN
*I *3660:A1 I *D sky130_fd_sc_hd__mux2_2
*I *3711:A0 I *D sky130_fd_sc_hd__mux2_2
*I *3694:A1 I *D sky130_fd_sc_hd__mux2_2
*I *3677:A1 I *D sky130_fd_sc_hd__mux2_2
*I *3608:A1 I *D sky130_fd_sc_hd__mux2_2
*I *3486:A1 I *D sky130_fd_sc_hd__mux2_2
*I *3642:A1 I *D sky130_fd_sc_hd__mux2_2
*I *3625:A1 I *D sky130_fd_sc_hd__mux2_2
*I *4013:X O *D sky130_fd_sc_hd__clkdlybuf4s25_1
*CAP
1 *3660:A1 0
2 *3711:A0 0
3 *3694:A1 0.000187779
4 *3677:A1 0
5 *3608:A1 0
6 *3486:A1 0
7 *3642:A1 0
8 *3625:A1 0.000326356
9 *4013:X 0.000713407
10 *623:71 0.000337591
11 *623:62 0.000328921
12 *623:58 0.000179109
13 *623:28 0.000578963
14 *623:22 0.000292478
15 *623:16 0.000289235
16 *623:10 0.00096277
17 *3625:A1 *3478:S0 0.00011095
18 *3625:A1 *3478:S1 9.90367e-05
19 *3625:A1 *3625:A0 0.00010096
20 *3625:A1 *665:34 0
21 *3694:A1 *837:12 3.54498e-05
22 *623:10 *3429:S0 6.74815e-05
23 *623:10 *3430:S0 3.78973e-05
24 *623:10 *3660:A0 0.000334969
25 *623:10 *4013:A 2.27416e-05
26 *623:10 *4024:A 0.000103719
27 *623:10 *633:45 0.00013118
28 *623:16 *3430:S0 0.00017116
29 *623:16 *3608:A0 7.90803e-05
30 *623:16 *633:25 0.000129392
31 *623:16 *633:45 9.58512e-05
32 *623:16 *669:14 4.08637e-05
33 *623:16 *669:24 5.33005e-05
34 *623:22 *633:25 0.000101545
35 *623:28 *3478:S0 1.69115e-05
36 *623:71 *3711:A1 0.000115295
37 *3484:S *623:28 0.000482588
38 *3486:S *623:22 3.17148e-05
39 *3642:S *623:28 0.00020455
40 *3643:A *623:28 0
41 *3712:A *3694:A1 0.00026637
42 *3817:CLK *3625:A1 6.74911e-05
43 *3833:CLK *3625:A1 0
44 *3833:CLK *623:28 0
45 *3833:D *623:28 4.46186e-06
46 *404:40 *623:22 7.83659e-05
47 *488:27 *623:28 0.000484518
48 *488:48 *623:28 2.31791e-05
49 *498:38 *623:62 6.92966e-06
50 *498:38 *623:71 0.000263078
51 *507:42 *623:62 0.000128605
52 *507:42 *623:71 1.02301e-05
53 *525:45 *623:71 0.000122317
*RES
1 *4013:X *623:10 26.3714 
2 *623:10 *623:16 10.7321 
3 *623:16 *623:22 10.3393 
4 *623:22 *623:28 13.0179 
5 *623:28 *3625:A1 21.2464 
6 *623:28 *3642:A1 13.8 
7 *623:22 *3486:A1 9.3 
8 *623:16 *3608:A1 9.3 
9 *623:10 *623:58 4.5 
10 *623:58 *623:62 2.60714 
11 *623:62 *3677:A1 9.3 
12 *623:62 *623:71 5.375 
13 *623:71 *3694:A1 22.675 
14 *623:71 *3711:A0 9.3 
15 *623:58 *3660:A1 9.3 
*END

*D_NET *624 0.0115291
*CONN
*I *3574:A1 I *D sky130_fd_sc_hd__mux2_2
*I *3556:A1 I *D sky130_fd_sc_hd__mux2_2
*I *3503:A1 I *D sky130_fd_sc_hd__mux2_2
*I *3520:A0 I *D sky130_fd_sc_hd__mux2_2
*I *3729:A1 I *D sky130_fd_sc_hd__mux2_2
*I *3746:A1 I *D sky130_fd_sc_hd__mux2_2
*I *3538:A1 I *D sky130_fd_sc_hd__mux2_2
*I *3591:A0 I *D sky130_fd_sc_hd__mux2_2
*I *4014:X O *D sky130_fd_sc_hd__clkdlybuf4s25_1
*CAP
1 *3574:A1 0.000186643
2 *3556:A1 0
3 *3503:A1 0
4 *3520:A0 3.0979e-05
5 *3729:A1 0.00034792
6 *3746:A1 0.000248998
7 *3538:A1 0.00036964
8 *3591:A0 0
9 *4014:X 0.000790526
10 *624:96 0.000272186
11 *624:50 0.000673882
12 *624:48 0.000371893
13 *624:42 0.000590492
14 *624:21 0.000798443
15 *624:14 0.000333225
16 *624:8 0.00110703
17 *3520:A0 *3435:S0 2.85321e-05
18 *3538:A1 *3538:A0 5.52238e-05
19 *3574:A1 *3574:A0 0.000243529
20 *3729:A1 *699:52 0.000415445
21 *3746:A1 *3746:A0 0.000119616
22 *624:14 *3574:A0 2.2927e-05
23 *624:14 *3591:A1 0.000143491
24 *624:14 *686:122 3.80904e-05
25 *624:14 *789:10 0.00014279
26 *624:21 *3591:A1 5.52302e-05
27 *624:42 *3426:S0 0
28 *624:42 *3427:S1 0.000126439
29 *624:42 *4026:A 0.000126446
30 *624:96 *3574:A0 4.21108e-05
31 *3504:A *624:48 0.000336119
32 *3520:S *3729:A1 0.000898072
33 *3540:S *3746:A1 7.49481e-05
34 *3540:S *624:48 4.40513e-06
35 *3540:S *624:50 4.25251e-05
36 *3591:S *624:14 5.33005e-05
37 *3591:S *624:21 0.000139907
38 *3592:A *624:14 0.000531509
39 *3729:S *3729:A1 3.50166e-05
40 *3747:A *3746:A1 1.84776e-05
41 *3747:A *624:42 3.78846e-05
42 *3793:CLK *624:14 0.000223592
43 *3793:CLK *624:42 0
44 *3793:CLK *624:48 6.07232e-05
45 *3793:D *624:14 3.51766e-05
46 *3793:D *624:96 3.18309e-05
47 *3809:D *624:8 0.000227927
48 *3810:CLK *3746:A1 1.24368e-05
49 *3813:CLK *3746:A1 4.27842e-06
50 *3881:D *624:42 0.000195562
51 *3971:A *3729:A1 5.50052e-05
52 *413:85 *624:42 1.98839e-05
53 *413:91 *624:42 2.89016e-05
54 *413:91 *624:48 9.76689e-05
55 *544:116 *3746:A1 6.71327e-05
56 *588:20 *3729:A1 4.97967e-05
57 *588:22 *3746:A1 0.000107459
58 *588:22 *624:50 2.44553e-05
59 *588:42 *624:48 0.000125944
60 *588:42 *624:50 4.45753e-05
61 *589:36 *624:8 0.000262878
*RES
1 *4014:X *624:8 24.1929 
2 *624:8 *624:14 13.3571 
3 *624:14 *3591:A0 9.3 
4 *624:14 *624:21 2.17857 
5 *624:21 *3538:A1 14.7821 
6 *624:21 *624:42 16.1964 
7 *624:42 *624:48 10.9464 
8 *624:48 *624:50 1.94643 
9 *624:50 *3746:A1 20.2286 
10 *624:50 *3729:A1 24.6214 
11 *624:48 *3520:A0 14.3357 
12 *624:42 *3503:A1 9.3 
13 *624:8 *624:96 1.875 
14 *624:96 *3556:A1 13.8 
15 *624:96 *3574:A1 17.8 
*END

*D_NET *625 0.0103003
*CONN
*I *3675:A1 I *D sky130_fd_sc_hd__mux2_2
*I *3658:A1 I *D sky130_fd_sc_hd__mux2_2
*I *3709:A0 I *D sky130_fd_sc_hd__mux2_2
*I *3692:A1 I *D sky130_fd_sc_hd__mux2_2
*I *3484:A1 I *D sky130_fd_sc_hd__mux2_2
*I *3606:A1 I *D sky130_fd_sc_hd__mux2_2
*I *3640:A1 I *D sky130_fd_sc_hd__mux2_2
*I *3623:A1 I *D sky130_fd_sc_hd__mux2_2
*I *4015:X O *D sky130_fd_sc_hd__clkdlybuf4s25_1
*CAP
1 *3675:A1 0.000539539
2 *3658:A1 0.00023613
3 *3709:A0 0
4 *3692:A1 0.000256862
5 *3484:A1 8.05441e-05
6 *3606:A1 0
7 *3640:A1 0.000286359
8 *3623:A1 0.000100063
9 *4015:X 0
10 *625:82 0.00115358
11 *625:65 0.000648807
12 *625:50 0.000788234
13 *625:35 0.000926702
14 *625:19 0.00101094
15 *625:4 0.00023896
16 *3484:A1 *3484:A0 9.91086e-05
17 *3484:A1 *665:34 5.52238e-05
18 *3623:A1 *3623:A0 7.57312e-05
19 *3640:A1 *3640:A0 0.000313895
20 *3675:A1 *3675:A0 0
21 *3675:A1 *684:21 0.000358678
22 *3675:A1 *690:14 0
23 *3675:A1 *828:10 0
24 *3692:A1 *684:27 0.000130968
25 *625:19 *3620:S 7.6644e-05
26 *625:19 *3623:S 4.70078e-05
27 *625:19 *636:17 7.6644e-05
28 *625:35 *669:24 0.000829316
29 *625:50 *3420:A0 0.000166976
30 *625:50 *3484:A0 0.000126439
31 *625:82 *3709:A1 5.66971e-05
32 *625:82 *828:10 8.45372e-05
33 *3422:A0 *3675:A1 4.85049e-06
34 *3440:A1 *625:50 4.26034e-05
35 *3480:A1 *3484:A1 5.33005e-05
36 *3485:A *3484:A1 0
37 *3485:A *3692:A1 0.000128761
38 *3485:A *625:50 0
39 *3658:S *3658:A1 0.000141729
40 *3675:S *3675:A1 0.000167933
41 *3695:A *3675:A1 0
42 *3709:S *625:82 0.000497166
43 *3710:A *625:65 1.84776e-05
44 *3848:CLK *625:82 4.04446e-05
45 *3848:D *625:82 1.64343e-05
46 *3857:D *3675:A1 0
47 *3864:CLK *3692:A1 4.6829e-05
48 *3991:A *625:65 0.000137639
49 *488:48 *3640:A1 6.87831e-06
50 *488:48 *625:35 3.06878e-06
51 *498:38 *3658:A1 0.000121842
52 *498:38 *3675:A1 4.6355e-05
53 *498:38 *625:82 2.59355e-05
54 *525:60 *3658:A1 3.54498e-05
*RES
1 *4015:X *625:4 9.3 
2 *625:4 *3623:A1 10.6571 
3 *625:4 *625:19 11.3929 
4 *625:19 *3640:A1 13.1214 
5 *625:19 *3606:A1 9.3 
6 *625:19 *625:35 12.8393 
7 *625:35 *3484:A1 15.675 
8 *625:35 *625:50 10.0893 
9 *625:50 *3692:A1 24.4607 
10 *625:50 *625:65 4.64286 
11 *625:65 *3709:A0 9.3 
12 *625:65 *625:82 14.7679 
13 *625:82 *3658:A1 17.6214 
14 *625:82 *3675:A1 25.2286 
*END

*D_NET *626 0.0102289
*CONN
*I *3589:A0 I *D sky130_fd_sc_hd__mux2_2
*I *3572:A1 I *D sky130_fd_sc_hd__mux2_2
*I *3744:A1 I *D sky130_fd_sc_hd__mux2_2
*I *3536:A1 I *D sky130_fd_sc_hd__mux2_2
*I *3554:A1 I *D sky130_fd_sc_hd__mux2_2
*I *3727:A1 I *D sky130_fd_sc_hd__mux2_2
*I *3518:A0 I *D sky130_fd_sc_hd__mux2_2
*I *3501:A1 I *D sky130_fd_sc_hd__mux2_2
*I *4016:X O *D sky130_fd_sc_hd__clkdlybuf4s25_1
*CAP
1 *3589:A0 0.000260944
2 *3572:A1 0
3 *3744:A1 0.000316499
4 *3536:A1 0.000194502
5 *3554:A1 0
6 *3727:A1 6.70678e-05
7 *3518:A0 0.000129452
8 *3501:A1 0.000168959
9 *4016:X 8.56257e-05
10 *626:92 0.000662786
11 *626:77 0.000878133
12 *626:55 0.00147312
13 *626:18 0.000776057
14 *626:14 0.000595324
15 *626:10 0.00158447
16 *626:8 0.000500651
17 *3501:A1 *3501:A0 9.83442e-05
18 *3501:A1 *3518:S 9.11148e-05
19 *3518:A0 *3416:A2 0
20 *3518:A0 *3518:S 0.000123912
21 *3536:A1 *3554:S 0.000186765
22 *3536:A1 *686:122 9.35794e-06
23 *3536:A1 *772:10 0
24 *3589:A0 *3572:A0 1.35465e-05
25 *626:10 *3416:A0 0.000177941
26 *626:10 *3416:A1 0.000103325
27 *626:10 *628:20 0
28 *626:14 *3416:A0 7.29667e-05
29 *626:14 *628:20 0
30 *626:14 *852:14 3.34366e-05
31 *626:18 *748:8 1.92789e-05
32 *626:55 *3554:A0 5.83233e-05
33 *626:55 *3727:S 9.10623e-05
34 *626:55 *772:10 9.25014e-06
35 *626:77 *628:20 0
36 *3418:A1 *626:55 0.000104611
37 *3572:S *3589:A0 5.66971e-05
38 *3572:S *626:92 9.84729e-05
39 *3573:A *626:92 0.000133436
40 *3589:S *626:55 0.000137983
41 *3590:A *3589:A0 1.29975e-05
42 *3591:S *626:55 0.000348239
43 *3728:A *626:18 0.000142856
44 *3744:S *3744:A1 5.50052e-05
45 *3800:D *626:10 0
46 *3808:CLK *626:77 0
47 *3872:D *626:18 5.52238e-05
48 *347:8 *626:55 0.000142856
49 *585:18 *626:55 0.000158282
*RES
1 *4016:X *626:8 14.7464 
2 *626:8 *626:10 5.89286 
3 *626:10 *626:14 5.83929 
4 *626:14 *626:18 12.0179 
5 *626:18 *3501:A1 16.4964 
6 *626:18 *3518:A0 16.9607 
7 *626:14 *3727:A1 10.6571 
8 *626:10 *626:55 31.4821 
9 *626:55 *3554:A1 9.3 
10 *626:55 *3536:A1 21.8179 
11 *626:8 *626:77 7.05357 
12 *626:77 *3744:A1 13.1214 
13 *626:77 *626:92 6.85714 
14 *626:92 *3572:A1 9.3 
15 *626:92 *3589:A0 12.7286 
*END

*D_NET *627 0.000609437
*CONN
*I *3901:D I *D sky130_fd_sc_hd__dfrtp_2
*I *3902:HI O *D sky130_fd_sc_hd__conb_1
*CAP
1 *3901:D 0.000241554
2 *3902:HI 0.000241554
3 *3901:D *3891:RESET_B 5.49995e-05
4 *3901:CLK *3901:D 1.08881e-05
5 *3903:RESET_B *3901:D 6.04401e-05
*RES
1 *3902:HI *3901:D 31.783 
*END

*D_NET *628 0.0120559
*CONN
*I *4016:A I *D sky130_fd_sc_hd__clkdlybuf4s25_1
*I *4015:A I *D sky130_fd_sc_hd__clkdlybuf4s25_1
*I *4057:X O *D sky130_fd_sc_hd__clkdlybuf4s25_1
*CAP
1 *4016:A 0
2 *4015:A 2.77489e-05
3 *4057:X 0.000519045
4 *628:22 0.00198861
5 *628:20 0.00301234
6 *628:14 0.00157052
7 *4015:A *3623:S 5.52238e-05
8 *628:14 *3416:A1 3.67142e-05
9 *628:14 *3744:A0 5.4959e-05
10 *628:20 *3416:A1 0.000153153
11 *628:20 *3416:S1 5.33786e-05
12 *628:20 *3434:S1 9.34461e-05
13 *628:20 *3748:A0 2.53773e-05
14 *628:20 *852:14 0
15 *628:22 *3420:S0 0
16 *628:22 *3434:A3 0.000290865
17 *628:22 *3434:S1 1.37255e-05
18 *628:22 *3450:S0 0.000598054
19 *628:22 *3479:S0 0.00036496
20 *628:22 *3526:S 0.000475108
21 *628:22 *3606:A0 8.90891e-05
22 *628:22 *3620:S 7.83174e-05
23 *628:22 *3758:A0 0
24 *628:22 *631:28 0.000154548
25 *628:22 *636:17 0
26 *628:22 *668:41 0.000263977
27 *628:22 *796:10 2.09722e-05
28 *628:22 *862:10 0
29 *3736:A *628:22 0.000148928
30 *3744:S *628:14 0.000149113
31 *3744:S *628:20 0
32 *3745:A *628:14 9.99853e-05
33 *3753:A *628:22 0.00050705
34 *3759:A *628:22 0.000431497
35 *3760:CLK *628:22 4.87908e-05
36 *3856:CLK *628:22 0
37 *3856:D *628:22 0.000103716
38 *3872:CLK *628:20 0
39 *3872:D *628:20 0.000101545
40 *3879:D *628:22 0
41 *3882:CLK *628:22 0
42 *3882:D *628:22 0
43 *544:78 *628:20 6.88014e-05
44 *544:78 *628:22 0.000456381
45 *613:10 *628:22 0
46 *622:12 *628:20 0
47 *626:10 *628:20 0
48 *626:14 *628:20 0
49 *626:77 *628:20 0
*RES
1 *4057:X *628:14 27.4786 
2 *628:14 *628:20 25.0446 
3 *628:20 *628:22 53.0982 
4 *628:22 *4015:A 14.3357 
5 *628:14 *4016:A 9.3 
*END

*D_NET *629 0.00436993
*CONN
*I *3941:RESET_B I *D sky130_fd_sc_hd__dfrtp_2
*I *4054:X O *D sky130_fd_sc_hd__dlygate4sd3_1
*CAP
1 *3941:RESET_B 0.00141025
2 *4054:X 0.00141025
3 *3941:RESET_B *3941:D 0.000857766
4 *3941:RESET_B *4017:A 9.71197e-05
5 *3941:RESET_B *728:8 8.50637e-05
6 *3941:RESET_B *733:12 0
7 *3941:RESET_B *733:37 0.000175431
8 *3227:A *3941:RESET_B 0.00033405
9 *3375:B *3941:RESET_B 0
10 *296:18 *3941:RESET_B 0
*RES
1 *4054:X *3941:RESET_B 42.7375 
*END

*D_NET *630 0.00961398
*CONN
*I *4014:A I *D sky130_fd_sc_hd__clkdlybuf4s25_1
*I *4013:A I *D sky130_fd_sc_hd__clkdlybuf4s25_1
*I *4058:X O *D sky130_fd_sc_hd__clkdlybuf4s25_1
*CAP
1 *4014:A 0
2 *4013:A 0.00123765
3 *4058:X 0.000296134
4 *630:14 0.00222626
5 *630:10 0.00128474
6 *4013:A *3458:A2 0
7 *4013:A *3458:S0 0.00135487
8 *4013:A *3459:A2 0.000270243
9 *4013:A *3599:A0 0
10 *4013:A *3599:A1 6.26559e-05
11 *4013:A *3754:A1 0
12 *4013:A *686:22 0
13 *4013:A *724:115 0
14 *630:10 *765:10 3.42969e-05
15 *630:14 *3428:S 0.00014592
16 *630:14 *4026:A 0.000471637
17 *630:14 *686:22 0
18 *3428:A1 *630:14 0.000375101
19 *3431:A2 *4013:A 0.000112006
20 *3511:S *4013:A 9.01334e-05
21 *3574:S *630:10 5.23735e-05
22 *3730:A *630:14 0.000429972
23 *3754:S *4013:A 0
24 *3755:A *4013:A 0
25 *3781:D *4013:A 0.000103437
26 *3789:CLK *4013:A 0.000207253
27 *3789:CLK *630:14 2.29961e-05
28 *3797:D *4013:A 0.000136286
29 *3797:D *630:14 8.91963e-06
30 *3971:A *630:14 0
31 *388:16 *4013:A 0.000148299
32 *452:37 *4013:A 0
33 *544:32 *4013:A 0
34 *562:162 *630:14 7.57318e-05
35 *562:176 *630:14 0.000382376
36 *586:47 *630:14 6.19567e-05
37 *589:10 *630:14 0
38 *589:32 *630:14 0
39 *612:51 *4013:A 0
40 *623:10 *4013:A 2.27416e-05
*RES
1 *4058:X *630:10 18.8179 
2 *630:10 *630:14 27.3125 
3 *630:14 *4013:A 46.0946 
4 *630:10 *4014:A 13.8 
*END

*D_NET *631 0.0169748
*CONN
*I *4012:A I *D sky130_fd_sc_hd__clkdlybuf4s25_1
*I *4011:A I *D sky130_fd_sc_hd__clkdlybuf4s25_1
*I *4059:X O *D sky130_fd_sc_hd__clkdlybuf4s25_1
*CAP
1 *4012:A 0
2 *4011:A 0
3 *4059:X 0.000225428
4 *631:28 0.00759933
5 *631:6 0.00782476
6 *631:28 *3420:S0 0.00012384
7 *631:28 *3450:S0 0.000108561
8 *631:28 *3479:S0 0.000105609
9 *631:28 *3518:S 1.69497e-05
10 *631:28 *3637:S 0
11 *631:28 *3748:A0 0.000118315
12 *3480:A1 *631:28 0.000212705
13 *3753:A *631:28 0.000113064
14 *3760:D *631:28 0.000135986
15 *3856:CLK *631:28 0.000104988
16 *3882:CLK *631:28 0.000118344
17 *413:108 *631:28 1.23966e-05
18 *583:10 *631:28 0
19 *583:12 *631:28 0
20 *628:22 *631:28 0.000154548
*RES
1 *4059:X *631:6 12.7107 
2 *631:6 *631:28 41.1084 
3 *631:28 *4011:A 9.3 
4 *631:6 *4012:A 9.3 
*END

*D_NET *632 0.0148733
*CONN
*I *4010:A I *D sky130_fd_sc_hd__clkdlybuf4s25_1
*I *4009:A I *D sky130_fd_sc_hd__clkdlybuf4s25_1
*I *4060:X O *D sky130_fd_sc_hd__clkdlybuf4s25_1
*CAP
1 *4010:A 0.000321602
2 *4009:A 0
3 *4060:X 0.00067039
4 *632:25 0.00202365
5 *632:23 0.0018973
6 *632:14 0.000865638
7 *632:25 *3252:A2 1.88048e-05
8 *632:25 *3322:A1 0.000423743
9 *632:25 *3482:C 7.31746e-05
10 *632:25 *3919:D 0
11 *632:25 *3929:D 0.00126985
12 *632:25 *637:20 8.77022e-05
13 *632:25 *637:22 4.43698e-05
14 *632:25 *683:59 0.000236943
15 *632:25 *726:25 0.00110526
16 *3264:A *632:25 0
17 *3295:A2 *632:25 0
18 *3322:A2 *632:25 1.78447e-05
19 *3447:A1 *632:25 0.000204361
20 *3447:S *632:25 0.000340466
21 *3491:A *632:14 0.000724503
22 *3629:S *632:14 0.000200942
23 *3646:A1 *632:14 7.60966e-05
24 *3763:CLK *632:14 1.02504e-05
25 *3819:D *632:14 1.64343e-05
26 *3978:A *632:25 0.000305998
27 *173:10 *632:25 0.00284157
28 *194:10 *632:25 0
29 *352:14 *4010:A 0.00010083
30 *479:8 *632:14 6.09057e-06
31 *595:21 *632:14 0.000148189
32 *619:6 *632:14 0.000182598
33 *619:6 *632:23 0.000303351
34 *619:10 *632:14 0.000355363
*RES
1 *4060:X *632:14 35.2821 
2 *632:14 *4009:A 9.3 
3 *632:14 *632:23 8.73214 
4 *632:23 *632:25 61.1429 
5 *632:25 *4010:A 19.2643 
*END

*D_NET *633 0.0155723
*CONN
*I *4008:A I *D sky130_fd_sc_hd__clkdlybuf4s25_1
*I *4053:A I *D sky130_fd_sc_hd__clkdlybuf4s25_1
*I *4061:X O *D sky130_fd_sc_hd__clkdlybuf4s25_1
*CAP
1 *4008:A 0
2 *4053:A 2.23854e-05
3 *4061:X 3.80875e-05
4 *633:45 0.00190931
5 *633:25 0.00398124
6 *633:21 0.00296696
7 *633:6 0.000955499
8 *633:6 *3488:S 3.77053e-05
9 *633:6 *725:22 7.43578e-06
10 *633:21 *3488:S 0.00010715
11 *633:21 *3492:A1 0.000212368
12 *633:21 *672:32 0.000176352
13 *633:21 *725:22 0.00017412
14 *633:25 *3608:A0 0.000173406
15 *633:25 *3666:S 0.000176234
16 *633:25 *3702:A0 0
17 *633:25 *663:43 0.000201127
18 *633:25 *723:38 0
19 *633:25 *797:10 1.17968e-05
20 *633:45 *3429:S0 0.000128146
21 *633:45 *3429:S1 0
22 *633:45 *3432:A1 8.91726e-05
23 *633:45 *3580:A0 0.000101754
24 *633:45 *4024:A 0
25 *633:45 *668:20 0.000421562
26 *633:45 *684:8 0
27 *3432:A2 *633:45 0
28 *3486:S *633:25 2.39779e-05
29 *3487:A *633:25 0
30 *3493:A *633:21 0.00021078
31 *3512:A *633:45 0.00048461
32 *3544:A1 *633:45 6.7224e-05
33 *3634:A *633:25 0
34 *3648:S *633:25 0
35 *3651:A *633:25 0
36 *3675:S *633:45 0.000574919
37 *3678:A *633:45 0
38 *3683:S *633:25 0.000110637
39 *3703:A *633:25 0
40 *3720:A *633:25 0
41 *3796:D *633:45 6.46165e-05
42 *3817:D *633:25 9.24299e-05
43 *3821:D *633:25 0
44 *3829:CLK *633:25 0
45 *3837:D *633:25 5.9483e-05
46 *3861:CLK *633:25 0
47 *3861:D *633:25 3.37618e-05
48 *3976:A *633:25 0.000128161
49 *360:14 *633:45 0.000250315
50 *404:40 *633:25 5.08481e-05
51 *461:26 *633:45 0.000194612
52 *461:53 *633:45 6.25702e-05
53 *507:46 *633:25 0.000231318
54 *507:46 *633:45 0.000335885
55 *516:51 *633:25 0
56 *562:229 *633:25 7.70717e-05
57 *618:6 *633:45 0.00016927
58 *623:10 *633:45 0.00013118
59 *623:16 *633:25 0.000129392
60 *623:16 *633:45 9.58512e-05
61 *623:22 *633:25 0.000101545
*RES
1 *4061:X *633:6 10.2464 
2 *633:6 *4053:A 9.72857 
3 *633:6 *633:21 21.0893 
4 *633:21 *633:25 44.8304 
5 *633:25 *633:45 47.9018 
6 *633:45 *4008:A 9.3 
*END

*D_NET *634 0.0123998
*CONN
*I *4052:A I *D sky130_fd_sc_hd__clkdlybuf4s25_1
*I *4051:A I *D sky130_fd_sc_hd__clkdlybuf4s25_1
*I *4062:X O *D sky130_fd_sc_hd__clkdlybuf4s25_1
*CAP
1 *4052:A 0.000982527
2 *4051:A 2.9238e-05
3 *4062:X 0.000206625
4 *634:31 0.00262038
5 *634:10 0.00187372
6 *4051:A *3494:A1 5.33005e-05
7 *4052:A *3458:S1 4.72217e-05
8 *4052:A *3459:S1 0.000209954
9 *4052:A *3754:A0 0
10 *634:10 *672:32 0.000101455
11 *634:31 *3461:A0 0.000166847
12 *634:31 *3461:A1 0.000221994
13 *634:31 *3462:A0 6.95906e-05
14 *634:31 *3462:A1 0
15 *634:31 *3616:A0 0
16 *634:31 *3635:A1 0.000243742
17 *634:31 *3685:A0 0.000340059
18 *634:31 *670:68 0.000114296
19 *634:31 *692:38 0.000441381
20 *634:31 *723:62 1.69115e-05
21 *3460:A1 *4052:A 0.000796556
22 *3495:A *634:10 0.000102702
23 *3636:A *634:31 0.000141716
24 *3653:A *634:31 0.000222878
25 *3705:A *4052:A 0.000308213
26 *3722:A *4052:A 0.000222885
27 *3765:D *634:10 0.000149959
28 *3765:D *634:31 0.000134857
29 *3838:D *634:31 0.000488715
30 *3845:D *634:31 6.1684e-05
31 *3877:CLK *4052:A 0
32 *350:26 *634:31 1.90936e-05
33 *387:8 *4052:A 0.00119524
34 *387:8 *634:31 0.000519722
35 *461:18 *4052:A 0
36 *562:37 *4052:A 9.42175e-05
37 *593:24 *634:31 0
38 *597:12 *634:31 0.000202089
*RES
1 *4062:X *634:10 18.6393 
2 *634:10 *4051:A 14.3357 
3 *634:10 *634:31 45.5625 
4 *634:31 *4052:A 43.1839 
*END

*D_NET *635 0.0130759
*CONN
*I *4050:A I *D sky130_fd_sc_hd__clkdlybuf4s25_1
*I *4049:A I *D sky130_fd_sc_hd__clkdlybuf4s25_1
*I *4063:X O *D sky130_fd_sc_hd__clkdlybuf4s25_1
*CAP
1 *4050:A 1.79576e-05
2 *4049:A 0.00361244
3 *4063:X 0.000677103
4 *635:10 0.0043075
5 *4049:A *3442:A3 0.000129719
6 *4049:A *3691:B_N 2.49484e-05
7 *4049:A *683:59 1.09611e-05
8 *4049:A *703:98 1.90936e-05
9 *4049:A *707:74 6.52967e-05
10 *4050:A *722:6 9.90431e-05
11 *635:10 *722:76 0.00038222
12 *635:10 *778:14 0
13 *3468:A1 *4049:A 1.32511e-05
14 *3468:A1 *635:10 7.33494e-06
15 *3549:A *635:10 6.05161e-06
16 *3756:S *4049:A 0.00254272
17 *3787:D *4049:A 0.000138306
18 *3790:D *635:10 7.79481e-05
19 *3798:D *635:10 2.45881e-05
20 *3886:D *4050:A 4.01768e-05
21 *544:16 *4049:A 0.000194992
22 *544:138 *4049:A 0.0006842
23 *602:49 *4049:A 0
24 *602:49 *635:10 0
*RES
1 *4063:X *635:10 26.8536 
2 *635:10 *4049:A 38.4234 
3 *635:10 *4050:A 14.7464 
*END

*D_NET *636 0.0086032
*CONN
*I *4047:A I *D sky130_fd_sc_hd__clkdlybuf4s25_1
*I *4048:A I *D sky130_fd_sc_hd__clkdlybuf4s25_1
*I *4064:X O *D sky130_fd_sc_hd__clkdlybuf4s25_1
*CAP
1 *4047:A 2.25499e-05
2 *4048:A 0
3 *4064:X 0.00022721
4 *636:17 0.00185112
5 *636:15 0.00187344
6 *636:6 0.000272087
7 *636:6 *720:10 0.00011729
8 *636:15 *720:10 4.43256e-05
9 *636:17 *3479:S0 0
10 *636:17 *3509:A0 6.45442e-05
11 *636:17 *3526:S 0.000554839
12 *636:17 *3532:A1 0.000362531
13 *636:17 *3606:A0 0.000247614
14 *636:17 *3620:A0 0.000108839
15 *636:17 *3620:A1 4.35048e-05
16 *636:17 *3620:S 0.000155244
17 *636:17 *3623:A0 6.82922e-05
18 *636:17 *3640:A0 0.00027338
19 *636:17 *668:41 0.000803165
20 *636:17 *796:10 6.8255e-05
21 *636:17 *812:8 0.000288776
22 *3509:S *636:17 0.000768431
23 *3510:A *636:17 0
24 *3884:D *636:17 0
25 *3887:D *636:17 0.000103267
26 *413:112 *636:17 6.82922e-05
27 *544:78 *636:17 8.24047e-05
28 *605:6 *4047:A 5.71472e-05
29 *625:19 *636:17 7.6644e-05
30 *628:22 *636:17 0
*RES
1 *4064:X *636:6 13.5321 
2 *636:6 *4048:A 9.3 
3 *636:6 *636:15 5.44643 
4 *636:15 *636:17 50.8214 
5 *636:17 *4047:A 14.3357 
*END

*D_NET *637 0.011562
*CONN
*I *3235:B I *D sky130_fd_sc_hd__and3b_2
*I *3285:B I *D sky130_fd_sc_hd__and4_4
*I *3251:B I *D sky130_fd_sc_hd__and3_2
*I *3482:C I *D sky130_fd_sc_hd__and4bb_2
*I *3262:A2 I *D sky130_fd_sc_hd__a21o_2
*I *3238:A2 I *D sky130_fd_sc_hd__a31oi_2
*I *3252:A2 I *D sky130_fd_sc_hd__a21oi_2
*I *4065:X O *D sky130_fd_sc_hd__clkdlybuf4s25_1
*CAP
1 *3235:B 0
2 *3285:B 3.84852e-05
3 *3251:B 0
4 *3482:C 0.000187294
5 *3262:A2 1.16062e-05
6 *3238:A2 0.000257158
7 *3252:A2 0.00011378
8 *4065:X 0.00259636
9 *637:22 0.000468921
10 *637:20 0.000223989
11 *637:18 0.000301694
12 *637:16 0.000323555
13 *637:14 0.000637817
14 *637:12 0.000275777
15 *637:10 0.00259636
16 *3238:A2 *3238:A3 6.73591e-05
17 *3238:A2 *3252:B1 7.00005e-05
18 *3252:A2 *3238:A3 0.000181796
19 *3262:A2 *3262:B1 5.52302e-05
20 *3482:C *3252:B1 0
21 *3482:C *3691:A_N 0
22 *637:10 *3243:B 2.18985e-05
23 *637:10 *3243:C 2.59355e-05
24 *637:10 *4113:A 5.57989e-05
25 *637:10 *708:41 6.28241e-05
26 *637:10 *708:86 0.000216682
27 *637:10 *714:52 6.46049e-05
28 *637:10 *912:8 0.000247602
29 *637:14 *3235:C 8.64961e-05
30 *637:20 *707:29 9.27418e-05
31 *637:20 *869:71 3.4323e-05
32 *637:22 *869:71 2.34204e-05
33 full *637:10 2.343e-05
34 *3252:A1 *3238:A2 6.72467e-05
35 *3252:A1 *3252:A2 5.62995e-05
36 *3482:D *3482:C 5.52238e-05
37 *3605:D_N *3262:A2 5.52302e-05
38 *3920:CLK *637:10 0.000198541
39 *3987:A *637:10 0.000870827
40 *183:23 *637:10 5.1061e-05
41 *184:10 *3285:B 2.49484e-05
42 *184:18 *3238:A2 5.06269e-05
43 *184:40 *637:14 1.21258e-05
44 *193:8 *637:16 0.000304387
45 *193:14 *3285:B 6.8646e-06
46 *193:45 *3285:B 8.00806e-05
47 *218:39 *3285:B 5.58941e-05
48 *218:39 *637:14 1.98839e-05
49 *218:39 *637:16 6.57815e-05
50 *632:25 *3252:A2 1.88048e-05
51 *632:25 *3482:C 7.31746e-05
52 *632:25 *637:20 8.77022e-05
53 *632:25 *637:22 4.43698e-05
*RES
1 *4065:X *637:10 48.1036 
2 *637:10 *637:12 4.5 
3 *637:12 *637:14 3.41071 
4 *637:14 *637:16 4.23214 
5 *637:16 *637:18 4.5 
6 *637:18 *637:20 3.16071 
7 *637:20 *637:22 1.94643 
8 *637:22 *3252:A2 16.3 
9 *637:22 *3238:A2 17.8357 
10 *637:20 *3262:A2 14.3357 
11 *637:18 *3482:C 17.3 
12 *637:16 *3251:B 9.3 
13 *637:14 *3285:B 19.6393 
14 *637:12 *3235:B 9.3 
*END

*D_NET *638 0.00186891
*CONN
*I *3890:D I *D sky130_fd_sc_hd__dfrtp_2
*I *4066:X O *D sky130_fd_sc_hd__clkdlybuf4s25_1
*CAP
1 *3890:D 0.00067111
2 *4066:X 0.00067111
3 *3890:D *3890:RESET_B 4.68041e-05
4 *3367:A2 *3890:D 0.00031053
5 *3368:A3 *3890:D 4.853e-05
6 *3891:CLK *3890:D 0.000102983
7 *554:10 *3890:D 1.78393e-05
*RES
1 *4066:X *3890:D 38.6045 
*END

*D_NET *639 0.00146977
*CONN
*I *3900:RESET_B I *D sky130_fd_sc_hd__dfrtp_2
*I *3898:RESET_B I *D sky130_fd_sc_hd__dfrtp_2
*I *4067:X O *D sky130_fd_sc_hd__clkdlybuf4s25_1
*CAP
1 *3900:RESET_B 0.000217766
2 *3898:RESET_B 3.56223e-05
3 *4067:X 0.000233612
4 *639:10 0.000487001
5 *3898:RESET_B *3897:RESET_B 9.11968e-05
6 *3900:RESET_B *3897:RESET_B 5.16892e-05
7 *3900:RESET_B *3900:D 0.000320316
8 *639:10 *3897:RESET_B 1.46689e-05
9 *4067:A *639:10 1.78987e-05
*RES
1 *4067:X *639:10 16.9071 
2 *639:10 *3898:RESET_B 5.38393 
3 *639:10 *3900:RESET_B 9.95536 
*END

*D_NET *640 0.000743867
*CONN
*I *4090:A I *D sky130_fd_sc_hd__buf_1
*I *3888:Q O *D sky130_fd_sc_hd__dfstp_2
*CAP
1 *4090:A 0.000185821
2 *3888:Q 0.000185821
3 *4090:A *3888:SET_B 0.000221775
4 *4090:A *713:12 0.000150449
*RES
1 *3888:Q *4090:A 32.2786 
*END

*D_NET *641 0.000824901
*CONN
*I *4091:A I *D sky130_fd_sc_hd__buf_1
*I *3893:Q O *D sky130_fd_sc_hd__dfrtp_2
*CAP
1 *4091:A 0.000263682
2 *3893:Q 0.000263682
3 *4091:A *4045:A 9.24234e-05
4 *4091:A *4046:A 0.000153047
5 *4091:A *718:6 5.20669e-05
*RES
1 *3893:Q *4091:A 33.3679 
*END

*D_NET *642 0.0135552
*CONN
*I *4092:A I *D sky130_fd_sc_hd__buf_1
*I *3224:A_N I *D sky130_fd_sc_hd__nand4b_2
*I *3228:A_N I *D sky130_fd_sc_hd__and3b_4
*I *3219:A I *D sky130_fd_sc_hd__inv_2
*I *3216:A_N I *D sky130_fd_sc_hd__nand3b_2
*I *3938:Q O *D sky130_fd_sc_hd__dfstp_2
*CAP
1 *4092:A 3.2426e-05
2 *3224:A_N 3.82418e-05
3 *3228:A_N 0.000463537
4 *3219:A 0.000123822
5 *3216:A_N 0
6 *3938:Q 0.000330658
7 *642:45 0.00085466
8 *642:30 0.00063831
9 *642:24 0.00318979
10 *642:10 0.00314362
11 *3219:A *3249:A2 9.71197e-05
12 *3219:A *696:8 0
13 *3224:A_N *3224:B 0
14 *3228:A_N *3468:S 8.6229e-06
15 *3228:A_N *683:38 0.000451761
16 *3228:A_N *698:10 0
17 *3228:A_N *715:25 0.000234349
18 *3228:A_N *715:27 6.12813e-05
19 *3228:A_N *715:29 9.69119e-06
20 *642:10 *3910:D 0
21 *642:10 *4114:A 0.000295137
22 *642:10 *895:10 0
23 *642:24 *3407:A2 9.71601e-05
24 *642:24 *711:6 0.000230327
25 *642:24 *711:12 4.82947e-05
26 *642:24 *712:24 0.00136192
27 *642:24 *729:6 9.01258e-06
28 *642:24 *729:20 7.07155e-06
29 *642:24 *730:16 3.43158e-05
30 *642:30 *3224:B 7.32173e-05
31 *642:30 *3224:C 7.25296e-05
32 *642:30 *3224:D 0.00015234
33 *642:30 *715:31 1.02504e-05
34 *642:45 *3224:C 0.000200406
35 *642:45 *3249:A2 0.000140933
36 *642:45 *4078:A 0.000171375
37 *642:45 *681:22 7.48356e-05
38 *642:45 *696:8 5.33005e-05
39 *642:45 *715:29 2.26424e-05
40 *642:45 *715:31 6.16744e-05
41 *3221:B *3228:A_N 0.000152033
42 *3249:A1 *3219:A 6.95085e-05
43 *3256:A1 *3219:A 2.45626e-05
44 *3942:CLK *642:24 0.000440093
45 *174:10 *642:30 1.40415e-05
46 *177:6 *3228:A_N 2.85234e-05
47 *192:8 *642:45 8.43535e-06
48 *336:10 *642:24 2.34204e-05
*RES
1 *3938:Q *642:10 25.1036 
2 *642:10 *642:24 46.7679 
3 *642:24 *642:30 10.2679 
4 *642:30 *3216:A_N 13.8 
5 *642:30 *642:45 11.5893 
6 *642:45 *3219:A 11.925 
7 *642:45 *3228:A_N 31.1036 
8 *642:24 *3224:A_N 10.0321 
9 *642:10 *4092:A 9.83571 
*END

*D_NET *643 0.00811666
*CONN
*I *4093:A I *D sky130_fd_sc_hd__buf_1
*I *3235:A_N I *D sky130_fd_sc_hd__and3b_2
*I *3237:A I *D sky130_fd_sc_hd__inv_2
*I *3928:Q O *D sky130_fd_sc_hd__dfrtp_2
*CAP
1 *4093:A 0.00105356
2 *3235:A_N 0
3 *3237:A 0.000165615
4 *3928:Q 0.00249653
5 *643:16 0.00160858
6 *3237:A *708:41 0.000139907
7 *3237:A *714:52 0.000196957
8 *4093:A *3928:D 0.000448926
9 *4093:A *3928:RESET_B 0.000175578
10 *643:16 *3235:C 0.000134753
11 *643:16 *3930:D 8.07951e-05
12 *643:16 *676:10 5.33005e-05
13 *643:16 *706:38 3.97677e-05
14 *643:16 *706:44 2.89016e-05
15 *643:16 *708:39 0.000173797
16 *643:16 *717:14 4.43256e-05
17 *643:16 *911:8 0.00040086
18 *3236:A *643:16 3.80953e-06
19 *3265:B *643:16 0.000401744
20 *3482:D *3237:A 9.60939e-05
21 *184:10 *3237:A 6.42145e-05
22 *184:18 *3237:A 3.07555e-05
23 *185:31 *643:16 1.82657e-05
24 *193:14 *3237:A 0
25 *603:8 *643:16 5.41609e-05
26 *604:25 *4093:A 4.08328e-06
27 *604:36 *4093:A 0.000201383
*RES
1 *3928:Q *643:16 42.9964 
2 *643:16 *3237:A 22.8179 
3 *643:16 *3235:A_N 9.3 
4 *3928:Q *4093:A 33.9571 
*END

*D_NET *644 0.00097519
*CONN
*I *4094:A I *D sky130_fd_sc_hd__buf_1
*I *3425:X O *D sky130_fd_sc_hd__buf_1
*CAP
1 *4094:A 0.000341239
2 *3425:X 0.000341239
3 *4094:A *4096:A 0.000112726
4 *4094:A *4105:A 0.000156685
5 rd_data[0] *4094:A 2.51343e-06
6 *3441:A *4094:A 2.07878e-05
*RES
1 *3425:X *4094:A 34.975 
*END

*D_NET *645 0.00775857
*CONN
*I *4095:A I *D sky130_fd_sc_hd__buf_1
*I *3433:X O *D sky130_fd_sc_hd__a21bo_2
*CAP
1 *4095:A 0.0036952
2 *3433:X 0.0036952
3 *4095:A *3550:A1 0
4 *4095:A *3562:S 4.58216e-05
5 *4095:A *666:24 8.89764e-05
6 *3540:S *4095:A 0
7 *3783:CLK *4095:A 4.5534e-05
8 *3813:CLK *4095:A 0.000152333
9 *360:14 *4095:A 0
10 *432:47 *4095:A 0
11 *461:88 *4095:A 0
12 *611:47 *4095:A 3.55115e-05
*RES
1 *3433:X *4095:A 48.1851 
*END

*D_NET *646 0.000544569
*CONN
*I *4096:A I *D sky130_fd_sc_hd__buf_1
*I *3441:X O *D sky130_fd_sc_hd__buf_1
*CAP
1 *4096:A 0.000200488
2 *3441:X 0.000200488
3 *4096:A *4103:A 3.08664e-05
4 *4094:A *4096:A 0.000112726
*RES
1 *3441:X *4096:A 31.4393 
*END

*D_NET *647 0.00141065
*CONN
*I *4097:A I *D sky130_fd_sc_hd__buf_1
*I *3449:X O *D sky130_fd_sc_hd__buf_1
*CAP
1 *4097:A 0.000523273
2 *3449:X 0.000523273
3 *4097:A *4109:A 0.000364108
*RES
1 *3449:X *4097:A 35.9214 
*END

*D_NET *648 0.0060411
*CONN
*I *4098:A I *D sky130_fd_sc_hd__buf_1
*I *3457:X O *D sky130_fd_sc_hd__a22o_2
*CAP
1 *4098:A 0.00103654
2 *3457:X 0.00140659
3 *648:12 0.00244312
4 *648:12 *3450:A2 0.000221863
5 *648:12 *3450:A3 0.000180173
6 *648:12 *3450:S0 0
7 *648:12 *3526:A1 5.7616e-05
8 *648:12 *760:8 2.40379e-05
9 *3457:A1 *648:12 0.000126408
10 *3516:A *4098:A 3.5095e-05
11 *3856:CLK *648:12 0.000245105
12 *3887:CLK *4098:A 2.07878e-05
13 *3887:D *4098:A 2.31078e-05
14 *352:67 *648:12 5.7256e-05
15 *352:73 *648:12 3.55552e-05
16 *544:61 *648:12 0
17 *618:25 *648:12 0.00012785
*RES
1 *3457:X *648:12 45.9607 
2 *648:12 *4098:A 21.55 
*END

*D_NET *649 0.00111295
*CONN
*I *3891:D I *D sky130_fd_sc_hd__dfrtp_2
*I *4068:X O *D sky130_fd_sc_hd__clkdlybuf4s25_1
*CAP
1 *3891:D 0.000489336
2 *4068:X 0.000489336
3 *3891:D *3889:RESET_B 4.88537e-05
4 *3382:B *3891:D 4.48698e-05
5 *3401:A2 *3891:D 4.0552e-05
*RES
1 *4068:X *3891:D 35.3143 
*END

*D_NET *650 0.000468775
*CONN
*I *4099:A I *D sky130_fd_sc_hd__buf_1
*I *3465:X O *D sky130_fd_sc_hd__buf_1
*CAP
1 *4099:A 0.000133847
2 *3465:X 0.000133847
3 *4099:A *652:20 0.000141729
4 *388:22 *4099:A 5.93525e-05
*RES
1 *3465:X *4099:A 30.6 
*END

*D_NET *651 0.00214358
*CONN
*I *4100:A I *D sky130_fd_sc_hd__buf_1
*I *3473:X O *D sky130_fd_sc_hd__a21bo_2
*CAP
1 *4100:A 0.000795854
2 *3473:X 0.000795854
3 *4100:A *3466:A2 0
4 *4100:A *3530:A1 9.91086e-05
5 *4100:A *3601:A1 2.29031e-05
6 *4100:A *722:33 0
7 *4100:A *762:8 0.000177948
8 *4100:A *786:10 0
9 *3530:S *4100:A 0
10 *3601:S *4100:A 0
11 *26:20 *4100:A 0.000251916
*RES
1 *3473:X *4100:A 44.4214 
*END

*D_NET *652 0.00514331
*CONN
*I *4101:A I *D sky130_fd_sc_hd__buf_1
*I *3481:X O *D sky130_fd_sc_hd__a22o_2
*CAP
1 *4101:A 0
2 *3481:X 0.00194505
3 *652:20 0.00194505
4 *652:20 *3475:A 3.46272e-05
5 *652:20 *4107:A 5.49995e-05
6 *3440:A0 *652:20 4.96037e-05
7 *3481:A2 *652:20 0.000554332
8 *3804:D *652:20 1.64343e-05
9 *4099:A *652:20 0.000141729
10 *363:12 *652:20 0.000156729
11 *388:22 *652:20 0.000189541
12 *610:12 *652:20 5.52238e-05
*RES
1 *3481:X *652:20 47.8893 
2 *652:20 *4101:A 9.3 
*END

*D_NET *653 0.000215486
*CONN
*I *4102:A I *D sky130_fd_sc_hd__clkbuf_4
*I *4100:X O *D sky130_fd_sc_hd__buf_1
*CAP
1 *4102:A 0.000107743
2 *4100:X 0.000107743
*RES
1 *4100:X *4102:A 20.3857 
*END

*D_NET *654 0.000218674
*CONN
*I *4103:A I *D sky130_fd_sc_hd__clkbuf_4
*I *4096:X O *D sky130_fd_sc_hd__buf_1
*CAP
1 *4103:A 9.39039e-05
2 *4096:X 9.39039e-05
3 *4096:A *4103:A 3.08664e-05
*RES
1 *4096:X *4103:A 19.975 
*END

*D_NET *655 0.000720836
*CONN
*I *4104:A I *D sky130_fd_sc_hd__clkbuf_4
*I *4095:X O *D sky130_fd_sc_hd__buf_1
*CAP
1 *4104:A 0.000182705
2 *4095:X 0.000182705
3 *3516:A *4104:A 0
4 *3533:A *4104:A 0.000150625
5 *3783:CLK *4104:A 6.74911e-05
6 *4064:A *4104:A 0.00013731
*RES
1 *4095:X *4104:A 31.9036 
*END

*D_NET *656 0.000611306
*CONN
*I *4105:A I *D sky130_fd_sc_hd__clkbuf_4
*I *4094:X O *D sky130_fd_sc_hd__buf_1
*CAP
1 *4105:A 0.000212855
2 *4094:X 0.000212855
3 rd_data[0] *4105:A 2.89114e-05
4 rd_data[2] *4105:A 0
5 *4094:A *4105:A 0.000156685
*RES
1 *4094:X *4105:A 32.5107 
*END

*D_NET *657 0.000332136
*CONN
*I *4106:A I *D sky130_fd_sc_hd__clkbuf_4
*I *4101:X O *D sky130_fd_sc_hd__buf_1
*CAP
1 *4106:A 9.92026e-05
2 *4101:X 9.92026e-05
3 *4106:A *4107:A 3.18227e-05
4 *4106:A *4108:A 0.000101908
*RES
1 *4101:X *4106:A 29.475 
*END

*D_NET *658 0.00155856
*CONN
*I *4107:A I *D sky130_fd_sc_hd__clkbuf_4
*I *4099:X O *D sky130_fd_sc_hd__buf_1
*CAP
1 *4107:A 0.000375593
2 *4099:X 0.000375593
3 *4107:A *4108:A 0
4 rd_data[7] *4107:A 5.71833e-05
5 *3510:A *4107:A 0
6 *3527:A *4107:A 0.000369111
7 *3772:D *4107:A 0
8 *3780:D *4107:A 0.00014535
9 *4106:A *4107:A 3.18227e-05
10 *609:12 *4107:A 0.000148911
11 *652:20 *4107:A 5.49995e-05
*RES
1 *4099:X *4107:A 37.6714 
*END

*D_NET *659 0.0021546
*CONN
*I *4108:A I *D sky130_fd_sc_hd__clkbuf_4
*I *4098:X O *D sky130_fd_sc_hd__buf_1
*CAP
1 *4108:A 0.000799262
2 *4098:X 0.000799262
3 rd_data[4] *4108:A 1.92905e-05
4 rd_data[5] *4108:A 0
5 rd_data[7] *4108:A 5.71833e-05
6 *3527:A *4108:A 0
7 *3780:CLK *4108:A 0.000179656
8 *3780:D *4108:A 0.000181125
9 *4106:A *4108:A 0.000101908
10 *4107:A *4108:A 0
11 *609:12 *4108:A 1.69115e-05
*RES
1 *4098:X *4108:A 44.6536 
*END

*D_NET *660 0.00060611
*CONN
*I *3892:D I *D sky130_fd_sc_hd__dfrtp_2
*I *4069:X O *D sky130_fd_sc_hd__clkdlybuf4s25_1
*CAP
1 *3892:D 0.00025684
2 *4069:X 0.00025684
3 *3892:D *3892:RESET_B 0
4 *3892:D *713:12 9.24299e-05
*RES
1 *4069:X *3892:D 31.6179 
*END

*D_NET *661 0.000838658
*CONN
*I *4109:A I *D sky130_fd_sc_hd__clkbuf_4
*I *4097:X O *D sky130_fd_sc_hd__buf_1
*CAP
1 *4109:A 0.000172182
2 *4097:X 0.000172182
3 *4109:A *3910:D 0
4 *4109:A *3911:D 0.000125724
5 rd_data[3] *4109:A 4.46186e-06
6 *4097:A *4109:A 0.000364108
*RES
1 *4097:X *4109:A 32.3143 
*END

*D_NET *662 0.0186373
*CONN
*I *3737:S I *D sky130_fd_sc_hd__mux2_2
*I *3741:S I *D sky130_fd_sc_hd__mux2_2
*I *3727:S I *D sky130_fd_sc_hd__mux2_2
*I *3731:S I *D sky130_fd_sc_hd__mux2_2
*I *3735:S I *D sky130_fd_sc_hd__mux2_2
*I *4079:X O *D sky130_fd_sc_hd__buf_2
*CAP
1 *3737:S 0
2 *3741:S 0
3 *3727:S 0.000964854
4 *3731:S 4.58636e-05
5 *3735:S 0.00052159
6 *4079:X 0.000959573
7 *662:59 0.00135993
8 *662:46 0.000944971
9 *662:40 0.00198088
10 *662:24 0.00324226
11 *662:12 0.00229512
12 *3727:S *3418:S 0
13 *3727:S *3576:A0 4.03342e-05
14 *3727:S *782:10 3.62206e-05
15 *3727:S *854:10 9.96553e-05
16 *3731:S *3434:S0 9.67754e-05
17 *3735:S *3741:A0 0.000100823
18 *662:12 *3517:A_N 2.47572e-06
19 *662:12 *687:78 0.000367906
20 *662:24 *3459:A2 0.000226507
21 *662:24 *3737:A1 0.000313706
22 *662:24 *666:16 0.000516377
23 *662:24 *687:78 0.000139907
24 *662:24 *729:78 0.000126797
25 *662:40 *3474:S0 5.59013e-05
26 *662:40 *3568:A0 2.59355e-05
27 *662:40 *666:16 0.000130469
28 *662:40 *787:10 5.65955e-05
29 *662:46 *3474:S0 0.000135028
30 *662:46 *3474:S1 6.57032e-05
31 *662:59 *3741:A0 3.34366e-05
32 *3508:A *662:24 0.00014285
33 *3551:A *662:40 0.000151306
34 *3569:A *662:40 0.000259077
35 *3572:S *3727:S 0.000134361
36 *3580:S *3735:S 0.000316612
37 *3580:S *662:40 0.00012501
38 *3580:S *662:59 0.000314565
39 *3731:A1 *3727:S 0.000480096
40 *3732:A *662:59 0
41 *3742:A *3735:S 4.1331e-06
42 *3742:A *662:59 0.00015309
43 *3799:D *662:40 0.000100684
44 *3802:D *3727:S 0.000108737
45 *3805:CLK *662:40 7.77751e-05
46 *3805:D *662:40 4.52362e-05
47 *3807:CLK *662:40 1.92905e-05
48 *3807:D *662:40 4.87669e-06
49 *3875:D *662:12 8.47289e-05
50 *26:22 *662:24 0.00013873
51 *347:8 *3727:S 5.41609e-05
52 *347:10 *3735:S 0
53 *347:10 *662:59 0
54 *452:14 *662:24 0
55 *452:75 *3727:S 3.20477e-05
56 *452:75 *662:59 0.000167
57 *535:18 *662:12 0.000251742
58 *584:12 *3727:S 0.000181368
59 *618:8 *3735:S 0.000313209
60 *626:55 *3727:S 9.10623e-05
*RES
1 *4079:X *662:12 23.4429 
2 *662:12 *662:24 37.4821 
3 *662:24 *662:40 35.2857 
4 *662:40 *662:46 6.28571 
5 *662:46 *3735:S 26.0321 
6 *662:46 *662:59 10.1429 
7 *662:59 *3731:S 14.7464 
8 *662:59 *3727:S 36.5857 
9 *662:40 *3741:S 9.3 
10 *662:12 *3737:S 9.3 
*END

*D_NET *663 0.015757
*CONN
*I *3664:S I *D sky130_fd_sc_hd__mux2_2
*I *3662:S I *D sky130_fd_sc_hd__mux2_2
*I *3666:S I *D sky130_fd_sc_hd__mux2_2
*I *3668:S I *D sky130_fd_sc_hd__mux2_2
*I *4080:X O *D sky130_fd_sc_hd__clkbuf_2
*CAP
1 *3664:S 0.000252509
2 *3662:S 0.00142032
3 *3666:S 0.000109676
4 *3668:S 0
5 *4080:X 0.00100289
6 *663:43 0.00248804
7 *663:26 0.00158335
8 *663:16 0.0018807
9 *3664:S *3664:A0 3.86158e-05
10 *3666:S *3454:A0 3.34295e-05
11 *3666:S *3666:A0 0.000401429
12 *663:16 *707:35 0.000166276
13 *663:16 *707:41 0.000148182
14 *663:16 *707:74 0.000307818
15 *663:43 *3454:A0 0.000191877
16 *663:43 *3461:A0 3.97677e-05
17 *663:43 *3668:A0 0.000318107
18 *663:43 *3702:A0 9.99853e-05
19 *663:43 *3702:A1 4.82865e-05
20 *663:43 *723:90 8.58232e-05
21 *3497:A *663:16 0
22 *3682:A *663:16 1.6815e-05
23 *3703:A *663:43 5.70551e-05
24 *3715:A0 *3664:S 0.000315451
25 *3715:A0 *663:16 8.91963e-06
26 *3715:S *663:16 0.000450718
27 *3766:CLK *663:16 9.97648e-05
28 *3766:D *663:16 0.000153047
29 *3844:D *3662:S 2.96945e-05
30 *3845:D *663:43 0.000276989
31 *3846:CLK *663:16 1.98839e-05
32 *3860:D *3662:S 4.87669e-06
33 *3861:CLK *3666:S 6.8646e-06
34 *3867:D *663:26 0.000100478
35 *3981:A *663:26 0.000185643
36 *4080:A *663:16 0.000183724
37 *4081:A *663:16 0.000310307
38 *4111:A *663:26 0.000313314
39 *202:56 *663:16 2.42406e-05
40 *202:104 *663:16 0.000114529
41 *404:14 *663:16 0
42 *488:65 *663:26 0.000259971
43 *498:22 *663:16 0.000193004
44 *516:24 *663:16 0.000142837
45 *516:51 *3666:S 0.000317082
46 *516:105 *663:16 0.00014615
47 *525:29 *663:16 0.00020943
48 *562:262 *663:26 5.5674e-05
49 *562:262 *663:43 0.000178459
50 *590:34 *3662:S 0.000243394
51 *590:42 *3662:S 3.41074e-05
52 *598:14 *663:26 0.000268409
53 *619:55 *3664:S 4.17433e-05
54 *633:25 *3666:S 0.000176234
55 *633:25 *663:43 0.000201127
*RES
1 *4080:X *663:16 46.55 
2 *663:16 *663:26 23.9464 
3 *663:26 *3668:S 9.3 
4 *663:26 *663:43 25.8214 
5 *663:43 *3666:S 19.05 
6 *663:43 *3662:S 32.05 
7 *663:16 *3664:S 14.925 
*END

*D_NET *664 0.0126647
*CONN
*I *3633:S I *D sky130_fd_sc_hd__mux2_2
*I *3631:S I *D sky130_fd_sc_hd__mux2_2
*I *3637:S I *D sky130_fd_sc_hd__mux2_2
*I *3627:S I *D sky130_fd_sc_hd__mux2_2
*I *4110:X O *D sky130_fd_sc_hd__clkbuf_2
*CAP
1 *3633:S 0
2 *3631:S 0
3 *3637:S 0.000898641
4 *3627:S 0
5 *4110:X 0.000888982
6 *664:48 0.00218363
7 *664:34 0.00265916
8 *664:18 0.00226315
9 *3637:S *3479:A3 0.000315228
10 *3637:S *3627:A0 0
11 *3637:S *3637:A0 9.58126e-05
12 *3637:S *3654:A0 0.000252353
13 *3637:S *3654:A1 3.57844e-05
14 *3637:S *719:18 3.97677e-05
15 *664:18 *3494:A1 0.000428054
16 *664:18 *3633:A0 3.52429e-05
17 *664:18 *672:24 5.08914e-05
18 *664:18 *723:24 9.8396e-05
19 *664:34 *3633:A0 0.000141729
20 *664:34 *723:38 1.59373e-05
21 *664:34 *725:22 0.000386506
22 *664:34 *808:12 0.000315522
23 *664:48 *3438:A0 0.000106117
24 *664:48 *3438:A1 2.42516e-05
25 *664:48 *3438:S0 0.00013751
26 *664:48 *3627:A0 0
27 *664:48 *3631:A0 0.000139202
28 *664:48 *742:8 2.21384e-05
29 *664:48 *806:8 0
30 *3439:A1 *664:48 1.38167e-05
31 *3632:A *664:48 9.62992e-05
32 *3644:A1 *664:48 0.00016231
33 *3645:A *664:48 0.000143633
34 *3649:A *664:34 0
35 *3762:D *664:48 5.23735e-05
36 *3820:CLK *664:34 0.000141935
37 *3820:D *664:34 0.00010074
38 *3826:CLK *664:48 0.000267025
39 *3834:CLK *3637:S 0
40 *3834:CLK *664:48 0
41 *3834:D *664:48 3.34672e-05
42 *3858:D *3637:S 5.33978e-05
43 *621:41 *664:48 6.56629e-05
44 *631:28 *3637:S 0
*RES
1 *4110:X *664:18 40.1393 
2 *664:18 *664:34 36.1607 
3 *664:34 *664:48 39.375 
4 *664:48 *3627:S 13.8 
5 *664:48 *3637:S 32.6929 
6 *664:34 *3631:S 9.3 
7 *664:18 *3633:S 9.3 
*END

*D_NET *665 0.0147085
*CONN
*I *3635:S I *D sky130_fd_sc_hd__mux2_2
*I *3625:S I *D sky130_fd_sc_hd__mux2_2
*I *3623:S I *D sky130_fd_sc_hd__mux2_2
*I *4081:X O *D sky130_fd_sc_hd__clkbuf_2
*CAP
1 *3635:S 0.000265502
2 *3625:S 0
3 *3623:S 0.000524239
4 *4081:X 0.000960173
5 *665:34 0.00156485
6 *665:14 0.00190864
7 *665:12 0.0020937
8 *3623:S *3623:A0 0.000100262
9 *3635:S *3635:A0 5.66971e-05
10 *3635:S *685:18 0.00021796
11 *3635:S *721:26 0.000227179
12 *665:12 *3470:A2 0
13 *665:12 *3635:A0 0.000150476
14 *665:12 *3652:A0 7.1724e-05
15 *665:12 *685:18 0
16 *665:12 *721:51 0.000365536
17 *665:12 *721:64 6.65302e-05
18 *665:12 *818:8 3.79467e-05
19 *665:14 *3478:S1 2.83425e-05
20 *665:14 *3625:A0 0.000317503
21 *665:14 *3635:A1 0.000175892
22 *665:14 *685:34 0.000344089
23 *665:14 *721:26 8.17274e-05
24 *665:34 *3478:S1 8.90464e-05
25 *665:34 *3625:A0 0.000143633
26 *665:34 *690:14 0.000751129
27 *3463:S *3635:S 3.14003e-05
28 *3480:A0 *665:34 0.000435228
29 *3480:A1 *3623:S 0.000177741
30 *3480:A1 *665:34 1.5424e-05
31 *3484:A1 *665:34 5.52238e-05
32 *3484:S *665:34 0.00123468
33 *3485:A *3623:S 5.52302e-05
34 *3625:A1 *665:34 0
35 *3833:CLK *665:34 0.000320738
36 *4015:A *3623:S 5.52238e-05
37 *4087:A *3635:S 0.000139344
38 *173:29 *3635:S 5.33005e-05
39 *350:26 *3635:S 9.67754e-05
40 *350:57 *665:34 0.000228558
41 *402:14 *665:34 2.89016e-05
42 *404:40 *665:12 0.000332722
43 *507:65 *665:14 0.000473851
44 *507:65 *665:34 0.000314087
45 *562:204 *3635:S 2.4652e-05
46 *562:214 *3635:S 2.97489e-05
47 *562:248 *3635:S 1.58559e-05
48 *625:19 *3623:S 4.70078e-05
*RES
1 *4081:X *665:12 39.0143 
2 *665:12 *665:14 19.4286 
3 *665:14 *665:34 40.4464 
4 *665:34 *3623:S 19.6929 
5 *665:14 *3625:S 9.3 
6 *665:12 *3635:S 25.925 
*END

*D_NET *666 0.0152936
*CONN
*I *3564:S I *D sky130_fd_sc_hd__mux2_2
*I *3568:S I *D sky130_fd_sc_hd__mux2_2
*I *3554:S I *D sky130_fd_sc_hd__mux2_2
*I *3558:S I *D sky130_fd_sc_hd__mux2_2
*I *3562:S I *D sky130_fd_sc_hd__mux2_2
*I *4082:X O *D sky130_fd_sc_hd__buf_2
*CAP
1 *3564:S 0
2 *3568:S 0
3 *3554:S 0.00109657
4 *3558:S 2.85134e-05
5 *3562:S 0.00163586
6 *4082:X 0.00062997
7 *666:49 0.00185967
8 *666:24 0.00245068
9 *666:16 0.00170732
10 *666:10 0.00225706
11 *3554:S *3558:A0 0.000132322
12 *3554:S *686:122 0.000129051
13 *3562:S *3453:B1 0.000102847
14 *666:10 *3524:A1 4.70078e-05
15 *666:10 *777:12 5.29648e-05
16 *666:16 *3546:A0 0
17 *666:16 *3564:A1 7.83659e-05
18 *666:16 *3582:A0 5.52302e-05
19 *666:16 *777:12 9.69119e-06
20 *666:24 *3568:A1 1.02504e-05
21 *666:49 *3568:A0 4.8841e-05
22 *666:49 *3568:A1 8.33208e-05
23 *666:49 *686:22 0
24 *666:49 *686:33 2.30116e-06
25 *666:49 *686:35 7.71338e-05
26 *666:49 *779:10 5.29648e-05
27 *3460:A1 *666:16 0
28 *3477:A2 *666:24 4.33002e-05
29 *3508:A *666:16 0
30 *3525:A *666:10 0.000356035
31 *3525:A *666:16 0
32 *3536:A1 *3554:S 0.000186765
33 *3541:A *3554:S 0
34 *3551:A *666:16 0.000227532
35 *3769:D *3554:S 0
36 *3777:D *3554:S 0
37 *3786:D *3554:S 4.96722e-05
38 *3801:CLK *3554:S 0.000150625
39 *3805:CLK *666:16 7.77751e-05
40 *3805:D *666:16 0.000143167
41 *3810:CLK *3558:S 5.49995e-05
42 *4095:A *3562:S 4.58216e-05
43 *4095:A *666:24 8.89764e-05
44 *26:22 *666:10 0
45 *26:22 *666:16 0
46 *422:29 *666:10 1.98839e-05
47 *422:39 *666:10 0.000149565
48 *442:24 *666:10 7.20217e-06
49 *461:88 *666:49 8.12645e-05
50 *461:168 *666:10 0.000313017
51 *586:10 *666:49 0
52 *611:16 *666:49 0.000103253
53 *662:24 *666:16 0.000516377
54 *662:40 *666:16 0.000130469
*RES
1 *4082:X *666:10 26.9607 
2 *666:10 *666:16 33.625 
3 *666:16 *666:24 8.75356 
4 *666:24 *3562:S 27.3305 
5 *666:24 *666:49 18.5618 
6 *666:49 *3558:S 14.3357 
7 *666:49 *3554:S 36.675 
8 *666:16 *3568:S 9.3 
9 *666:10 *3564:S 13.8 
*END

*D_NET *667 0.0137756
*CONN
*I *3548:S I *D sky130_fd_sc_hd__mux2_2
*I *3536:S I *D sky130_fd_sc_hd__mux2_2
*I *3538:S I *D sky130_fd_sc_hd__mux2_2
*I *3542:S I *D sky130_fd_sc_hd__mux2_2
*I *4083:X O *D sky130_fd_sc_hd__clkbuf_2
*CAP
1 *3548:S 0.000151557
2 *3536:S 0.00109058
3 *3538:S 0.000242715
4 *3542:S 0
5 *4083:X 0.00039908
6 *667:31 0.00356987
7 *667:27 0.00318883
8 *667:12 0.00119979
9 *3536:S *3417:S0 0.000266835
10 *3536:S *3427:A0 9.77087e-05
11 *3536:S *3427:A1 2.28598e-05
12 *3536:S *3427:S1 0.000136951
13 *3548:S *778:14 4.32865e-05
14 *667:27 *699:34 0
15 *667:27 *726:12 0
16 *3428:A1 *3536:S 0.000347181
17 *3428:A1 *3538:S 0.000315887
18 *3798:CLK *667:31 3.18676e-05
19 *3798:D *667:31 1.76204e-05
20 *3886:D *667:27 0.000194073
21 *4003:A *667:12 0.000100823
22 *602:21 *667:12 0.000627598
23 *602:21 *667:27 0.000638293
24 *602:32 *667:27 0.000369825
25 *602:49 *3548:S 2.49484e-05
26 *602:49 *667:27 0.00036496
27 *602:49 *667:31 0.000332445
*RES
1 *4083:X *667:12 23.6929 
2 *667:12 *3542:S 13.8 
3 *667:12 *667:27 20.1429 
4 *667:27 *667:31 30.5 
5 *667:31 *3538:S 23.3179 
6 *667:31 *3536:S 27.3893 
7 *667:27 *3548:S 16.9607 
*END

*D_NET *668 0.0200811
*CONN
*I *3528:S I *D sky130_fd_sc_hd__mux2_2
*I *3532:S I *D sky130_fd_sc_hd__mux2_2
*I *3518:S I *D sky130_fd_sc_hd__mux2_2
*I *3522:S I *D sky130_fd_sc_hd__mux2_2
*I *3526:S I *D sky130_fd_sc_hd__mux2_2
*I *4084:X O *D sky130_fd_sc_hd__buf_2
*CAP
1 *3528:S 0
2 *3532:S 0
3 *3518:S 0.000643533
4 *3522:S 7.65351e-05
5 *3526:S 0.000366964
6 *4084:X 0.00179722
7 *668:51 0.00135154
8 *668:41 0.00117025
9 *668:20 0.00326342
10 *668:12 0.00415489
11 *3518:S *3501:A0 0
12 *3518:S *3518:A1 1.83136e-05
13 *3526:S *3526:A1 5.33433e-05
14 *668:12 *3528:A0 2.11336e-05
15 *668:12 *3528:A1 2.7152e-05
16 *668:41 *3515:A0 0.000137939
17 *668:41 *3532:A1 0.000225982
18 *668:41 *755:10 0.000200413
19 *668:41 *862:10 3.97677e-05
20 *668:51 *3532:A1 5.49544e-05
21 *668:51 *720:10 0.000128161
22 *668:51 *750:12 9.91224e-05
23 *3501:A1 *3518:S 9.11148e-05
24 *3501:S *3518:S 4.79842e-05
25 *3505:A1 *668:51 0.000526427
26 *3509:A1 *668:20 0.000252212
27 *3512:A *668:20 0.000141935
28 *3518:A0 *3518:S 0.000123912
29 *3522:A0 *3522:S 6.05161e-06
30 *3526:A0 *3526:S 9.71197e-05
31 *3529:A *668:12 4.41588e-05
32 *3544:A1 *668:20 0.000139202
33 *3734:A *668:12 2.46444e-05
34 *3736:A *3526:S 0.000150458
35 *3744:S *3518:S 0
36 *3759:A *668:41 4.35819e-05
37 *3796:D *668:20 9.84605e-05
38 *3885:CLK *668:12 1.79145e-05
39 *3885:D *668:12 3.32132e-06
40 *3887:D *668:41 0.000103267
41 *413:108 *3518:S 0
42 *413:112 *668:51 0
43 *544:78 *668:41 0.000153047
44 *618:6 *668:20 0.000444664
45 *618:8 *668:20 0.00111214
46 *618:12 *668:20 4.11572e-05
47 *622:23 *3522:S 5.20751e-05
48 *628:22 *3526:S 0.000475108
49 *628:22 *668:41 0.000263977
50 *631:28 *3518:S 1.69497e-05
51 *633:45 *668:20 0.000421562
52 *636:17 *3526:S 0.000554839
53 *636:17 *668:41 0.000803165
*RES
1 *4084:X *668:12 32.0679 
2 *668:12 *668:20 38.6429 
3 *668:20 *3526:S 27.925 
4 *668:20 *668:41 22.25 
5 *668:41 *668:51 18.6786 
6 *668:51 *3522:S 15.175 
7 *668:51 *3518:S 26.6571 
8 *668:41 *3532:S 9.3 
9 *668:12 *3528:S 9.3 
*END

*D_NET *669 0.010751
*CONN
*I *3608:S I *D sky130_fd_sc_hd__mux2_2
*I *3606:S I *D sky130_fd_sc_hd__mux2_2
*I *3620:S I *D sky130_fd_sc_hd__mux2_2
*I *4085:X O *D sky130_fd_sc_hd__clkbuf_2
*CAP
1 *3608:S 0
2 *3606:S 0
3 *3620:S 0.000201097
4 *4085:X 0.00152193
5 *669:24 0.00200467
6 *669:14 0.00332551
7 *3620:S *3479:S0 7.86072e-05
8 *3620:S *3620:A1 7.61932e-05
9 *669:14 *3608:A0 4.58194e-05
10 *669:24 *3608:A0 2.89016e-05
11 *3431:A2 *669:14 0
12 *3609:A *669:24 3.67142e-05
13 *3760:D *669:24 1.76204e-05
14 *404:40 *669:14 0.000123577
15 *404:40 *669:24 1.39841e-05
16 *488:6 *669:14 1.92905e-05
17 *488:8 *669:14 0.000248989
18 *488:27 *669:14 0.000786327
19 *488:48 *669:24 0.00098811
20 *623:16 *669:14 4.08637e-05
21 *623:16 *669:24 5.33005e-05
22 *625:19 *3620:S 7.6644e-05
23 *625:35 *669:24 0.000829316
24 *628:22 *3620:S 7.83174e-05
25 *636:17 *3620:S 0.000155244
*RES
1 *4085:X *669:14 40.0143 
2 *669:14 *669:24 34.9107 
3 *669:24 *3620:S 24.3357 
4 *669:24 *3606:S 9.3 
5 *669:14 *3608:S 9.3 
*END

*D_NET *670 0.0136829
*CONN
*I *3616:S I *D sky130_fd_sc_hd__mux2_2
*I *3614:S I *D sky130_fd_sc_hd__mux2_2
*I *3610:S I *D sky130_fd_sc_hd__mux2_2
*I *3612:S I *D sky130_fd_sc_hd__mux2_2
*I *4111:X O *D sky130_fd_sc_hd__clkbuf_2
*CAP
1 *3616:S 0
2 *3614:S 0
3 *3610:S 0.000691351
4 *3612:S 0.0015548
5 *4111:X 0.00263689
6 *670:68 0.00202943
7 *670:44 0.00242017
8 *3610:S *3610:A0 0.00018372
9 *3610:S *3614:A0 5.71472e-05
10 *3610:S *3614:A1 2.14757e-05
11 *3610:S *725:35 0.000277906
12 *3610:S *725:85 2.59355e-05
13 *670:44 *3681:A0 0.000136676
14 *670:44 *3698:A0 0.000353073
15 *670:44 *723:62 1.24368e-05
16 *670:68 *3462:A1 3.17148e-05
17 *670:68 *3462:A3 8.76314e-06
18 *670:68 *3614:A0 9.60875e-05
19 *670:68 *3616:A0 0.00029513
20 *670:68 *3650:A0 5.65955e-05
21 *670:68 *801:8 5.33005e-05
22 *3648:S *3610:S 0.000442628
23 *3648:S *670:68 0.000212561
24 *3649:A *3610:S 2.59355e-05
25 *3669:A *670:44 0.0001827
26 *3681:S *3612:S 6.56454e-05
27 *3682:A *670:44 0.000138881
28 *3699:A *670:44 0.000159067
29 *4111:A *670:44 0.000229284
30 *488:88 *670:44 0.000285493
31 *488:123 *3610:S 0.000450285
32 *591:12 *670:68 5.018e-05
33 *591:14 *670:68 8.22383e-05
34 *591:18 *670:68 0.000297143
35 *621:37 *3610:S 3.99614e-06
36 *634:31 *670:68 0.000114296
*RES
1 *4111:X *3612:S 44.1028 
2 *4111:X *670:44 30.7286 
3 *670:44 *670:68 32.0357 
4 *670:68 *3610:S 27.5143 
5 *670:68 *3614:S 9.3 
6 *670:44 *3616:S 9.3 
*END

*D_NET *671 0.00147785
*CONN
*I *3894:D I *D sky130_fd_sc_hd__dfrtp_2
*I *4070:X O *D sky130_fd_sc_hd__clkdlybuf4s25_1
*CAP
1 *3894:D 0.000705198
2 *4070:X 0.000705198
3 *3894:D *3895:D 0
4 *3327:A2_N *3894:D 6.74569e-05
*RES
1 *4070:X *3894:D 39.2786 
*END

*D_NET *672 0.0140236
*CONN
*I *3490:S I *D sky130_fd_sc_hd__mux2_2
*I *3494:S I *D sky130_fd_sc_hd__mux2_2
*I *3492:S I *D sky130_fd_sc_hd__mux2_2
*I *3488:S I *D sky130_fd_sc_hd__mux2_2
*I *4086:X O *D sky130_fd_sc_hd__clkbuf_2
*CAP
1 *3490:S 0
2 *3494:S 0
3 *3492:S 0
4 *3488:S 0.00116602
5 *4086:X 0.00102154
6 *672:32 0.00239317
7 *672:24 0.00220075
8 *672:14 0.00199514
9 *3488:S *3492:A1 0.000757878
10 *672:14 *721:18 0.000125731
11 *672:14 *802:8 5.33005e-05
12 *672:24 *3446:S1 0.000207514
13 *672:24 *3646:A0 0
14 *672:24 *685:79 0.000428444
15 *672:32 *3494:A0 5.54817e-06
16 *3490:A1 *672:14 6.05161e-06
17 *3495:A *672:32 0
18 *3497:A *672:14 0.000187741
19 *3630:A *672:24 5.49995e-05
20 *3646:S *672:14 0
21 *3646:S *672:24 0.000225307
22 *3835:D *672:24 8.04956e-05
23 *4061:A *3488:S 5.52302e-05
24 *4062:A *672:32 5.49544e-05
25 *4111:A *672:14 0.000461621
26 *470:25 *672:14 1.8356e-05
27 *479:8 *672:14 0.00165372
28 *516:24 *672:14 0.000396504
29 *633:6 *3488:S 3.77053e-05
30 *633:21 *3488:S 0.00010715
31 *633:21 *672:32 0.000176352
32 *634:10 *672:32 0.000101455
33 *664:18 *672:24 5.08914e-05
*RES
1 *4086:X *672:14 46.0857 
2 *672:14 *672:24 28.8393 
3 *672:24 *672:32 30.0536 
4 *672:32 *3488:S 26.425 
5 *672:32 *3492:S 9.3 
6 *672:24 *3494:S 9.3 
7 *672:14 *3490:S 9.3 
*END

*D_NET *673 0.000766352
*CONN
*I *3297:A2 I *D sky130_fd_sc_hd__a22oi_4
*I *4112:X O *D sky130_fd_sc_hd__clkdlybuf4s25_1
*CAP
1 *3297:A2 0.000182553
2 *4112:X 0.000182553
3 *3297:A2 *3312:A 6.05161e-06
4 *230:8 *3297:A2 0.000395195
*RES
1 *4112:X *3297:A2 22.85 
*END

*D_NET *674 0.0134655
*CONN
*I *3477:A1 I *D sky130_fd_sc_hd__o21a_2
*I *3453:A1 I *D sky130_fd_sc_hd__o21a_2
*I *3472:A1 I *D sky130_fd_sc_hd__o21ai_2
*I *3432:A1 I *D sky130_fd_sc_hd__o21ai_2
*I *4087:X O *D sky130_fd_sc_hd__clkbuf_2
*CAP
1 *3477:A1 0.000429347
2 *3453:A1 5.67605e-05
3 *3472:A1 0.000231626
4 *3432:A1 0.000728424
5 *4087:X 0.000842745
6 *674:39 0.000580034
7 *674:8 0.00170887
8 *3432:A1 *4019:A 0.00151815
9 *3432:A1 *681:58 6.58013e-05
10 *3432:A1 *685:10 1.21289e-05
11 *3472:A1 *3460:S 0
12 *3477:A1 *3544:A0 0.000230568
13 *674:8 *3470:A1 0
14 *674:8 *3470:S1 0.00152995
15 *674:8 *685:10 0.00025153
16 *674:8 *685:18 0.00154964
17 *3472:A2 *3472:A1 0
18 *3472:A2 *674:8 0
19 *3544:A1 *3477:A1 9.54004e-05
20 *3544:S *3477:A1 9.84673e-05
21 *3597:S *3453:A1 0.000122081
22 *3597:S *674:39 0.00024426
23 *3619:A *674:8 0
24 *3721:S *674:8 0
25 *3773:CLK *3477:A1 0.000151175
26 *3788:D *3477:A1 0.00012501
27 *3796:D *3477:A1 6.10115e-05
28 *3822:D *674:8 8.16036e-05
29 *3865:CLK *3477:A1 0.000437934
30 *3877:CLK *3472:A1 0
31 *3980:A *674:8 8.63454e-05
32 *26:22 *3472:A1 0.000102506
33 *352:44 *3432:A1 7.48091e-05
34 *352:44 *3472:A1 5.67397e-05
35 *352:44 *674:8 1.81412e-05
36 *352:58 *3453:A1 8.71847e-05
37 *352:58 *674:39 0.000169054
38 *360:14 *3432:A1 1.19402e-05
39 *388:22 *3477:A1 1.35465e-05
40 *413:20 *3472:A1 7.6644e-05
41 *461:26 *3432:A1 0.000961358
42 *488:65 *674:8 0
43 *544:32 *3432:A1 0.000117621
44 *544:116 *3477:A1 0.000447893
45 *633:45 *3432:A1 8.91726e-05
*RES
1 *4087:X *674:8 43.9786 
2 *674:8 *3432:A1 43.2464 
3 *674:8 *3472:A1 18.7821 
4 *3432:A1 *674:39 13.5321 
5 *674:39 *3453:A1 11.4786 
6 *674:39 *3477:A1 32.8536 
*END

*D_NET *675 0.00416044
*CONN
*I *3250:B I *D sky130_fd_sc_hd__nor2_8
*I *3366:A2_N I *D sky130_fd_sc_hd__a2bb2oi_2
*I *4088:X O *D sky130_fd_sc_hd__buf_2
*CAP
1 *3250:B 0.000114055
2 *3366:A2_N 0
3 *4088:X 0.000836615
4 *675:10 0.00095067
5 *3250:B *3468:S 0
6 *3250:B *3940:RESET_B 0.000143581
7 *675:10 *3220:C 0.000100823
8 *675:10 *3468:S 0
9 *675:10 *3473:A1 0.00035104
10 *675:10 *3940:RESET_B 5.55898e-05
11 *675:10 *4027:A 0.000448141
12 *675:10 *681:116 0.000487726
13 *675:10 *715:25 0.000166893
14 *675:10 *715:27 1.08359e-05
15 *675:10 *729:20 5.66943e-05
16 *675:10 *732:12 8.27732e-05
17 *3250:A *3250:B 0
18 *192:8 *675:10 0.000355002
*RES
1 *4088:X *675:10 34.2464 
2 *675:10 *3366:A2_N 13.8 
3 *675:10 *3250:B 16.6571 
*END

*D_NET *676 0.00554043
*CONN
*I *3318:A2_N I *D sky130_fd_sc_hd__a2bb2oi_2
*I *3286:C1 I *D sky130_fd_sc_hd__a311oi_1
*I *3307:C1 I *D sky130_fd_sc_hd__a311o_2
*I *3296:A2_N I *D sky130_fd_sc_hd__a2bb2o_4
*I *4089:X O *D sky130_fd_sc_hd__clkbuf_2
*CAP
1 *3318:A2_N 0.000110609
2 *3286:C1 5.47666e-05
3 *3307:C1 0.000199754
4 *3296:A2_N 0.000192479
5 *4089:X 0.000560894
6 *676:16 0.000463858
7 *676:12 0.000240204
8 *676:10 0.000785315
9 *3307:C1 *3307:A3 0.000221678
10 *676:10 *3317:B1 5.51716e-05
11 *676:10 *3319:B1 0.000218888
12 *676:10 *708:24 0.000125731
13 *676:10 *708:39 0.000150618
14 *676:10 *884:14 0.000690391
15 *676:10 *884:16 0.000374217
16 *676:10 *906:10 6.8646e-06
17 *3286:B1 *3286:C1 2.27416e-05
18 *3319:C1 *676:10 0.000358982
19 *214:12 *676:10 8.06491e-05
20 *214:14 *676:10 9.01893e-05
21 *214:14 *676:12 0.000121606
22 *214:14 *676:16 2.58997e-05
23 *214:26 *3307:C1 9.34004e-05
24 *214:26 *676:16 6.75007e-05
25 *219:10 *3307:C1 0
26 *219:10 *676:16 6.75007e-05
27 *228:10 *676:10 0
28 *228:10 *676:12 0
29 *228:10 *676:16 0
30 *229:10 *3296:A2_N 9.76689e-05
31 *596:42 *3307:C1 9.54798e-06
32 *643:16 *676:10 5.33005e-05
*RES
1 *4089:X *676:10 32.9786 
2 *676:10 *676:12 2.85714 
3 *676:12 *676:16 6.75 
4 *676:16 *3296:A2_N 12.7107 
5 *676:16 *3307:C1 22.925 
6 *676:12 *3286:C1 14.7464 
7 *676:10 *3318:A2_N 15.5679 
*END

*D_NET *677 0.00108827
*CONN
*I *4113:A I *D sky130_fd_sc_hd__clkbuf_4
*I *4093:X O *D sky130_fd_sc_hd__buf_1
*CAP
1 *4113:A 0.000297194
2 *4093:X 0.000297194
3 *4113:A *3922:D 0.000200413
4 *4113:A *3922:RESET_B 0
5 full *4113:A 0.000167876
6 *3922:CLK *4113:A 6.97972e-05
7 *4065:A *4113:A 0
8 *637:10 *4113:A 5.57989e-05
*RES
1 *4093:X *4113:A 34.975 
*END

*D_NET *678 0.00125683
*CONN
*I *4114:A I *D sky130_fd_sc_hd__clkbuf_4
*I *4092:X O *D sky130_fd_sc_hd__buf_1
*CAP
1 *4114:A 0.000274279
2 *4092:X 0.000274279
3 *4114:A *4039:A 0.00031539
4 *4114:A *710:8 9.77414e-05
5 *642:10 *4114:A 0.000295137
*RES
1 *4092:X *4114:A 34.3679 
*END

*D_NET *679 0.000430712
*CONN
*I *4115:A I *D sky130_fd_sc_hd__clkbuf_4
*I *4091:X O *D sky130_fd_sc_hd__buf_1
*CAP
1 *4115:A 0.000213289
2 *4091:X 0.000213289
3 *4115:A *3893:RESET_B 4.1331e-06
4 *4115:A *4045:A 0
5 *3893:D *4115:A 0
*RES
1 *4091:X *4115:A 30.7071 
*END

*D_NET *680 0.000951623
*CONN
*I *4116:A I *D sky130_fd_sc_hd__clkbuf_4
*I *4090:X O *D sky130_fd_sc_hd__buf_1
*CAP
1 *4116:A 0.000258352
2 *4090:X 0.000258352
3 *4116:A *3888:SET_B 9.59566e-05
4 *4116:A *3903:D 0.00013926
5 *4116:A *4042:A 9.75171e-05
6 *4116:A *713:12 0.000102185
*RES
1 *4090:X *4116:A 33.1536 
*END

*D_NET *681 0.0370955
*CONN
*I *3428:S I *D sky130_fd_sc_hd__mux2_2
*I *3418:S I *D sky130_fd_sc_hd__mux2_2
*I *3436:S I *D sky130_fd_sc_hd__mux2_2
*I *3222:C I *D sky130_fd_sc_hd__nand4_2
*I *3223:A I *D sky130_fd_sc_hd__inv_2
*I *3431:A1 I *D sky130_fd_sc_hd__o21a_2
*I *3475:A I *D sky130_fd_sc_hd__or2_2
*I *3451:A I *D sky130_fd_sc_hd__or2_2
*I *4017:X O *D sky130_fd_sc_hd__clkdlybuf4s25_1
*CAP
1 *3428:S 0.000230117
2 *3418:S 0.000567325
3 *3436:S 3.91589e-05
4 *3222:C 2.3671e-05
5 *3223:A 0
6 *3431:A1 0
7 *3475:A 0.000562369
8 *3451:A 1.64648e-05
9 *4017:X 0.00365929
10 *681:124 0.00293053
11 *681:116 0.00605526
12 *681:58 0.00264737
13 *681:44 0.00452742
14 *681:22 0.00351703
15 *681:10 0.00124002
16 *3222:C *3222:D 5.52302e-05
17 *3418:S *790:12 0.000100088
18 *3436:S *790:12 4.25213e-05
19 *3451:A *3450:S1 2.89114e-05
20 *681:10 *4027:A 0.000140368
21 *681:10 *687:24 7.92879e-05
22 *681:10 *732:12 0.000136951
23 *681:22 *3224:C 0.000412326
24 *681:22 *3904:D 0.000141753
25 *681:22 *3915:D 0.000199934
26 *681:22 *3935:RESET_B 0.000127439
27 *681:22 *4027:A 0.000168224
28 *681:22 *4078:A 1.18451e-05
29 *681:22 *687:24 0.0001942
30 *681:22 *726:25 0
31 *681:44 *3458:A0 4.3959e-05
32 *681:44 *3517:B 3.48705e-05
33 *681:44 *3754:A0 4.38265e-05
34 *681:44 *3754:A1 0.000319082
35 *681:44 *707:91 0.000349708
36 *681:44 *857:6 2.69405e-05
37 *681:44 *865:12 1.07719e-05
38 *681:58 *3754:A1 2.28598e-05
39 *681:116 *715:25 0.000487726
40 *681:124 *3729:A0 4.64044e-05
41 *3231:A2 *681:22 0
42 *3255:B *681:22 0
43 *3257:B1 *681:22 2.11543e-05
44 *3418:A1 *3418:S 0.000274288
45 *3428:A0 *3428:S 0.000292056
46 *3428:A1 *3428:S 0.000125536
47 *3432:A1 *681:58 6.58013e-05
48 *3432:A2 *681:58 0.000202204
49 *3440:A0 *3475:A 0
50 *3440:A0 *681:58 7.77652e-05
51 *3451:B *3475:A 0.000137931
52 *3451:B *681:58 1.02504e-05
53 *3457:A1 *681:58 4.16383e-05
54 *3460:A0 *681:44 6.74815e-05
55 *3460:A1 *681:44 1.07753e-05
56 *3464:A0 *681:44 5.28157e-05
57 *3481:A1 *3475:A 0.000713482
58 *3481:A2 *3475:A 0.000171113
59 *3481:B2 *3475:A 3.22745e-05
60 *3481:B2 *681:58 5.84171e-05
61 *3517:C *681:44 1.32552e-05
62 *3594:A *3418:S 7.86097e-05
63 *3594:A *3436:S 4.22135e-06
64 *3727:S *3418:S 0
65 *3730:A *3428:S 0.000225719
66 *3730:A *681:124 0.00014589
67 *3754:S *681:44 0.000133667
68 *3802:D *3418:S 0
69 *3804:D *3475:A 0.000194664
70 *3807:CLK *3475:A 2.49484e-05
71 *3877:CLK *681:44 0.000162911
72 *3877:D *681:44 7.01199e-06
73 *3954:A *681:44 0.00010772
74 *3997:A *3436:S 8.37905e-05
75 *169:10 *681:22 5.57914e-05
76 *173:8 *681:22 2.59355e-05
77 *173:60 *681:22 0.000423724
78 *173:71 *681:22 0.000172672
79 *174:10 *681:22 7.35817e-05
80 *180:20 *681:22 4.69377e-05
81 *352:50 *681:44 0.000469069
82 *352:50 *681:58 9.60939e-05
83 *363:12 *3436:S 2.85321e-05
84 *363:12 *3475:A 0
85 *402:14 *681:58 0
86 *413:20 *681:44 4.10843e-05
87 *413:85 *3428:S 0.000269378
88 *461:26 *681:58 0.000186669
89 *461:88 *3418:S 3.41848e-05
90 *461:98 *3418:S 0.000713273
91 *544:22 *681:44 0.000151658
92 *544:32 *681:44 1.94945e-05
93 *544:32 *681:58 0.000149091
94 *544:38 *681:58 0.000410206
95 *562:347 *681:44 0.000159289
96 *587:42 *3428:S 0
97 *610:12 *3475:A 1.81805e-05
98 *618:47 *3451:A 2.89114e-05
99 *630:14 *3428:S 0.00014592
100 *642:45 *681:22 7.48356e-05
101 *652:20 *3475:A 3.46272e-05
102 *675:10 *681:116 0.000487726
*RES
1 *4017:X *681:10 17.1036 
2 *681:10 *681:22 33.4464 
3 *681:22 *681:44 48.286 
4 *681:44 *681:58 43.5893 
5 *681:58 *3451:A 14.3357 
6 *681:58 *3475:A 28.8 
7 *681:44 *3431:A1 9.3 
8 *681:22 *3223:A 9.3 
9 *681:10 *3222:C 14.3357 
10 *4017:X *681:116 33.0688 
11 *681:116 *681:124 13.1374 
12 *681:124 *3436:S 14.9161 
13 *681:124 *3418:S 27.8982 
14 *681:116 *3428:S 22.1839 
*END

*D_NET *682 0.000183593
*CONN
*I *3895:D I *D sky130_fd_sc_hd__dfrtp_2
*I *4071:X O *D sky130_fd_sc_hd__clkdlybuf4s25_1
*CAP
1 *3895:D 9.17963e-05
2 *4071:X 9.17963e-05
3 *3894:D *3895:D 0
*RES
1 *4071:X *3895:D 29.2429 
*END

*D_NET *683 0.0176286
*CONN
*I *3468:S I *D sky130_fd_sc_hd__mux2_2
*I *3256:B1 I *D sky130_fd_sc_hd__a311o_2
*I *3471:A1 I *D sky130_fd_sc_hd__o21a_2
*I *3460:S I *D sky130_fd_sc_hd__mux2_2
*I *3444:S I *D sky130_fd_sc_hd__mux2_2
*I *3229:B I *D sky130_fd_sc_hd__nand4_4
*I *4018:X O *D sky130_fd_sc_hd__clkdlybuf4s25_1
*CAP
1 *3468:S 0.0015667
2 *3256:B1 0
3 *3471:A1 5.89503e-05
4 *3460:S 0.000979506
5 *3444:S 0.000160959
6 *3229:B 0.000327325
7 *4018:X 0.000126362
8 *683:59 0.00254963
9 *683:44 0.00198289
10 *683:38 0.000984689
11 *683:30 0.0024416
12 *3229:B *3229:A 5.23822e-05
13 *3229:B *687:12 4.66111e-05
14 *3229:B *687:24 2.64325e-05
15 *3468:S *715:25 3.48457e-05
16 *3468:S *726:12 0
17 *683:30 *3228:C 1.35465e-05
18 *683:30 *687:24 5.50052e-05
19 *683:30 *715:12 8.9477e-05
20 *683:30 *729:20 0.000111082
21 *683:38 *715:29 0
22 *683:38 *726:25 0.000321803
23 *683:44 *3224:B 0.000200406
24 *683:44 *697:19 0.000137224
25 *683:44 *715:29 0
26 *683:44 *726:25 0.000123227
27 *683:59 *726:25 0.000184433
28 *683:59 *727:10 0.00107625
29 *3221:B *683:38 0.0001537
30 *3228:A_N *3468:S 8.6229e-06
31 *3228:A_N *683:38 0.000451761
32 *3229:D *683:30 2.85321e-05
33 *3229:D *683:38 9.86486e-06
34 *3250:A *3468:S 0.00015134
35 *3250:B *3468:S 0
36 *3256:A1 *683:38 0.000137931
37 *3256:A1 *683:44 1.02504e-05
38 *3257:B1 *683:44 0
39 *3258:A *3444:S 6.05161e-06
40 *3258:A *683:44 5.33433e-05
41 *3258:B *683:44 0.00015304
42 *3468:A0 *3468:S 7.37452e-05
43 *3468:A1 *3468:S 4.23644e-06
44 *3471:A2 *3471:A1 2.01345e-05
45 *3471:B1 *3471:A1 3.99614e-06
46 *3472:A1 *3460:S 0
47 *3553:A *683:59 0.000100947
48 *3571:A *3471:A1 4.43256e-05
49 *3739:S *3468:S 5.33433e-05
50 *3740:A *3468:S 5.13406e-05
51 *3877:CLK *3460:S 0.000320474
52 *3941:CLK *3229:B 0.000139338
53 *3941:CLK *683:30 1.62025e-05
54 *4049:A *683:59 1.09611e-05
55 *173:10 *683:59 0.000496863
56 *177:6 *683:38 1.35553e-05
57 *177:10 *3468:S 0.000384899
58 *202:78 *3471:A1 1.94945e-05
59 *284:10 *3229:B 3.06038e-05
60 *352:34 *3471:A1 9.56592e-05
61 *352:44 *3460:S 0
62 *373:14 *683:59 4.84667e-05
63 *413:20 *3460:S 0
64 *432:20 *683:59 0
65 *442:14 *683:59 0
66 *461:18 *3460:S 0.000392661
67 *461:18 *683:59 0.000164818
68 *562:302 *683:59 8.97706e-05
69 *632:25 *683:59 0.000236943
70 *675:10 *3468:S 0
*RES
1 *4018:X *3229:B 31.0286 
2 *3229:B *683:30 13.675 
3 *683:30 *683:38 20.375 
4 *683:38 *683:44 11.9643 
5 *683:44 *3444:S 11.4786 
6 *683:44 *683:59 28.7695 
7 *683:59 *3460:S 24.4949 
8 *683:59 *3471:A1 18.9912 
9 *683:38 *3256:B1 13.8 
10 *683:30 *3468:S 43.1393 
*END

*D_NET *684 0.0218202
*CONN
*I *3419:S1 I *D sky130_fd_sc_hd__mux4_2
*I *3420:S1 I *D sky130_fd_sc_hd__mux4_2
*I *3437:S1 I *D sky130_fd_sc_hd__mux4_2
*I *3454:S1 I *D sky130_fd_sc_hd__mux4_2
*I *3455:S1 I *D sky130_fd_sc_hd__mux4_2
*I *3438:S1 I *D sky130_fd_sc_hd__mux4_2
*I *3479:S1 I *D sky130_fd_sc_hd__mux4_2
*I *3429:S1 I *D sky130_fd_sc_hd__mux4_2
*I *4019:X O *D sky130_fd_sc_hd__clkdlybuf4s25_1
*CAP
1 *3419:S1 0.000112506
2 *3420:S1 0.000220524
3 *3437:S1 5.59544e-05
4 *3454:S1 0.000327138
5 *3455:S1 0.000143965
6 *3438:S1 0.000253217
7 *3479:S1 0.000256281
8 *3429:S1 0.000103085
9 *4019:X 5.3688e-05
10 *684:71 0.00196582
11 *684:50 0.00214547
12 *684:48 0.000933055
13 *684:31 0.00133726
14 *684:27 0.00213209
15 *684:21 0.0026265
16 *684:8 0.00136061
17 *3420:S1 *3420:A0 1.24368e-05
18 *3420:S1 *3420:A1 9.71683e-05
19 *3429:S1 *3711:A1 1.02504e-05
20 *3429:S1 *845:10 0.00015304
21 *3437:S1 *3437:A3 2.89016e-05
22 *3454:S1 *3454:A2 7.83587e-05
23 *3454:S1 *3454:A3 0.000312215
24 *3454:S1 *3454:S0 4.85631e-05
25 *3454:S1 *3455:S0 0.000624938
26 *3454:S1 *3700:A0 0.000247778
27 *3454:S1 *725:39 7.07908e-05
28 *3454:S1 *725:59 3.65544e-05
29 *3455:S1 *3455:S0 0.000290264
30 *3455:S1 *3648:A0 8.91822e-05
31 *3455:S1 *725:39 3.84291e-05
32 *3455:S1 *816:10 4.46186e-06
33 *3479:S1 *3479:A0 8.60521e-05
34 *3479:S1 *3479:A1 9.60939e-05
35 *3479:S1 *719:68 0.000224161
36 *684:27 *3420:S0 3.73056e-05
37 *684:31 *3479:S0 0
38 *684:48 *3706:A0 3.31535e-05
39 *684:48 *719:68 0.000357054
40 *3422:A0 *684:21 8.53105e-05
41 *3422:A0 *684:27 9.77971e-05
42 *3422:A1 *684:27 0.000139907
43 *3422:S *684:27 1.56e-05
44 *3424:A1 *684:27 0.000178667
45 *3424:S *684:27 2.37742e-05
46 *3439:A1 *3438:S1 0
47 *3439:A1 *684:50 0
48 *3441:A *684:27 0.000228558
49 *3480:A1 *684:31 0.000438299
50 *3485:A *684:27 0
51 *3485:A *684:31 0
52 *3611:A *3438:S1 0.00020042
53 *3644:S *3438:S1 0
54 *3663:A *684:50 0.000128154
55 *3675:A1 *684:21 0.000358678
56 *3675:S *3429:S1 8.27217e-05
57 *3675:S *684:21 0.000470985
58 *3684:A *3454:S1 5.80706e-06
59 *3692:A1 *684:27 0.000130968
60 *3692:S *3419:S1 3.11088e-05
61 *3706:S *684:48 0.000375895
62 *3706:S *684:50 0.000103041
63 *3707:A *684:31 0
64 *3707:A *684:48 0
65 *3713:A0 *684:48 1.58559e-05
66 *3714:A *684:48 0.000168419
67 *3714:A *684:50 0.000117144
68 *3760:D *684:27 0.000273757
69 *3760:D *684:31 0.000106542
70 *3842:D *684:50 0.000341788
71 *3849:D *3429:S1 6.49509e-05
72 *3849:D *684:8 3.25078e-05
73 *3852:D *3454:S1 3.22142e-05
74 *3856:CLK *684:27 0
75 *3863:D *684:31 0.000201044
76 *3865:D *684:21 1.64343e-05
77 *516:57 *684:50 5.41054e-05
78 *562:75 *3419:S1 0.000148851
79 *610:45 *3419:S1 0.000146554
80 *621:18 *684:50 0
81 *621:22 *3438:S1 0
82 *621:22 *684:50 0
83 *633:45 *3429:S1 0
84 *633:45 *684:8 0
*RES
1 *4019:X *684:8 14.8357 
2 *684:8 *3429:S1 17.2643 
3 *684:8 *684:21 21.0536 
4 *684:21 *684:27 26.0536 
5 *684:27 *684:31 18.8929 
6 *684:31 *3479:S1 14.9071 
7 *684:31 *684:48 17.75 
8 *684:48 *684:50 10.75 
9 *684:50 *3438:S1 18.7643 
10 *684:50 *684:71 25.9643 
11 *684:71 *3455:S1 17.5679 
12 *684:71 *3454:S1 25.2286 
13 *684:48 *3437:S1 14.7464 
14 *684:27 *3420:S1 17.6393 
15 *684:21 *3419:S1 22.3 
*END

*D_NET *685 0.0274405
*CONN
*I *4019:A I *D sky130_fd_sc_hd__clkdlybuf4s25_1
*I *3469:S1 I *D sky130_fd_sc_hd__mux4_2
*I *3445:S1 I *D sky130_fd_sc_hd__mux4_2
*I *3446:S1 I *D sky130_fd_sc_hd__mux4_2
*I *3462:S1 I *D sky130_fd_sc_hd__mux4_2
*I *3461:S1 I *D sky130_fd_sc_hd__mux4_2
*I *3430:S1 I *D sky130_fd_sc_hd__mux4_2
*I *3478:S1 I *D sky130_fd_sc_hd__mux4_2
*I *4020:X O *D sky130_fd_sc_hd__clkdlybuf4s25_1
*CAP
1 *4019:A 0.000440361
2 *3469:S1 9.4179e-05
3 *3445:S1 0.000471681
4 *3446:S1 0.000393276
5 *3462:S1 0.00057628
6 *3461:S1 0
7 *3430:S1 0.00022195
8 *3478:S1 0.00141065
9 *4020:X 0.000708454
10 *685:79 0.00161771
11 *685:73 0.00138657
12 *685:34 0.00282374
13 *685:24 0.00164651
14 *685:18 0.00173603
15 *685:10 0.00137619
16 *3430:S1 *3430:A2 4.66203e-05
17 *3430:S1 *3642:A0 2.286e-05
18 *3445:S1 *3445:A2 0.000139491
19 *3445:S1 *3445:A3 0.000113994
20 *3445:S1 *3445:S0 0.00052763
21 *3446:S1 *3446:A2 0.000180202
22 *3446:S1 *3446:A3 5.66971e-05
23 *3446:S1 *3446:S0 0.000484482
24 *3446:S1 *3629:A0 0.000185408
25 *3462:S1 *3462:A1 5.71472e-05
26 *3462:S1 *3462:A3 9.99853e-05
27 *3462:S1 *3462:S0 8.79458e-05
28 *3469:S1 *3469:A1 5.33005e-05
29 *3478:S1 *3625:A0 0.000192489
30 *3478:S1 *3672:A1 0.000397023
31 *3478:S1 *3723:A1 5.33882e-05
32 *3478:S1 *719:82 0.000443603
33 *685:10 *3469:S0 5.52911e-05
34 *685:18 *3469:A1 0.000197378
35 *685:18 *3469:S0 1.12578e-05
36 *685:18 *3470:A2 0.000145584
37 *685:18 *3652:A0 7.36267e-05
38 *685:18 *721:64 0
39 *685:18 *818:8 7.79781e-06
40 *685:18 *834:10 0.000144139
41 *685:24 *3461:A1 5.49995e-05
42 *685:24 *3461:S0 9.0557e-05
43 *685:34 *3461:A3 0.000186817
44 *3432:A1 *4019:A 0.00151815
45 *3432:A1 *685:10 1.21289e-05
46 *3463:A1 *3462:S1 3.49086e-05
47 *3463:S *685:18 5.49657e-05
48 *3609:A *3430:S1 0.000340059
49 *3625:A1 *3478:S1 9.90367e-05
50 *3635:S *685:18 0.00021796
51 *3636:A *685:34 0
52 *3646:S *685:79 0.000114838
53 *3647:A *685:79 0.000120636
54 *3716:A *685:73 9.58632e-05
55 *3721:S *4019:A 0.00014285
56 *3721:S *685:10 0.000134726
57 *3721:S *685:18 5.07263e-06
58 *3827:CLK *685:79 0
59 *3827:D *3446:S1 2.53112e-06
60 *3835:CLK *3462:S1 1.32293e-05
61 *3835:D *3462:S1 7.88091e-05
62 *3859:D *685:79 0.000150618
63 *3867:CLK *3445:S1 2.97137e-05
64 *3867:D *3445:S1 5.92278e-05
65 *3869:D *685:34 0.00021962
66 *3980:A *685:73 0.000171105
67 *3981:A *685:73 4.97876e-05
68 *3981:A *685:79 0.000182619
69 *4110:A *3462:S1 0.000157962
70 *350:57 *3478:S1 0
71 *352:44 *685:10 5.52238e-05
72 *488:65 *685:73 0
73 *488:65 *685:79 0.000177951
74 *507:46 *3430:S1 6.1684e-05
75 *507:65 *3478:S1 0.000144803
76 *525:29 *685:18 4.64488e-06
77 *544:32 *4019:A 0.000657232
78 *582:10 *3430:S1 0.000363238
79 *598:14 *685:79 5.74562e-05
80 *665:12 *685:18 0
81 *665:14 *3478:S1 2.83425e-05
82 *665:14 *685:34 0.000344089
83 *665:34 *3478:S1 8.90464e-05
84 *672:24 *3446:S1 0.000207514
85 *672:24 *685:79 0.000428444
86 *674:8 *685:10 0.00025153
87 *674:8 *685:18 0.00154964
*RES
1 *4020:X *685:10 20.9429 
2 *685:10 *685:18 32.3036 
3 *685:18 *685:24 7.66071 
4 *685:24 *685:34 28.6607 
5 *685:34 *3478:S1 38.2464 
6 *685:34 *3430:S1 25.1571 
7 *685:24 *3461:S1 9.3 
8 *685:18 *685:73 9.53571 
9 *685:73 *685:79 15.9196 
10 *685:79 *3462:S1 25.5768 
11 *685:79 *3446:S1 23.6125 
12 *685:73 *3445:S1 24.7464 
13 *685:10 *3469:S1 15.1571 
14 *4020:X *4019:A 33.1 
*END

*D_NET *686 0.0256556
*CONN
*I *3427:S1 I *D sky130_fd_sc_hd__mux4_2
*I *3417:S1 I *D sky130_fd_sc_hd__mux4_2
*I *3416:S1 I *D sky130_fd_sc_hd__mux4_2
*I *3426:S1 I *D sky130_fd_sc_hd__mux4_2
*I *3474:S1 I *D sky130_fd_sc_hd__mux4_2
*I *3452:S1 I *D sky130_fd_sc_hd__mux4_2
*I *3450:S1 I *D sky130_fd_sc_hd__mux4_2
*I *3476:S1 I *D sky130_fd_sc_hd__mux4_2
*I *4021:X O *D sky130_fd_sc_hd__clkdlybuf4s25_1
*CAP
1 *3427:S1 0.000329239
2 *3417:S1 0
3 *3416:S1 0.000956689
4 *3426:S1 0
5 *3474:S1 0.00118445
6 *3452:S1 9.64742e-05
7 *3450:S1 0.0010429
8 *3476:S1 0
9 *4021:X 0.000434291
10 *686:122 0.00252915
11 *686:102 0.00206176
12 *686:35 0.00184747
13 *686:33 0.00204168
14 *686:22 0.00171143
15 *686:10 0.00183652
16 *3416:S1 *3417:A2 0.000226513
17 *3416:S1 *3417:A3 5.71472e-05
18 *3416:S1 *756:12 0.000100823
19 *3427:S1 *3426:S0 0
20 *3427:S1 *3427:A1 5.33005e-05
21 *3427:S1 *3591:A1 9.55e-05
22 *3427:S1 *4077:A 0
23 *3427:S1 *773:10 9.91086e-05
24 *3450:S1 *3450:A1 0.000139907
25 *3450:S1 *3452:A2 0
26 *3450:S1 *3562:A0 0.000222034
27 *3450:S1 *3597:A1 0
28 *3474:S1 *3474:A0 0.000356028
29 *3474:S1 *3474:S0 0.000296034
30 *3474:S1 *3603:A0 8.42609e-05
31 *3474:S1 *720:40 0.000404286
32 *3474:S1 *720:81 1.38737e-05
33 *686:10 *3426:A1 5.54817e-06
34 *686:10 *3426:S0 0.000503257
35 *686:10 *757:10 0.00015302
36 *686:22 *3426:A1 0.000206425
37 *686:35 *3452:A2 0
38 *686:35 *3562:A0 4.13122e-06
39 *686:35 *776:8 7.13161e-05
40 *686:122 *3417:A1 1.32552e-05
41 *3418:A1 *3416:S1 5.33005e-05
42 *3418:A1 *686:122 0.00015304
43 *3451:A *3450:S1 2.89114e-05
44 *3536:A1 *686:122 9.35794e-06
45 *3536:S *3427:S1 0.000136951
46 *3537:A *686:122 0.000202365
47 *3539:A *3427:S1 0
48 *3544:A1 *686:35 9.9129e-05
49 *3554:S *686:122 0.000129051
50 *3555:A *686:122 0.000141734
51 *3562:A1 *3450:S1 0.000237842
52 *3589:S *686:122 7.79781e-06
53 *3592:A *686:122 7.6644e-05
54 *3597:S *3450:S1 7.15905e-06
55 *3598:A *3450:S1 0.000521413
56 *3603:S *3474:S1 0.000134531
57 *3604:A *3474:S1 9.5929e-05
58 *3747:A *686:10 3.06406e-05
59 *3784:D *686:122 2.94004e-05
60 *3791:CLK *3474:S1 2.84109e-05
61 *3791:CLK *686:35 0
62 *3791:D *3474:S1 1.64343e-05
63 *3791:D *686:35 5.52646e-05
64 *3793:CLK *3427:S1 0
65 *3793:CLK *686:122 4.16114e-05
66 *3793:D *3427:S1 1.18064e-05
67 *3799:CLK *686:22 7.36373e-05
68 *3799:CLK *686:33 0
69 *3799:D *686:22 0
70 *3800:D *3416:S1 1.76204e-05
71 *3801:D *686:122 5.33091e-06
72 *3807:D *3474:S1 2.16401e-05
73 *3971:A *686:10 1.41665e-05
74 *3992:A *3450:S1 2.59355e-05
75 *4013:A *686:22 0
76 *356:14 *686:10 0.00015664
77 *356:14 *686:22 0.000438688
78 *452:37 *686:22 0.00152962
79 *461:88 *686:33 0.000109434
80 *461:88 *686:35 5.54655e-05
81 *544:61 *3450:S1 0.000176234
82 *584:12 *3416:S1 0.000139077
83 *584:14 *3416:S1 0.000136765
84 *584:16 *3416:S1 0.00018632
85 *585:18 *686:122 9.45042e-05
86 *585:38 *686:122 0.000173797
87 *611:16 *686:33 7.37062e-05
88 *618:25 *3450:S1 0.000177941
89 *618:47 *3450:S1 0.000259491
90 *624:14 *686:122 3.80904e-05
91 *624:42 *3427:S1 0.000126439
92 *628:20 *3416:S1 5.33786e-05
93 *630:14 *686:22 0
94 *662:46 *3474:S1 6.57032e-05
95 *666:49 *686:22 0
96 *666:49 *686:33 2.30116e-06
97 *666:49 *686:35 7.71338e-05
*RES
1 *4021:X *686:10 21.8536 
2 *686:10 *686:22 42.1071 
3 *686:22 *3476:S1 9.3 
4 *686:22 *686:33 7.5 
5 *686:33 *686:35 13.1786 
6 *686:35 *3450:S1 46.1036 
7 *686:35 *3452:S1 15.1571 
8 *686:33 *3474:S1 36.2464 
9 *686:10 *3426:S1 13.8 
10 *4021:X *686:102 11.0679 
11 *686:102 *686:122 42.4821 
12 *686:122 *3416:S1 33.4607 
13 *686:122 *3417:S1 9.3 
14 *686:102 *3427:S1 25.8536 
*END

*D_NET *687 0.0175629
*CONN
*I *3229:A I *D sky130_fd_sc_hd__nand4_4
*I *3218:A I *D sky130_fd_sc_hd__inv_2
*I *3224:C I *D sky130_fd_sc_hd__nand4b_2
*I *3256:C1 I *D sky130_fd_sc_hd__a311o_2
*I *3217:B I *D sky130_fd_sc_hd__nand2_2
*I *3442:S1 I *D sky130_fd_sc_hd__mux4_2
*I *3459:S1 I *D sky130_fd_sc_hd__mux4_2
*I *3458:S1 I *D sky130_fd_sc_hd__mux4_2
*I *4022:X O *D sky130_fd_sc_hd__clkdlybuf4s25_1
*CAP
1 *3229:A 1.97154e-05
2 *3218:A 0
3 *3224:C 0.000128503
4 *3256:C1 1.2683e-05
5 *3217:B 2.51224e-05
6 *3442:S1 0
7 *3459:S1 0.00106989
8 *3458:S1 0.000257812
9 *4022:X 0.000613707
10 *687:78 0.00219216
11 *687:54 0.00186882
12 *687:46 0.00133778
13 *687:32 0.000417592
14 *687:30 0.000329238
15 *687:24 0.000742175
16 *687:12 0.00127148
17 *3217:B *697:46 2.07878e-05
18 *3224:C *3224:D 2.6949e-05
19 *3229:A *729:20 4.77002e-05
20 *3256:C1 *3256:A3 0
21 *3256:C1 *697:8 3.99614e-06
22 *3458:S1 *3754:A0 0.000141734
23 *3458:S1 *865:12 5.65955e-05
24 *3459:S1 *3459:A0 5.60962e-05
25 *3459:S1 *3459:A1 0.000156371
26 *3459:S1 *724:115 0
27 *687:12 *3361:A1 0.000126446
28 *687:12 *4017:A 7.50739e-05
29 *687:12 *4022:A 9.71197e-05
30 *687:12 *688:31 3.47797e-05
31 *687:12 *715:12 0
32 *687:24 *3940:RESET_B 5.62306e-05
33 *687:24 *4017:A 0.000271799
34 *687:24 *4027:A 3.83628e-06
35 *687:24 *729:20 0.000226279
36 *687:24 *732:12 0.000413969
37 *687:30 *4078:A 4.08637e-05
38 *687:30 *697:8 0
39 *687:32 *4078:A 9.41642e-05
40 *687:32 *697:8 7.03295e-05
41 *687:32 *697:46 9.76491e-05
42 *687:46 *3256:A2 5.78692e-05
43 *687:46 *3256:A3 5.13251e-05
44 *687:46 *697:8 2.89114e-05
45 *687:46 *697:46 0.000248621
46 *687:54 *3442:A1 0
47 *687:54 *3442:A3 0.00072766
48 *687:54 *3524:A1 1.02504e-05
49 *687:54 *697:46 6.00052e-05
50 *687:78 *3517:A_N 0
51 *687:78 *3737:A1 5.52302e-05
52 *3229:B *3229:A 5.23822e-05
53 *3229:B *687:12 4.66111e-05
54 *3229:B *687:24 2.64325e-05
55 *3255:B *687:24 0
56 *3367:B1_N *687:12 0.000168236
57 *3444:A1 *687:54 0
58 *3460:A1 *3459:S1 0.000169168
59 *3517:C *687:78 2.14757e-05
60 *3565:A *3459:S1 0.000119738
61 *3571:A *687:78 2.89016e-05
62 *3738:A *687:78 0.000277118
63 *3750:S *687:54 0
64 *3875:CLK *687:54 6.97936e-06
65 *3875:CLK *687:78 0.000112133
66 *3875:D *687:78 0.000139337
67 *3877:D *687:78 5.52238e-05
68 *3941:CLK *687:24 2.80345e-05
69 *4003:A *687:54 9.8591e-05
70 *4052:A *3458:S1 4.72217e-05
71 *4052:A *3459:S1 0.000209954
72 *284:10 *687:12 0
73 *297:12 *687:12 4.36421e-05
74 *413:54 *687:78 4.79864e-05
75 *422:10 *687:78 0.000103871
76 *432:30 *3459:S1 9.73239e-06
77 *452:14 *687:78 0.00031221
78 *535:26 *687:78 8.95645e-05
79 *565:10 *687:12 0
80 *571:8 *687:54 0
81 *620:12 *687:54 0.000131306
82 *620:12 *687:78 5.01234e-05
83 *642:30 *3224:C 7.25296e-05
84 *642:45 *3224:C 0.000200406
85 *662:12 *687:78 0.000367906
86 *662:24 *687:78 0.000139907
87 *681:10 *687:24 7.92879e-05
88 *681:22 *3224:C 0.000412326
89 *681:22 *687:24 0.0001942
90 *683:30 *687:24 5.50052e-05
*RES
1 *4022:X *687:12 30.0143 
2 *687:12 *687:24 26.1607 
3 *687:24 *687:30 1.875 
4 *687:30 *687:32 2.58929 
5 *687:32 *687:46 7.42857 
6 *687:46 *687:54 22.3929 
7 *687:54 *687:78 37.8214 
8 *687:78 *3458:S1 17.7464 
9 *687:78 *3459:S1 32.9786 
10 *687:54 *3442:S1 13.8 
11 *687:46 *3217:B 10.2643 
12 *687:32 *3256:C1 9.72857 
13 *687:30 *3224:C 23.5857 
14 *687:24 *3218:A 9.3 
15 *687:12 *3229:A 10.2464 
*END

*D_NET *688 0.0241384
*CONN
*I *3443:S1 I *D sky130_fd_sc_hd__mux4_2
*I *3467:S1 I *D sky130_fd_sc_hd__mux4_2
*I *3466:S1 I *D sky130_fd_sc_hd__mux4_2
*I *4021:A I *D sky130_fd_sc_hd__clkdlybuf4s25_1
*I *3435:S1 I *D sky130_fd_sc_hd__mux4_2
*I *3434:S1 I *D sky130_fd_sc_hd__mux4_2
*I *4022:A I *D sky130_fd_sc_hd__clkdlybuf4s25_1
*I *4023:X O *D sky130_fd_sc_hd__clkdlybuf4s25_1
*CAP
1 *3443:S1 0.000984911
2 *3467:S1 0.000469723
3 *3466:S1 0
4 *4021:A 0
5 *3435:S1 8.49554e-05
6 *3434:S1 0.00134042
7 *4022:A 8.41321e-05
8 *4023:X 0.000619554
9 *688:85 0.00328417
10 *688:51 0.00345392
11 *688:37 0.00169965
12 *688:35 0.000833487
13 *688:31 0.00273308
14 *688:14 0.00219261
15 *3434:S1 *3434:A3 0.000290865
16 *3434:S1 *3434:S0 2.09722e-05
17 *3434:S1 *3748:A0 0.000211215
18 *3434:S1 *862:10 5.54817e-06
19 *3435:S1 *3435:A3 6.69357e-05
20 *3443:S1 *775:10 6.94441e-06
21 *3467:S1 *3466:S0 5.83304e-05
22 *3467:S1 *722:16 0
23 *4022:A *3361:A1 5.33005e-05
24 *688:31 *3466:A1 0
25 *688:31 *866:6 6.05161e-06
26 *688:35 *3466:A1 0.000242156
27 *688:35 *866:6 3.78423e-05
28 *688:51 *3466:S0 0.000100979
29 *688:51 *722:18 0.000242402
30 *688:85 *3426:S0 0.000437212
31 *688:85 *3434:S0 4.41329e-06
32 *688:85 *3435:A1 0.000103832
33 *688:85 *3435:A2 5.40745e-05
34 *688:85 *774:6 1.92905e-05
35 *3362:A *688:14 2.61337e-05
36 *3362:C *4022:A 0.00014285
37 *3362:C *688:14 0.000225616
38 *3372:A1 *688:14 0.000337251
39 *3436:A1 *3434:S1 0.000392295
40 *3468:A0 *3443:S1 1.69115e-05
41 *3468:A0 *688:51 6.05161e-06
42 *3468:A1 *3443:S1 5.20383e-05
43 *3473:A2 *688:51 5.52302e-05
44 *3531:A *688:51 3.4879e-05
45 *3542:A1 *3443:S1 0.000224883
46 *3543:A *3443:S1 0.000159656
47 *3601:S *3467:S1 0
48 *3601:S *688:51 0.000104246
49 *3756:S *3443:S1 2.06178e-05
50 *3777:CLK *688:85 9.05499e-05
51 *3777:D *688:85 6.44513e-05
52 *3782:D *688:51 8.80958e-06
53 *3790:CLK *3467:S1 0
54 *3794:CLK *688:85 5.49544e-05
55 *3794:D *688:85 0.000140921
56 *3878:D *3443:S1 0
57 *3886:CLK *688:31 7.44399e-05
58 *3940:CLK *688:14 3.32737e-05
59 *3971:A *688:85 0.000248486
60 *3972:A *688:85 0.000187012
61 *3997:A *3434:S1 0.000159029
62 *280:10 *688:14 2.49484e-05
63 *280:21 *688:14 9.62734e-05
64 *280:29 *688:14 0.000338389
65 *284:10 *688:14 8.0089e-05
66 *284:21 *688:14 9.01334e-05
67 *284:34 *688:14 3.17163e-05
68 *284:43 *688:14 9.24299e-05
69 *442:37 *3443:S1 0
70 *442:37 *3467:S1 0
71 *461:98 *688:85 0
72 *565:70 *688:14 0.000281455
73 *565:72 *688:14 9.18193e-05
74 *565:74 *688:14 0.000101915
75 *602:21 *3443:S1 0
76 *602:32 *3443:S1 0
77 *614:37 *3434:S1 9.15784e-06
78 *622:84 *3434:S1 1.9774e-05
79 *622:84 *3435:S1 2.36643e-05
80 *622:84 *688:85 1.39782e-05
81 *628:20 *3434:S1 9.34461e-05
82 *628:22 *3434:S1 1.37255e-05
83 *687:12 *4022:A 9.71197e-05
84 *687:12 *688:31 3.47797e-05
*RES
1 *4023:X *688:14 35.0321 
2 *688:14 *4022:A 11.8 
3 *688:14 *688:31 18.1429 
4 *688:31 *688:35 4.66071 
5 *688:35 *688:37 1.35714 
6 *688:37 *688:51 30.9286 
7 *688:51 *688:85 46 
8 *688:85 *3434:S1 43.2107 
9 *688:85 *3435:S1 15.175 
10 *688:51 *4021:A 9.3 
11 *688:37 *3466:S1 9.3 
12 *688:35 *3467:S1 26.8536 
13 *688:31 *3443:S1 36.3 
*END

*D_NET *689 0.0080584
*CONN
*I *3479:S0 I *D sky130_fd_sc_hd__mux4_2
*I *3420:S0 I *D sky130_fd_sc_hd__mux4_2
*I *4075:A I *D sky130_fd_sc_hd__buf_4
*I *3419:S0 I *D sky130_fd_sc_hd__mux4_2
*I *3429:S0 I *D sky130_fd_sc_hd__mux4_2
*I *4024:X O *D sky130_fd_sc_hd__clkdlybuf4s25_1
*CAP
1 *3479:S0 0.000543459
2 *3420:S0 0.0016487
3 *4075:A 0
4 *3419:S0 0.00139796
5 *3429:S0 0.000323605
6 *4024:X 9.8113e-05
7 *689:25 0.000518209
8 *3419:S0 *3419:A1 0.000132607
9 *3419:S0 *690:14 9.90367e-05
10 *3420:S0 *3419:A2 5.07786e-05
11 *3479:S0 *3479:A1 0.00031345
12 *3479:S0 *3498:A0 0.000145477
13 *3479:S0 *3620:A1 0.00010096
14 *3479:S0 *719:12 9.97648e-05
15 *689:25 *3429:A2 0.000206357
16 *3422:A0 *3419:S0 2.84026e-05
17 *3480:A1 *3479:S0 0
18 *3485:A *3420:S0 9.58508e-05
19 *3499:A *3479:S0 0
20 *3620:S *3479:S0 7.86072e-05
21 *3692:S *3419:S0 0.000456546
22 *3692:S *689:25 9.45241e-05
23 *3760:CLK *3420:S0 8.68131e-05
24 *3760:CLK *3479:S0 9.4736e-05
25 *3760:D *3420:S0 0.000529861
26 *3760:D *3479:S0 0
27 *3856:CLK *3420:S0 8.72419e-05
28 *3856:D *3420:S0 0
29 *623:10 *3429:S0 6.74815e-05
30 *628:22 *3420:S0 0
31 *628:22 *3479:S0 0.00036496
32 *631:28 *3420:S0 0.00012384
33 *631:28 *3479:S0 0.000105609
34 *633:45 *3429:S0 0.000128146
35 *636:17 *3479:S0 0
36 *684:27 *3420:S0 3.73056e-05
37 *684:31 *3479:S0 0
*RES
1 *4024:X *3429:S0 20.4786 
2 *3429:S0 *689:25 5.13393 
3 *689:25 *3419:S0 7.59821 
4 *689:25 *4075:A 9.3 
5 *3419:S0 *3420:S0 27.1518 
6 *3420:S0 *3479:S0 23.6964 
*END

*D_NET *690 0.0119481
*CONN
*I *3438:S0 I *D sky130_fd_sc_hd__mux4_2
*I *3437:S0 I *D sky130_fd_sc_hd__mux4_2
*I *3454:S0 I *D sky130_fd_sc_hd__mux4_2
*I *3455:S0 I *D sky130_fd_sc_hd__mux4_2
*I *4075:X O *D sky130_fd_sc_hd__buf_4
*CAP
1 *3438:S0 0.00120131
2 *3437:S0 0.000745992
3 *3454:S0 1.31406e-05
4 *3455:S0 0.00165834
5 *4075:X 0.00151834
6 *690:16 0.000548724
7 *690:14 0.00234289
8 *3437:S0 *3437:A0 0.000219808
9 *3438:S0 *808:12 2.11419e-05
10 *3455:S0 *3455:A0 0
11 *3455:S0 *816:10 1.51831e-05
12 *3419:S0 *690:14 9.90367e-05
13 *3439:A0 *3437:S0 2.89114e-05
14 *3454:S1 *3454:S0 4.85631e-05
15 *3454:S1 *3455:S0 0.000624938
16 *3455:S1 *3455:S0 0.000290264
17 *3615:A *3455:S0 0.000114111
18 *3626:A *690:14 0.000603816
19 *3643:A *690:14 0
20 *3667:A *3455:S0 8.06331e-05
21 *3675:A1 *690:14 0
22 *3684:A *3455:S0 1.00375e-05
23 *3684:A *690:14 1.50181e-05
24 *3684:A *690:16 6.16864e-05
25 *3692:S *690:14 9.84673e-05
26 *3718:A *3437:S0 9.99853e-05
27 *3719:S *3437:S0 5.33334e-05
28 *3719:S *690:14 6.17846e-05
29 *3852:CLK *690:14 0.00012249
30 *3852:D *3454:S0 2.51935e-05
31 *3852:D *690:14 3.56629e-05
32 *3852:D *690:16 6.5185e-05
33 *3857:D *690:14 5.86931e-05
34 *3974:A *3455:S0 0
35 *380:22 *3455:S0 0
36 *488:48 *690:14 0
37 *525:60 *690:14 0
38 *525:86 *690:14 0.000106027
39 *590:6 *3437:S0 3.82357e-05
40 *590:25 *3455:S0 0
41 *590:25 *690:16 0
42 *594:10 *3438:S0 1.01912e-05
43 *621:41 *3438:S0 2.23393e-05
44 *664:48 *3438:S0 0.00013751
45 *665:34 *690:14 0.000751129
*RES
1 *4075:X *690:14 47.2107 
2 *690:14 *690:16 2.25 
3 *690:16 *3455:S0 17.0714 
4 *690:16 *3454:S0 4.97321 
5 *690:14 *3437:S0 18.1161 
6 *3455:S0 *3438:S0 18.6546 
*END

*D_NET *691 0.00965065
*CONN
*I *3478:S0 I *D sky130_fd_sc_hd__mux4_2
*I *4076:A I *D sky130_fd_sc_hd__buf_4
*I *4024:A I *D sky130_fd_sc_hd__clkdlybuf4s25_1
*I *3430:S0 I *D sky130_fd_sc_hd__mux4_2
*I *4025:X O *D sky130_fd_sc_hd__clkdlybuf4s25_1
*CAP
1 *3478:S0 0.00112939
2 *4076:A 0
3 *4024:A 0.000163056
4 *3430:S0 0.00153552
5 *4025:X 9.39173e-05
6 *691:16 0.00119084
7 *691:12 0.000715563
8 *3430:S0 *3430:A0 0.000250201
9 *3430:S0 *3608:A0 0.000389861
10 *3430:S0 *3660:A0 0.000334969
11 *3478:S0 *3430:A2 0.000140667
12 *3478:S0 *3478:A0 9.93555e-05
13 *3478:S0 *3478:A1 0.000219379
14 *3478:S0 *3625:A0 2.8266e-06
15 *3478:S0 *3672:A1 2.80742e-05
16 *3478:S0 *813:10 0
17 *691:12 *3470:S1 0.000153054
18 *691:16 *3469:S0 5.52302e-05
19 *691:16 *3704:A0 9.60875e-05
20 *691:16 *3704:A1 5.52302e-05
21 *691:16 *821:10 0.000183726
22 *3431:A2 *3430:S0 0.000448984
23 *3431:A2 *4024:A 3.67452e-05
24 *3432:A2 *4024:A 0.000150618
25 *3472:A2 *691:12 8.16036e-05
26 *3480:A0 *3478:S0 0.00018172
27 *3609:A *3478:S0 0
28 *3625:A1 *3478:S0 0.00011095
29 *3642:S *3478:S0 5.80706e-06
30 *3817:CLK *3478:S0 0.000128154
31 *3825:CLK *3478:S0 3.5394e-05
32 *3825:D *3478:S0 0.000183945
33 *3841:D *691:16 0.000448035
34 *516:105 *691:12 8.36572e-05
35 *516:105 *691:16 0.000219696
36 *516:109 *691:16 0.000364897
37 *593:30 *3478:S0 3.80953e-06
38 *623:10 *3430:S0 3.78973e-05
39 *623:10 *4024:A 0.000103719
40 *623:16 *3430:S0 0.00017116
41 *623:28 *3478:S0 1.69115e-05
42 *633:45 *4024:A 0
*RES
1 *4025:X *691:12 21.1929 
2 *691:12 *691:16 19.8214 
3 *691:16 *3430:S0 18.8929 
4 *691:16 *4024:A 17.6036 
5 *691:12 *4076:A 9.3 
6 *3430:S0 *3478:S0 29.9196 
*END

*D_NET *692 0.0129992
*CONN
*I *3461:S0 I *D sky130_fd_sc_hd__mux4_2
*I *3445:S0 I *D sky130_fd_sc_hd__mux4_2
*I *3462:S0 I *D sky130_fd_sc_hd__mux4_2
*I *3446:S0 I *D sky130_fd_sc_hd__mux4_2
*I *3469:S0 I *D sky130_fd_sc_hd__mux4_2
*I *4076:X O *D sky130_fd_sc_hd__buf_4
*CAP
1 *3461:S0 4.2014e-05
2 *3445:S0 0.000870996
3 *3462:S0 4.80952e-05
4 *3446:S0 0.000674481
5 *3469:S0 0.000804907
6 *4076:X 7.61581e-05
7 *692:38 0.00116264
8 *692:32 0.00139791
9 *692:30 0.00085761
10 *3445:S0 *833:8 5.52302e-05
11 *3446:S0 *3462:A0 0.000124749
12 *3446:S0 *3494:A0 8.19254e-05
13 *3446:S0 *745:8 3.4689e-05
14 *3469:S0 *3469:A1 3.45899e-05
15 *692:30 *3635:A0 0.000178959
16 *692:30 *721:51 0.000536508
17 *692:30 *721:64 0.000372504
18 *692:30 *721:79 0.000232848
19 *692:32 *3461:A0 0.000165958
20 *692:38 *3461:A0 0.000222885
21 *692:38 *3462:A0 4.65934e-05
22 *3445:S1 *3445:S0 0.00052763
23 *3446:S1 *3446:S0 0.000484482
24 *3462:S1 *3462:S0 8.79458e-05
25 *3463:A0 *692:30 0.000127939
26 *3463:A1 *3446:S0 1.6806e-05
27 *3463:A1 *692:30 5.16892e-05
28 *3463:A1 *692:32 0.000125741
29 *3463:A1 *692:38 0.000642413
30 *3721:S *3469:S0 0.000172635
31 *3822:CLK *692:30 0.0002168
32 *3827:D *3446:S0 1.64343e-05
33 *3867:CLK *3445:S0 0.000136604
34 *3952:A *3445:S0 3.20883e-05
35 *350:26 *692:30 7.69776e-06
36 *387:8 *692:30 0.00132456
37 *516:105 *3469:S0 5.50052e-05
38 *562:248 *692:30 0
39 *597:8 *692:30 0.000163231
40 *597:12 *692:30 9.84016e-05
41 *597:12 *692:32 3.51224e-05
42 *634:31 *692:38 0.000441381
43 *685:10 *3469:S0 5.52911e-05
44 *685:18 *3469:S0 1.12578e-05
45 *685:24 *3461:S0 9.0557e-05
46 *691:16 *3469:S0 5.52302e-05
*RES
1 *4076:X *3469:S0 21.0857 
2 *3469:S0 *692:30 32.3571 
3 *692:30 *692:32 3.16071 
4 *692:32 *692:38 15.0536 
5 *692:38 *3446:S0 18.6339 
6 *692:38 *3462:S0 5.38393 
7 *692:32 *3445:S0 19.1161 
8 *692:30 *3461:S0 5.38393 
*END

*D_NET *693 0.000567875
*CONN
*I *3896:D I *D sky130_fd_sc_hd__dfrtp_2
*I *4072:X O *D sky130_fd_sc_hd__clkdlybuf4s25_1
*CAP
1 *3896:D 0.000283938
2 *4072:X 0.000283938
*RES
1 *4072:X *3896:D 31.4214 
*END

*D_NET *694 0.004679
*CONN
*I *3416:S0 I *D sky130_fd_sc_hd__mux4_2
*I *3417:S0 I *D sky130_fd_sc_hd__mux4_2
*I *3427:S0 I *D sky130_fd_sc_hd__mux4_2
*I *4077:A I *D sky130_fd_sc_hd__buf_4
*I *4026:X O *D sky130_fd_sc_hd__clkdlybuf4s25_1
*CAP
1 *3416:S0 0.000488354
2 *3417:S0 0.00108139
3 *3427:S0 0.000593035
4 *4077:A 0.000371144
5 *4026:X 9.01945e-05
6 *694:8 0.000461338
7 *3417:S0 *3417:A0 0.00034439
8 *4077:A *3426:S0 0.000345257
9 *4077:A *3556:A0 0
10 *4077:A *773:10 0.000139009
11 *694:8 *3556:A0 0
12 *3418:A0 *3416:S0 0.000288566
13 *3418:A1 *3417:S0 2.43562e-05
14 *3427:S1 *4077:A 0
15 *3536:S *3417:S0 0.000266835
16 *3539:A *4077:A 0
17 *3539:A *694:8 0
18 *3589:S *3416:S0 7.95581e-05
19 *3590:A *3416:S0 0.000105572
20 *584:12 *3416:S0 0
*RES
1 *4026:X *694:8 15.4429 
2 *694:8 *4077:A 20.9964 
3 *694:8 *3427:S0 4.5 
4 *3427:S0 *3417:S0 12.0714 
5 *3417:S0 *3416:S0 19.7232 
*END

*D_NET *695 0.014397
*CONN
*I *3450:S0 I *D sky130_fd_sc_hd__mux4_2
*I *3474:S0 I *D sky130_fd_sc_hd__mux4_2
*I *3452:S0 I *D sky130_fd_sc_hd__mux4_2
*I *3476:S0 I *D sky130_fd_sc_hd__mux4_2
*I *3426:S0 I *D sky130_fd_sc_hd__mux4_2
*I *4077:X O *D sky130_fd_sc_hd__buf_4
*CAP
1 *3450:S0 0.00062036
2 *3474:S0 0.00163167
3 *3452:S0 0.000815615
4 *3476:S0 0.00141636
5 *3426:S0 0.0019166
6 *4077:X 0.000611554
7 *695:44 0.00193824
8 *3450:S0 *3450:A2 2.51043e-05
9 *3450:S0 *867:8 0
10 *3452:S0 *3586:A1 9.97164e-05
11 *3452:S0 *3603:A1 2.16315e-05
12 *3452:S0 *792:8 5.09296e-05
13 *3474:S0 *720:36 3.92757e-05
14 *3476:S0 *3476:A0 4.8035e-05
15 *3476:S0 *3476:A1 9.23695e-05
16 *3476:S0 *3550:A0 4.55516e-05
17 *3476:S0 *4026:A 9.15842e-06
18 *3476:S0 *699:52 0.000146991
19 *3476:S0 *749:10 0.000107845
20 *695:44 *3476:A3 3.60109e-06
21 *695:44 *3586:A0 0
22 *695:44 *3586:A1 7.00963e-05
23 *695:44 *3603:A1 2.38651e-06
24 *695:44 *795:6 3.05522e-05
25 *3427:S1 *3426:S0 0
26 *3474:S1 *3474:S0 0.000296034
27 *3520:S *3476:S0 3.09123e-05
28 *3539:A *3426:S0 0.000128154
29 *3550:S *3476:S0 2.72967e-05
30 *3580:S *3474:S0 2.8138e-05
31 *3583:A *3476:S0 2.00751e-05
32 *3587:A *3474:S0 0
33 *3747:A *3426:S0 0
34 *3805:D *3476:S0 0.000267807
35 *3813:CLK *3476:S0 0
36 *3813:D *3476:S0 1.15797e-05
37 *3815:CLK *3474:S0 3.69047e-06
38 *3815:D *3474:S0 0.000231818
39 *3856:CLK *3450:S0 0.000100009
40 *3881:D *3476:S0 0.000401677
41 *3971:A *3426:S0 7.49566e-05
42 *3972:A *3426:S0 0.00012544
43 *3992:A *3450:S0 1.66373e-05
44 *4077:A *3426:S0 0.000345257
45 *356:14 *3476:S0 0
46 *360:14 *3476:S0 0.000151333
47 *363:12 *3474:S0 0
48 *544:61 *3450:S0 0
49 *562:106 *3452:S0 0.000493474
50 *613:10 *3450:S0 6.10606e-05
51 *624:42 *3426:S0 0
52 *628:22 *3450:S0 0.000598054
53 *631:28 *3450:S0 0.000108561
54 *648:12 *3450:S0 0
55 *662:40 *3474:S0 5.59013e-05
56 *662:46 *3474:S0 0.000135028
57 *686:10 *3426:S0 0.000503257
58 *688:85 *3426:S0 0.000437212
*RES
1 *4077:X *3426:S0 34.4964 
2 *3426:S0 *3476:S0 32.6339 
3 *3476:S0 *695:44 6.83036 
4 *695:44 *3452:S0 20.6518 
5 *695:44 *3474:S0 28.1875 
6 *3474:S0 *3450:S0 24.1696 
*END

*D_NET *696 0.00249369
*CONN
*I *3249:B1 I *D sky130_fd_sc_hd__a21oi_2
*I *3220:C I *D sky130_fd_sc_hd__nand4_2
*I *4078:A I *D sky130_fd_sc_hd__clkbuf_4
*I *4027:X O *D sky130_fd_sc_hd__clkdlybuf4s25_1
*CAP
1 *3249:B1 0
2 *3220:C 0.000138658
3 *4078:A 0.000163004
4 *4027:X 0.000173065
5 *696:10 0.000301661
6 *696:8 0.000173065
7 *3220:C *3220:D 5.52302e-05
8 *3220:C *3222:B 1.02821e-05
9 *3220:C *3222:D 5.33005e-05
10 *3220:C *4027:A 2.49484e-05
11 *3220:C *715:27 0.000137939
12 *4078:A *4027:A 5.80706e-06
13 *4078:A *715:27 3.34366e-05
14 *4078:A *715:29 0.000195555
15 *696:8 *4027:A 5.71472e-05
16 *3219:A *696:8 0
17 *3220:A *3220:C 0.000266479
18 *3222:A *3220:C 7.27536e-05
19 *3249:A1 *696:8 0
20 *192:8 *696:8 0.000158991
21 *642:45 *4078:A 0.000171375
22 *642:45 *696:8 5.33005e-05
23 *675:10 *3220:C 0.000100823
24 *681:22 *4078:A 1.18451e-05
25 *687:30 *4078:A 4.08637e-05
26 *687:32 *4078:A 9.41642e-05
*RES
1 *4027:X *696:8 13.1393 
2 *696:8 *696:10 4.5 
3 *696:10 *4078:A 18.0143 
4 *696:10 *3220:C 18.7643 
5 *696:8 *3249:B1 9.3 
*END

*D_NET *697 0.0130714
*CONN
*I *3458:S0 I *D sky130_fd_sc_hd__mux4_2
*I *3442:S0 I *D sky130_fd_sc_hd__mux4_2
*I *3459:S0 I *D sky130_fd_sc_hd__mux4_2
*I *3216:B I *D sky130_fd_sc_hd__nand3b_2
*I *3224:B I *D sky130_fd_sc_hd__nand4b_2
*I *3256:A2 I *D sky130_fd_sc_hd__a311o_2
*I *4078:X O *D sky130_fd_sc_hd__clkbuf_4
*CAP
1 *3458:S0 0.000689575
2 *3442:S0 0.000228596
3 *3459:S0 0.00162092
4 *3216:B 0
5 *3224:B 0.000278602
6 *3256:A2 4.38327e-05
7 *4078:X 0.00149006
8 *697:46 0.0025933
9 *697:19 0.000362263
10 *697:8 0.000184192
11 *3256:A2 *3256:A3 0.000137983
12 *3458:S0 *3458:A3 0.000116454
13 *3458:S0 *3582:A0 0
14 *3458:S0 *3599:A0 0
15 *3458:S0 *724:49 0
16 *3459:S0 *3459:A1 0.000391694
17 *697:8 *3256:A3 0.000172309
18 *697:19 *715:31 0
19 *3217:B *697:46 2.07878e-05
20 *3224:A_N *3224:B 0
21 *3256:C1 *697:8 3.99614e-06
22 *3257:B1 *3224:B 7.27028e-05
23 *3257:B1 *697:19 1.19309e-05
24 *3259:A *3224:B 3.67142e-05
25 *3565:A *3459:S0 9.90431e-05
26 *3779:CLK *3459:S0 0.000137558
27 *3779:D *3459:S0 1.32552e-05
28 *3787:CLK *3442:S0 8.15095e-05
29 *4003:A *697:46 6.76152e-05
30 *4013:A *3458:S0 0.00135487
31 *388:16 *3458:S0 0.000334425
32 *413:54 *3442:S0 0.000337049
33 *535:26 *3442:S0 0.000821176
34 *601:8 *3442:S0 0.000128146
35 *601:23 *3442:S0 0.0002452
36 *620:33 *3442:S0 2.14474e-05
37 *642:30 *3224:B 7.32173e-05
38 *683:44 *3224:B 0.000200406
39 *683:44 *697:19 0.000137224
40 *687:30 *697:8 0
41 *687:32 *697:8 7.03295e-05
42 *687:32 *697:46 9.76491e-05
43 *687:46 *3256:A2 5.78692e-05
44 *687:46 *697:8 2.89114e-05
45 *687:46 *697:46 0.000248621
46 *687:54 *697:46 6.00052e-05
*RES
1 *4078:X *697:8 11.4964 
2 *697:8 *3256:A2 10.6571 
3 *697:8 *697:19 6.44643 
4 *697:19 *3224:B 20.1929 
5 *697:19 *3216:B 13.8 
6 *4078:X *697:46 26.675 
7 *697:46 *3459:S0 13.6518 
8 *697:46 *3442:S0 19.4464 
9 *3459:S0 *3458:S0 28.5446 
*END

*D_NET *698 0.00727129
*CONN
*I *3467:S0 I *D sky130_fd_sc_hd__mux4_2
*I *3466:S0 I *D sky130_fd_sc_hd__mux4_2
*I *3228:B I *D sky130_fd_sc_hd__and3b_4
*I *3443:S0 I *D sky130_fd_sc_hd__mux4_2
*I *3222:B I *D sky130_fd_sc_hd__nand4_2
*I *4028:X O *D sky130_fd_sc_hd__clkdlybuf4s25_1
*CAP
1 *3467:S0 0.000268459
2 *3466:S0 0.000774421
3 *3228:B 0
4 *3443:S0 0.000904985
5 *3222:B 0.000506516
6 *4028:X 8.55163e-05
7 *698:10 0.00108026
8 *698:6 0.000260236
9 *3222:B *3222:D 7.29262e-05
10 *3222:B *726:25 0.000114852
11 *3222:B *727:10 0.000387395
12 *3443:S0 *699:34 9.21413e-05
13 *3443:S0 *726:12 9.41642e-05
14 *3443:S0 *726:25 1.24368e-05
15 *3466:S0 *722:16 0
16 *3466:S0 *791:10 0.000127939
17 *3466:S0 *858:10 0
18 *698:10 *726:12 0.00011148
19 *698:10 *727:10 9.10894e-05
20 *3220:A *3222:B 2.47724e-05
21 *3220:C *3222:B 1.02821e-05
22 *3222:A *3222:B 0.000311196
23 *3228:A_N *698:10 0
24 *3467:S1 *3466:S0 5.83304e-05
25 *3542:A1 *3443:S0 0.000480507
26 *3543:A *3443:S0 0.000102353
27 *3601:S *3466:S0 0
28 *3601:S *3467:S0 0.000306261
29 *3739:S *3466:S0 0.000365732
30 *3941:CLK *698:6 3.29172e-05
31 *26:20 *3467:S0 4.05012e-05
32 *413:75 *3466:S0 0.00015953
33 *535:26 *3466:S0 6.20706e-05
34 *620:42 *3466:S0 3.2923e-05
35 *620:70 *3466:S0 0.000198115
36 *688:51 *3466:S0 0.000100979
*RES
1 *4028:X *698:6 10.6571 
2 *698:6 *698:10 8.57143 
3 *698:10 *3222:B 24.9786 
4 *698:10 *3443:S0 13.6161 
5 *698:6 *3228:B 9.3 
6 *3443:S0 *3466:S0 23.6964 
7 *3466:S0 *3467:S0 16.1071 
*END

*D_NET *699 0.0190263
*CONN
*I *3434:S0 I *D sky130_fd_sc_hd__mux4_2
*I *4028:A I *D sky130_fd_sc_hd__clkdlybuf4s25_1
*I *4026:A I *D sky130_fd_sc_hd__clkdlybuf4s25_1
*I *3435:S0 I *D sky130_fd_sc_hd__mux4_2
*I *4027:A I *D sky130_fd_sc_hd__clkdlybuf4s25_1
*I *4029:X O *D sky130_fd_sc_hd__clkdlybuf4s25_1
*CAP
1 *3434:S0 0.000760505
2 *4028:A 2.37855e-05
3 *4026:A 0.000957449
4 *3435:S0 0.00143743
5 *4027:A 0.000463283
6 *4029:X 0.00120137
7 *699:52 0.00429539
8 *699:34 0.00342289
9 *3434:S0 *3434:A0 0.000358374
10 *3434:S0 *3435:A2 5.66943e-05
11 *3435:S0 *3520:A1 3.06035e-05
12 *3435:S0 *3540:A0 7.8195e-05
13 *3435:S0 *766:14 1.25454e-05
14 *4026:A *3503:A0 6.57032e-05
15 *4026:A *3538:A0 0.000457969
16 *4026:A *765:10 0.000147055
17 *4027:A *732:12 8.92761e-05
18 *699:34 *726:12 0.000149076
19 *699:34 *726:25 4.4545e-05
20 *699:52 *3729:A0 1.9774e-05
21 *3220:C *4027:A 2.49484e-05
22 *3434:S1 *3434:S0 2.09722e-05
23 *3436:A0 *3434:S0 0.000182891
24 *3443:S0 *699:34 9.21413e-05
25 *3476:S0 *4026:A 9.15842e-06
26 *3476:S0 *699:52 0.000146991
27 *3504:A *3435:S0 0.000139338
28 *3520:A0 *3435:S0 2.85321e-05
29 *3520:S *699:52 0.000112265
30 *3543:A *699:52 0.000226067
31 *3559:A *3434:S0 2.44887e-05
32 *3594:A *3434:S0 8.81397e-05
33 *3729:A1 *699:52 0.000415445
34 *3729:S *699:52 1.32056e-05
35 *3731:S *3434:S0 9.67754e-05
36 *3769:D *3435:S0 1.58163e-05
37 *3793:CLK *4026:A 8.96049e-05
38 *3810:D *3434:S0 7.80092e-05
39 *3873:D *699:52 0.000186094
40 *3881:D *4026:A 0.00015739
41 *3941:CLK *699:34 1.28171e-05
42 *3971:A *699:52 5.33005e-05
43 *3972:A *4026:A 0.000161468
44 *3997:A *3434:S0 2.0986e-05
45 *4078:A *4027:A 5.80706e-06
46 *192:8 *4027:A 5.52238e-05
47 *356:14 *4026:A 0.000306317
48 *363:12 *3434:S0 0.000316102
49 *413:85 *4026:A 8.43535e-06
50 *580:8 *4026:A 1.98839e-05
51 *587:36 *699:52 0.00018426
52 *587:42 *699:52 0.000160988
53 *588:42 *4026:A 6.44205e-05
54 *588:42 *699:52 1.58559e-05
55 *622:84 *3434:S0 0
56 *624:42 *4026:A 0.000126446
57 *630:14 *4026:A 0.000471637
58 *667:27 *699:34 0
59 *675:10 *4027:A 0.000448141
60 *681:10 *4027:A 0.000140368
61 *681:22 *4027:A 0.000168224
62 *687:24 *4027:A 3.83628e-06
63 *688:85 *3434:S0 4.41329e-06
64 *696:8 *4027:A 5.71472e-05
*RES
1 *4029:X *4027:A 37.225 
2 *4029:X *699:34 29.3 
3 *699:34 *699:52 49.7321 
4 *699:52 *3435:S0 16.0625 
5 *699:52 *4026:A 45.1036 
6 *699:34 *4028:A 9.72857 
7 *3435:S0 *3434:S0 26.7589 
*END

*D_NET *700 0.00925107
*CONN
*I *3743:C I *D sky130_fd_sc_hd__and4bb_2
*I *3656:A_N I *D sky130_fd_sc_hd__and3b_2
*I *3534:B I *D sky130_fd_sc_hd__and3_2
*I *3552:C I *D sky130_fd_sc_hd__and4b_2
*I *3500:C I *D sky130_fd_sc_hd__and4bb_2
*I *3517:B I *D sky130_fd_sc_hd__nand4b_1
*I *3570:C I *D sky130_fd_sc_hd__and4b_2
*I *3691:B_N I *D sky130_fd_sc_hd__and4bb_2
*I *4030:X O *D sky130_fd_sc_hd__clkdlybuf4s25_1
*CAP
1 *3743:C 0
2 *3656:A_N 0.00050353
3 *3534:B 0.000162289
4 *3552:C 0.000387813
5 *3500:C 1.76505e-05
6 *3517:B 0.000125877
7 *3570:C 0
8 *3691:B_N 0.000308005
9 *4030:X 0
10 *700:105 0.000773073
11 *700:40 0.000333701
12 *700:12 0.000326678
13 *700:10 0.000611045
14 *700:6 0.000600875
15 *700:4 0.000242695
16 *3500:C *707:91 1.98839e-05
17 *3517:B *3517:D 2.26424e-05
18 *3517:B *707:91 0.000117543
19 *3534:B *3725:A_N 3.6337e-05
20 *3552:C *3725:B 6.59497e-05
21 *3552:C *701:84 0.000127246
22 *3656:A_N *3605:A 0.00020455
23 *3656:A_N *3743:A_N 5.52238e-05
24 *3656:A_N *703:12 5.33005e-05
25 *3656:A_N *869:31 0.000373009
26 *3656:A_N *869:40 0.000136732
27 *3691:B_N *3691:D 9.41642e-05
28 *3691:B_N *703:98 8.00806e-05
29 *3691:B_N *703:107 7.10552e-05
30 *3691:B_N *707:74 8.902e-05
31 *700:12 *703:107 5.54183e-05
32 *700:40 *703:107 0.000525832
33 *700:105 *3552:B 2.2351e-05
34 *700:105 *3725:A_N 0.000122661
35 *700:105 *4033:A 1.24368e-05
36 *700:105 *701:8 0.000135028
37 *700:105 *703:6 2.12087e-05
38 *700:105 *703:12 3.97677e-05
39 *700:105 *703:61 0.000162429
40 *3500:D *3500:C 5.33005e-05
41 *3500:D *3517:B 8.46829e-05
42 *3517:C *3517:B 0.000351347
43 *3552:D *700:105 5.33005e-05
44 *3571:A *3517:B 1.41029e-05
45 *3766:CLK *3656:A_N 3.79104e-05
46 *3846:D *3691:B_N 1.32293e-05
47 *3915:CLK *3534:B 6.59074e-05
48 *3915:CLK *700:6 3.97677e-05
49 *3915:CLK *700:10 0.000184825
50 *4049:A *3691:B_N 2.49484e-05
51 *4080:A *3691:B_N 8.9047e-06
52 *202:65 *3691:B_N 0.000332255
53 *202:78 *3691:B_N 2.63844e-05
54 *202:78 *700:12 2.44286e-05
55 *202:78 *700:40 0.000264141
56 *352:34 *3552:C 0
57 *352:34 *700:10 5.23296e-05
58 *404:8 *3656:A_N 0.000103267
59 *404:14 *3656:A_N 5.83233e-05
60 *413:54 *3517:B 0.000102545
61 *507:30 *3656:A_N 2.02282e-05
62 *507:30 *3691:B_N 3.1559e-05
63 *516:105 *3691:B_N 9.8126e-05
64 *562:302 *3552:C 0
65 *600:10 *3656:A_N 7.21627e-05
66 *600:58 *3656:A_N 6.1125e-05
67 *681:44 *3517:B 3.48705e-05
*RES
1 *4030:X *700:4 9.3 
2 *700:4 *700:6 0.946429 
3 *700:6 *700:10 9.55357 
4 *700:10 *700:12 0.732143 
5 *700:12 *3691:B_N 23.3536 
6 *700:12 *3570:C 13.8 
7 *700:10 *700:40 11.3036 
8 *700:40 *3517:B 23.2464 
9 *700:40 *3500:C 9.83571 
10 *700:6 *3552:C 20.8536 
11 *700:4 *3534:B 20.6929 
12 *3552:C *700:105 24.3536 
13 *700:105 *3656:A_N 31.1036 
14 *700:105 *3743:C 9.3 
*END

*D_NET *701 0.00770895
*CONN
*I *3725:B I *D sky130_fd_sc_hd__and3b_2
*I *4030:A I *D sky130_fd_sc_hd__clkdlybuf4s25_1
*I *3674:B_N I *D sky130_fd_sc_hd__and4bb_2
*I *3483:B I *D sky130_fd_sc_hd__nor3b_4
*I *3708:A_N I *D sky130_fd_sc_hd__nand3b_2
*I *3605:C I *D sky130_fd_sc_hd__nor4b_4
*I *3622:C I *D sky130_fd_sc_hd__nor4b_4
*I *3639:B_N I *D sky130_fd_sc_hd__and4bb_2
*I *4031:X O *D sky130_fd_sc_hd__clkdlybuf4s25_1
*CAP
1 *3725:B 0.000146664
2 *4030:A 0.000171503
3 *3674:B_N 5.13568e-05
4 *3483:B 0
5 *3708:A_N 0.000230718
6 *3605:C 0
7 *3622:C 7.59307e-05
8 *3639:B_N 6.20939e-05
9 *4031:X 0.000148148
10 *701:84 0.000464063
11 *701:44 0.00033069
12 *701:20 0.000324844
13 *701:16 0.000529477
14 *701:12 0.000457134
15 *701:10 0.000423806
16 *701:8 0.000452045
17 *3639:B_N *3639:A_N 2.03842e-05
18 *3639:B_N *3639:D 1.18177e-05
19 *3674:B_N *3656:C 5.33005e-05
20 *3708:A_N *3238:A3 0.000181374
21 *3708:A_N *3708:C 5.99152e-05
22 *3708:A_N *705:32 0
23 *3725:B *3534:A 0.000143188
24 *3725:B *3725:A_N 9.77746e-05
25 *701:8 *703:61 1.21258e-05
26 *701:10 *3552:A_N 0
27 *701:10 *3656:C 2.27129e-05
28 *701:10 *703:12 9.97164e-05
29 *701:10 *705:78 1.12669e-05
30 *701:12 *3656:C 0.000365842
31 *701:12 *705:60 1.02504e-05
32 *701:12 *705:69 2.22137e-05
33 *701:12 *705:78 1.03904e-05
34 *701:12 *869:31 0
35 *701:12 *869:40 0
36 *701:16 *3605:A 0
37 *701:16 *705:60 0.000382573
38 *701:16 *869:31 0
39 *701:20 *3605:B 1.02132e-05
40 *701:20 *3639:A_N 7.18474e-05
41 *701:20 *705:36 2.39329e-05
42 *701:44 *705:36 5.52238e-05
43 *701:84 *3534:A 0.000148903
44 *701:84 *3552:A_N 0
45 *701:84 *3725:A_N 1.65228e-05
46 *3252:A1 *3708:A_N 0
47 *3552:C *3725:B 6.59497e-05
48 *3552:C *701:84 0.000127246
49 *3552:D *701:10 0.000185183
50 *3552:D *701:84 5.1588e-05
51 *3708:B *3708:A_N 0.0001927
52 *3766:CLK *3622:C 0.000242913
53 *3915:CLK *4030:A 0.000351985
54 *193:14 *3674:B_N 9.75171e-05
55 *193:18 *701:10 7.89362e-05
56 *352:34 *3725:B 0
57 *404:14 *3622:C 0.000245342
58 *470:10 *3639:B_N 8.99927e-05
59 *470:10 *701:20 9.60939e-05
60 *498:16 *3674:B_N 4.22431e-05
61 *507:12 *701:12 6.27272e-06
62 *544:16 *701:10 0
63 *562:302 *701:84 0
64 *700:105 *701:8 0.000135028
*RES
1 *4031:X *701:8 15.5679 
2 *701:8 *701:10 3.76786 
3 *701:10 *701:12 5.28571 
4 *701:12 *701:16 9.48214 
5 *701:16 *701:20 3.83929 
6 *701:20 *3639:B_N 10.8 
7 *701:20 *3622:C 21.4607 
8 *701:16 *701:44 1.76786 
9 *701:44 *3605:C 9.3 
10 *701:44 *3708:A_N 23.5857 
11 *701:12 *3483:B 13.8 
12 *701:10 *3674:B_N 15.1571 
13 *701:8 *701:84 3.16071 
14 *701:84 *4030:A 17.2107 
15 *701:84 *3725:B 16.6929 
*END

*D_NET *702 0.00789392
*CONN
*I *3244:B1 I *D sky130_fd_sc_hd__a31o_2
*I *4031:A I *D sky130_fd_sc_hd__clkdlybuf4s25_1
*I *3243:C I *D sky130_fd_sc_hd__nand4_2
*I *3266:A I *D sky130_fd_sc_hd__xnor2_2
*I *4032:X O *D sky130_fd_sc_hd__clkdlybuf4s25_1
*CAP
1 *3244:B1 0
2 *4031:A 0.00163346
3 *3243:C 0.000150777
4 *3266:A 6.8541e-05
5 *4032:X 0.000550474
6 *702:33 0.00183325
7 *702:27 0.000167911
8 *702:14 0.000737911
9 *3243:C *3243:B 5.49489e-05
10 *3243:C *3244:A1 2.30245e-05
11 *4031:A *3904:D 0.00010462
12 *4031:A *3924:D 7.77751e-05
13 *4031:A *3932:D 0.000170438
14 *4031:A *726:31 6.444e-05
15 *4031:A *903:8 2.59355e-05
16 *4031:A *908:8 7.52002e-06
17 *702:14 *3267:B 8.16995e-05
18 *702:27 *3244:A1 4.5632e-05
19 *702:33 *3244:A1 2.2816e-05
20 *3245:B *3243:C 0.000137561
21 *3245:B *702:27 0.000271233
22 *3245:B *702:33 9.58181e-05
23 *3246:A *4031:A 4.45458e-05
24 *3267:A *3266:A 3.02801e-05
25 *3267:A *702:14 0.000174073
26 *3412:B *3243:C 0.000143967
27 *188:12 *3243:C 0.00016774
28 *188:33 *4031:A 0.000188563
29 *188:33 *702:33 0.00010831
30 *189:8 *3266:A 6.14524e-05
31 *202:54 *3243:C 0.000137561
32 *202:54 *3266:A 0.000171335
33 *202:54 *702:14 8.02652e-05
34 *202:54 *702:27 1.35465e-05
35 *572:10 *3243:C 3.00989e-05
36 *572:10 *4031:A 0.000137098
37 *572:10 *702:33 5.33614e-05
38 *637:10 *3243:C 2.59355e-05
*RES
1 *4032:X *702:14 24.1214 
2 *702:14 *3266:A 16.05 
3 *702:14 *702:27 7.5 
4 *702:27 *702:33 6.17857 
5 *702:33 *3243:C 27.55 
6 *702:33 *4031:A 40.55 
7 *702:27 *3244:B1 9.3 
*END

*D_NET *703 0.0104095
*CONN
*I *3517:A_N I *D sky130_fd_sc_hd__nand4b_1
*I *3500:B_N I *D sky130_fd_sc_hd__and4bb_2
*I *3570:B I *D sky130_fd_sc_hd__and4b_2
*I *3534:A I *D sky130_fd_sc_hd__and3_2
*I *3552:B I *D sky130_fd_sc_hd__and4b_2
*I *3743:B_N I *D sky130_fd_sc_hd__and4bb_2
*I *3691:D I *D sky130_fd_sc_hd__and4bb_2
*I *3656:C I *D sky130_fd_sc_hd__and3b_2
*I *4033:X O *D sky130_fd_sc_hd__clkdlybuf4s25_1
*CAP
1 *3517:A_N 0.000200735
2 *3500:B_N 9.61292e-05
3 *3570:B 0
4 *3534:A 0.000243809
5 *3552:B 0.000381077
6 *3743:B_N 0
7 *3691:D 0.000507861
8 *3656:C 0.000492396
9 *4033:X 0
10 *703:107 0.000578998
11 *703:98 0.000622476
12 *703:61 0.00049702
13 *703:12 0.0011455
14 *703:6 0.000196952
15 *703:4 0.000264188
16 *3500:B_N *707:91 9.35114e-06
17 *3534:A *3725:A_N 0.000309457
18 *3534:A *726:31 1.04232e-05
19 *3552:B *726:31 0.000121199
20 *3656:C *705:60 0.000122417
21 *3656:C *705:69 0.000390801
22 *3656:C *707:33 0.0002032
23 *3656:C *869:20 3.17684e-05
24 *703:6 *4033:A 5.49489e-05
25 *703:61 *3725:A_N 3.83736e-05
26 *703:61 *4033:A 2.01732e-05
27 *703:61 *705:78 5.01649e-06
28 *703:61 *726:31 4.40586e-05
29 *703:98 *707:74 2.75217e-05
30 *703:98 *726:31 0.000438135
31 *703:107 *707:74 1.99099e-05
32 *703:107 *707:91 0.000285997
33 *3500:D *3500:B_N 5.49544e-05
34 *3535:A *3534:A 9.71197e-05
35 *3552:D *3552:B 5.33005e-05
36 *3553:A *703:61 5.49489e-05
37 *3656:A_N *703:12 5.33005e-05
38 *3656:B *3656:C 6.64778e-05
39 *3657:A *3656:C 0
40 *3674:B_N *3656:C 5.33005e-05
41 *3691:B_N *3691:D 9.41642e-05
42 *3691:B_N *703:98 8.00806e-05
43 *3691:B_N *703:107 7.10552e-05
44 *3725:B *3534:A 0.000143188
45 *3725:C *3534:A 4.82947e-05
46 *3726:A *3534:A 2.69099e-05
47 *3875:D *3517:A_N 0.000210233
48 *4049:A *703:98 1.90936e-05
49 *202:78 *703:107 6.8646e-06
50 *373:14 *3534:A 0
51 *403:36 *703:61 0
52 *422:10 *3517:A_N 5.52238e-05
53 *461:18 *3534:A 3.51773e-05
54 *498:16 *3656:C 9.58126e-05
55 *498:16 *3691:D 0.000214073
56 *507:30 *3691:D 2.94709e-06
57 *516:8 *3691:D 2.42516e-05
58 *544:16 *703:12 1.00399e-05
59 *562:347 *703:107 0
60 *571:8 *3517:A_N 0
61 *662:12 *3517:A_N 2.47572e-06
62 *687:78 *3517:A_N 0
63 *700:12 *703:107 5.54183e-05
64 *700:40 *703:107 0.000525832
65 *700:105 *3552:B 2.2351e-05
66 *700:105 *703:6 2.12087e-05
67 *700:105 *703:12 3.97677e-05
68 *700:105 *703:61 0.000162429
69 *701:8 *703:61 1.21258e-05
70 *701:10 *3656:C 2.27129e-05
71 *701:10 *703:12 9.97164e-05
72 *701:12 *3656:C 0.000365842
73 *701:84 *3534:A 0.000148903
*RES
1 *4033:X *703:4 9.3 
2 *703:4 *703:6 0.946429 
3 *703:6 *703:12 7.19643 
4 *703:12 *3656:C 44.5411 
5 *703:12 *3691:D 20.0857 
6 *703:6 *3743:B_N 9.3 
7 *703:4 *703:61 13.5179 
8 *703:61 *3552:B 10.6571 
9 *703:61 *3534:A 25.3179 
10 *3552:B *703:98 19.0679 
11 *703:98 *3570:B 13.8 
12 *703:98 *703:107 8.92857 
13 *703:107 *3500:B_N 15.175 
14 *703:107 *3517:A_N 17.8714 
*END

*D_NET *704 0.000760493
*CONN
*I *3897:D I *D sky130_fd_sc_hd__dfrtp_2
*I *4073:X O *D sky130_fd_sc_hd__clkdlybuf4s25_1
*CAP
1 *3897:D 0.000309902
2 *4073:X 0.000309902
3 *3897:D *3896:RESET_B 6.44649e-05
4 *596:62 *3897:D 7.62237e-05
*RES
1 *4073:X *3897:D 33.2607 
*END

*D_NET *705 0.00814654
*CONN
*I *4033:A I *D sky130_fd_sc_hd__clkdlybuf4s25_1
*I *3725:A_N I *D sky130_fd_sc_hd__and3b_2
*I *3674:D I *D sky130_fd_sc_hd__and4bb_2
*I *3483:A I *D sky130_fd_sc_hd__nor3b_4
*I *3605:B I *D sky130_fd_sc_hd__nor4b_4
*I *3639:A_N I *D sky130_fd_sc_hd__and4bb_2
*I *3708:C I *D sky130_fd_sc_hd__nand3b_2
*I *3622:B I *D sky130_fd_sc_hd__nor4b_4
*I *4034:X O *D sky130_fd_sc_hd__clkdlybuf4s25_1
*CAP
1 *4033:A 0.00026607
2 *3725:A_N 0.000505351
3 *3674:D 0
4 *3483:A 0
5 *3605:B 2.00462e-05
6 *3639:A_N 0.000576431
7 *3708:C 0.000151604
8 *3622:B 0.000134162
9 *4034:X 0.000134436
10 *705:78 0.000869294
11 *705:69 0.000293608
12 *705:60 0.000416625
13 *705:36 0.000636646
14 *705:32 0.000467795
15 *705:12 0.000285767
16 *705:10 0.000341172
17 *3622:B *3238:A3 4.68274e-05
18 *3622:B *3622:A 5.38444e-06
19 *3622:B *707:41 5.45307e-05
20 *3639:A_N *3639:D 0.000114351
21 *3708:C *3238:A3 6.12751e-05
22 *3534:A *3725:A_N 0.000309457
23 *3534:B *3725:A_N 3.6337e-05
24 *3535:A *3725:A_N 1.70824e-05
25 *3552:D *3725:A_N 0.000195152
26 *3552:D *705:78 4.48931e-05
27 *3639:B_N *3639:A_N 2.03842e-05
28 *3656:C *705:60 0.000122417
29 *3656:C *705:69 0.000390801
30 *3708:A_N *3708:C 5.99152e-05
31 *3708:A_N *705:32 0
32 *3708:B *705:32 0
33 *3708:B *705:60 0
34 *3725:B *3725:A_N 9.77746e-05
35 *3725:C *3725:A_N 0.00016132
36 *4085:A *3639:A_N 5.33005e-05
37 *4086:A *705:10 3.69047e-06
38 *193:18 *705:78 7.74135e-05
39 *373:14 *705:10 0
40 *373:14 *705:32 0
41 *403:36 *3725:A_N 0
42 *404:14 *705:10 0
43 *404:14 *705:32 0
44 *404:14 *705:60 0
45 *470:10 *3639:A_N 0.000213019
46 *488:6 *3639:A_N 9.41642e-05
47 *700:105 *3725:A_N 0.000122661
48 *700:105 *4033:A 1.24368e-05
49 *701:10 *705:78 1.12669e-05
50 *701:12 *705:60 1.02504e-05
51 *701:12 *705:69 2.22137e-05
52 *701:12 *705:78 1.03904e-05
53 *701:16 *705:60 0.000382573
54 *701:20 *3605:B 1.02132e-05
55 *701:20 *3639:A_N 7.18474e-05
56 *701:20 *705:36 2.39329e-05
57 *701:44 *705:36 5.52238e-05
58 *701:84 *3725:A_N 1.65228e-05
59 *703:6 *4033:A 5.49489e-05
60 *703:61 *3725:A_N 3.83736e-05
61 *703:61 *4033:A 2.01732e-05
62 *703:61 *705:78 5.01649e-06
*RES
1 *4034:X *705:10 15.675 
2 *705:10 *705:12 4.5 
3 *705:12 *3622:B 11.9071 
4 *705:12 *3708:C 12.3179 
5 *705:10 *705:32 2.85714 
6 *705:32 *705:36 5.44643 
7 *705:36 *3639:A_N 18.3 
8 *705:36 *3605:B 9.72857 
9 *705:32 *705:60 5.82143 
10 *705:60 *3483:A 13.8 
11 *705:60 *705:69 4.98214 
12 *705:69 *3674:D 13.8 
13 *705:69 *705:78 2.09821 
14 *705:78 *3725:A_N 25.2018 
15 *705:78 *4033:A 18.0232 
*END

*D_NET *706 0.00809129
*CONN
*I *3241:B1 I *D sky130_fd_sc_hd__a21oi_4
*I *3265:A I *D sky130_fd_sc_hd__xnor2_2
*I *3244:A2 I *D sky130_fd_sc_hd__a31o_2
*I *3243:B I *D sky130_fd_sc_hd__nand4_2
*I *3240:B I *D sky130_fd_sc_hd__and2_2
*I *4034:A I *D sky130_fd_sc_hd__clkdlybuf4s25_1
*I *4035:X O *D sky130_fd_sc_hd__clkdlybuf4s25_1
*CAP
1 *3241:B1 0.000117763
2 *3265:A 0
3 *3244:A2 9.73999e-05
4 *3243:B 0.00011708
5 *3240:B 0
6 *4034:A 0.00104112
7 *4035:X 6.54749e-05
8 *706:44 0.0004685
9 *706:38 0.000311124
10 *706:34 0.00029207
11 *706:14 0.00118402
12 *706:8 0.000325584
13 *4034:A *3240:A 0.00067428
14 *4034:A *3263:B2 0.000216852
15 *4034:A *708:24 3.30352e-05
16 *4034:A *907:8 2.12087e-05
17 *706:14 *907:8 0.000230432
18 *3241:A2 *706:44 3.71614e-05
19 *3242:A1 *3241:B1 0.000137983
20 *3242:B1 *706:14 9.41642e-05
21 *3243:C *3243:B 5.49489e-05
22 *3243:D *3243:B 5.49489e-05
23 *3244:A3 *3243:B 0.000127651
24 *3244:A3 *3244:A2 0.000122284
25 *3263:A1 *4034:A 4.87953e-05
26 *3263:A2 *4034:A 3.2127e-05
27 *3264:A *4034:A 5.52302e-05
28 *3412:B *3241:B1 2.87584e-05
29 *3925:CLK *3241:B1 6.62983e-05
30 *3987:A *3243:B 4.4873e-05
31 *183:23 *3243:B 0.000272325
32 *183:38 *3244:A2 5.79582e-06
33 *183:38 *706:44 8.18233e-06
34 *186:6 *706:14 9.41114e-05
35 *188:83 *3243:B 3.88213e-05
36 *188:83 *706:44 0.000311021
37 *189:8 *3241:B1 0.00016384
38 *189:8 *3244:A2 1.08359e-05
39 *189:8 *706:8 0.000173083
40 *189:8 *706:34 0.000356439
41 *189:8 *706:44 2.16719e-05
42 *202:8 *3243:B 5.49489e-05
43 *202:10 *3241:B1 8.68569e-05
44 *202:10 *706:8 8.9163e-05
45 *202:10 *706:34 0.000193184
46 *216:8 *4034:A 1.92789e-05
47 *637:10 *3243:B 2.18985e-05
48 *643:16 *706:38 3.97677e-05
49 *643:16 *706:44 2.89016e-05
*RES
1 *4035:X *706:8 16.05 
2 *706:8 *706:14 8.33929 
3 *706:14 *4034:A 30.1214 
4 *706:14 *3240:B 9.3 
5 *706:8 *706:34 4.67857 
6 *706:34 *706:38 5.44643 
7 *706:38 *706:44 9.71429 
8 *706:44 *3243:B 18.05 
9 *706:44 *3244:A2 15.7464 
10 *706:38 *3265:A 9.3 
11 *706:34 *3241:B1 17.8179 
*END

*D_NET *707 0.0128206
*CONN
*I *3251:C I *D sky130_fd_sc_hd__and3_2
*I *3500:A_N I *D sky130_fd_sc_hd__and4bb_2
*I *3517:D I *D sky130_fd_sc_hd__nand4b_1
*I *3570:A_N I *D sky130_fd_sc_hd__and4b_2
*I *3639:D I *D sky130_fd_sc_hd__and4bb_2
*I *3238:A3 I *D sky130_fd_sc_hd__a31oi_2
*I *3622:A I *D sky130_fd_sc_hd__nor4b_4
*I *3482:B_N I *D sky130_fd_sc_hd__and4bb_2
*I *4036:X O *D sky130_fd_sc_hd__clkdlybuf4s25_1
*CAP
1 *3251:C 0
2 *3500:A_N 0
3 *3517:D 0.000109895
4 *3570:A_N 3.34103e-05
5 *3639:D 4.41691e-05
6 *3238:A3 0.000418399
7 *3622:A 2.04856e-05
8 *3482:B_N 8.10748e-05
9 *4036:X 1.49752e-05
10 *707:91 0.000513043
11 *707:74 0.000827167
12 *707:41 0.000630883
13 *707:35 0.000310733
14 *707:33 0.00138096
15 *707:29 0.00125415
16 *707:6 0.000434413
17 *3238:A3 *3252:B1 0.000114661
18 *3482:B_N *708:45 5.33005e-05
19 *707:6 *708:45 4.08637e-05
20 *707:29 *3252:B1 0.000185964
21 *707:29 *3691:A_N 3.17148e-05
22 *707:29 *869:71 4.46186e-06
23 *3238:A2 *3238:A3 6.73591e-05
24 *3252:A1 *3238:A3 0.000160898
25 *3252:A2 *3238:A3 0.000181796
26 *3264:A *707:29 0.000182901
27 *3482:D *3482:B_N 0.000225609
28 *3482:D *707:6 5.33005e-05
29 *3500:B_N *707:91 9.35114e-06
30 *3500:C *707:91 1.98839e-05
31 *3500:D *707:91 1.46231e-05
32 *3517:B *3517:D 2.26424e-05
33 *3517:B *707:91 0.000117543
34 *3571:A *3517:D 0
35 *3622:B *3238:A3 4.68274e-05
36 *3622:B *3622:A 5.38444e-06
37 *3622:B *707:41 5.45307e-05
38 *3639:A_N *3639:D 0.000114351
39 *3639:B_N *3639:D 1.18177e-05
40 *3656:B *707:33 4.3026e-05
41 *3656:C *707:33 0.0002032
42 *3691:B_N *707:74 8.902e-05
43 *3708:A_N *3238:A3 0.000181374
44 *3708:B *707:29 1.58163e-05
45 *3708:B *707:33 0.00015153
46 *3708:C *3238:A3 6.12751e-05
47 *3766:CLK *707:35 0.000168939
48 *3766:CLK *707:41 0.000146474
49 *3766:CLK *707:74 0.000298281
50 *3915:CLK *707:74 0.000356424
51 *3915:CLK *707:91 5.46971e-05
52 *4049:A *707:74 6.52967e-05
53 *4080:A *707:74 0.000122056
54 *202:78 *3517:D 1.46624e-05
55 *352:34 *3570:A_N 5.33005e-05
56 *404:40 *707:33 3.04335e-05
57 *413:20 *3517:D 5.80706e-06
58 *413:54 *3517:D 0.00012401
59 *422:10 *3517:D 3.17163e-05
60 *470:10 *3639:D 1.21258e-05
61 *498:22 *707:74 0.000190745
62 *525:8 *3238:A3 0.000354056
63 *525:8 *707:41 0.000177053
64 *562:302 *707:91 6.50487e-05
65 *562:329 *707:91 4.29316e-05
66 *562:347 *707:91 6.22052e-05
67 *600:10 *707:74 0.000211337
68 *600:58 *707:74 0.000296035
69 *637:20 *707:29 9.27418e-05
70 *663:16 *707:35 0.000166276
71 *663:16 *707:41 0.000148182
72 *663:16 *707:74 0.000307818
73 *681:44 *707:91 0.000349708
74 *703:98 *707:74 2.75217e-05
75 *703:107 *707:74 1.99099e-05
76 *703:107 *707:91 0.000285997
*RES
1 *4036:X *707:6 9.83571 
2 *707:6 *3482:B_N 11.4786 
3 *707:6 *707:29 20.2803 
4 *707:29 *707:33 15.7143 
5 *707:33 *707:35 2.25 
6 *707:35 *707:41 9.85714 
7 *707:41 *3622:A 9.72857 
8 *707:41 *3238:A3 20.1571 
9 *707:35 *3639:D 15.0679 
10 *707:33 *707:74 15 
11 *707:74 *3570:A_N 14.3357 
12 *707:74 *707:91 15.75 
13 *707:91 *3517:D 20.8536 
14 *707:91 *3500:A_N 9.3 
15 *707:29 *3251:C 9.3 
*END

*D_NET *708 0.0130731
*CONN
*I *3243:A I *D sky130_fd_sc_hd__nand4_2
*I *3244:A1 I *D sky130_fd_sc_hd__a31o_2
*I *3241:A1 I *D sky130_fd_sc_hd__a21oi_4
*I *4036:A I *D sky130_fd_sc_hd__clkdlybuf4s25_1
*I *3691:A_N I *D sky130_fd_sc_hd__and4bb_2
*I *3252:B1 I *D sky130_fd_sc_hd__a21oi_2
*I *3239:A1 I *D sky130_fd_sc_hd__a21oi_4
*I *3240:A I *D sky130_fd_sc_hd__and2_2
*I *4037:X O *D sky130_fd_sc_hd__clkdlybuf4s25_1
*CAP
1 *3243:A 0
2 *3244:A1 0.000610577
3 *3241:A1 0.000339587
4 *4036:A 2.23854e-05
5 *3691:A_N 0.00124259
6 *3252:B1 0.000316171
7 *3239:A1 0
8 *3240:A 0.000392977
9 *4037:X 0.000550621
10 *708:88 0.000950164
11 *708:86 0.000196194
12 *708:45 0.00173297
13 *708:41 0.000369258
14 *708:39 0.000647086
15 *708:24 0.000435872
16 *3241:A1 *885:10 0
17 *3244:A1 *885:10 0
18 *3252:B1 *3285:D 2.09495e-05
19 *3252:B1 *869:71 0.000191403
20 *708:24 *3263:B2 5.52238e-05
21 *708:24 *3930:D 2.84494e-05
22 *708:24 *906:10 3.69697e-05
23 *708:39 *3930:D 8.31314e-05
24 *708:39 *884:14 0.000124405
25 *3236:A *708:39 0.000126439
26 *3237:A *708:41 0.000139907
27 *3238:A2 *3252:B1 7.00005e-05
28 *3238:A3 *3252:B1 0.000114661
29 *3239:A2 *3241:A1 5.26091e-05
30 *3241:A2 *3241:A1 5.49544e-05
31 *3242:A1 *3241:A1 2.62395e-05
32 *3243:C *3244:A1 2.30245e-05
33 *3262:A1 *3252:B1 0.00012401
34 *3264:A *3252:B1 5.0133e-05
35 *3264:A *3691:A_N 8.46768e-05
36 *3412:B *3241:A1 3.35092e-05
37 *3412:B *3244:A1 0.000135028
38 *3482:B_N *708:45 5.33005e-05
39 *3482:C *3252:B1 0
40 *3482:C *3691:A_N 0
41 *3482:D *708:41 2.28499e-05
42 *3482:D *708:45 0.000164903
43 *3605:D_N *3252:B1 6.54117e-05
44 *3920:CLK *708:39 6.35892e-05
45 *3925:CLK *3241:A1 0.000607286
46 *3986:A *3241:A1 5.20751e-05
47 *4034:A *3240:A 0.00067428
48 *4034:A *708:24 3.30352e-05
49 *183:23 *708:86 0.000140933
50 *184:10 *708:41 6.42095e-05
51 *184:10 *708:45 2.89114e-05
52 *188:12 *3241:A1 0
53 *188:12 *3244:A1 5.48781e-05
54 *188:33 *3244:A1 0.000111628
55 *193:14 *3691:A_N 0.000105216
56 *498:16 *3691:A_N 0.00034893
57 *507:30 *3691:A_N 2.59355e-05
58 *603:10 *708:39 1.69497e-05
59 *637:10 *708:41 6.28241e-05
60 *637:10 *708:86 0.000216682
61 *643:16 *708:39 0.000173797
62 *676:10 *708:24 0.000125731
63 *676:10 *708:39 0.000150618
64 *702:27 *3244:A1 4.5632e-05
65 *702:33 *3244:A1 2.2816e-05
66 *707:6 *708:45 4.08637e-05
67 *707:29 *3252:B1 0.000185964
68 *707:29 *3691:A_N 3.17148e-05
*RES
1 *4037:X *3240:A 26.1357 
2 *4037:X *708:24 16.8 
3 *708:24 *3239:A1 13.8 
4 *708:24 *708:39 12.9821 
5 *708:39 *708:41 3.82143 
6 *708:41 *708:45 8.32143 
7 *708:45 *3252:B1 21.9786 
8 *708:45 *3691:A_N 31.4786 
9 *708:41 *4036:A 9.72857 
10 *708:39 *708:86 4.78571 
11 *708:86 *708:88 4.5 
12 *708:88 *3241:A1 22.6571 
13 *708:88 *3244:A1 23.175 
14 *708:86 *3243:A 9.3 
*END

*D_NET *709 0.00791807
*CONN
*I *3349:C I *D sky130_fd_sc_hd__nand3_2
*I *3347:C I *D sky130_fd_sc_hd__nand3_2
*I *3356:B I *D sky130_fd_sc_hd__nor2_2
*I *3341:A I *D sky130_fd_sc_hd__inv_2
*I *3353:B I *D sky130_fd_sc_hd__or2_2
*I *3354:B I *D sky130_fd_sc_hd__nand2_2
*I *3403:B I *D sky130_fd_sc_hd__and2_2
*I *3402:A I *D sky130_fd_sc_hd__nor2_2
*I *4038:X O *D sky130_fd_sc_hd__clkdlybuf4s25_1
*CAP
1 *3349:C 0.000189506
2 *3347:C 3.83997e-05
3 *3356:B 0.000438477
4 *3341:A 3.42005e-05
5 *3353:B 0
6 *3354:B 6.00135e-05
7 *3403:B 1.89015e-05
8 *3402:A 0.000165904
9 *4038:X 5.98952e-05
10 *709:71 0.000837647
11 *709:60 0.00039497
12 *709:58 0.000453662
13 *709:47 0.000315776
14 *709:38 0.000497919
15 *709:12 0.000299021
16 *709:8 0.000560397
17 *3354:B *895:20 0.0001399
18 *3356:B *3345:A 0.000140216
19 *3356:B *3356:A 6.00376e-05
20 *3356:B *3357:B 0.000271904
21 *3402:A *3403:A 0.000235925
22 *709:47 *895:16 4.88637e-05
23 *709:47 *895:20 4.27935e-05
24 *709:58 *895:16 9.77274e-05
25 *3344:A *3341:A 1.02301e-05
26 *3344:A *709:71 1.84865e-05
27 *3347:A *709:71 4.6829e-05
28 *3347:B *709:71 9.84673e-05
29 *3350:A *3349:C 7.09043e-05
30 *3358:A1 *3356:B 0.000100037
31 *3407:B1 *709:38 0
32 *3409:B1 *3402:A 1.52217e-05
33 *3409:B1 *3403:B 5.50052e-05
34 *3936:CLK *709:12 0.000194914
35 *3936:CLK *709:38 0.000211205
36 *3946:A *709:8 4.58194e-05
37 *275:10 *709:58 0.000137318
38 *275:25 *3349:C 3.8206e-05
39 *275:25 *709:58 3.9733e-05
40 *275:42 *3349:C 9.3429e-05
41 *277:10 *3356:B 0.000185358
42 *277:47 *709:71 1.12713e-05
43 *279:6 *709:71 3.84968e-05
44 *327:29 *709:58 0
45 *561:59 *709:38 0.000361232
46 *566:10 *709:38 0.000743849
47 *566:10 *709:58 0
*RES
1 *4038:X *709:8 14.7464 
2 *709:8 *709:12 7.05357 
3 *709:12 *3402:A 13.425 
4 *709:12 *3403:B 9.83571 
5 *709:8 *709:38 16.7679 
6 *709:38 *3354:B 10.6571 
7 *709:38 *709:47 1.35714 
8 *709:47 *3353:B 9.3 
9 *709:47 *709:58 10.6429 
10 *709:58 *709:60 4.5 
11 *709:60 *3341:A 10.0321 
12 *709:60 *709:71 9.14286 
13 *709:71 *3356:B 22.925 
14 *709:71 *3347:C 14.5321 
15 *709:58 *3349:C 17.2643 
*END

*D_NET *710 0.00583737
*CONN
*I *3908:RESET_B I *D sky130_fd_sc_hd__dfrtp_2
*I *3936:RESET_B I *D sky130_fd_sc_hd__dfrtp_2
*I *3907:RESET_B I *D sky130_fd_sc_hd__dfrtp_2
*I *3912:RESET_B I *D sky130_fd_sc_hd__dfrtp_2
*I *3910:RESET_B I *D sky130_fd_sc_hd__dfrtp_2
*I *3911:RESET_B I *D sky130_fd_sc_hd__dfrtp_2
*I *3905:RESET_B I *D sky130_fd_sc_hd__dfrtp_2
*I *3906:RESET_B I *D sky130_fd_sc_hd__dfrtp_2
*I *4039:X O *D sky130_fd_sc_hd__clkdlybuf4s25_1
*CAP
1 *3908:RESET_B 0.000206094
2 *3936:RESET_B 0.000197328
3 *3907:RESET_B 0.000132883
4 *3912:RESET_B 0.000419634
5 *3910:RESET_B 7.24728e-05
6 *3911:RESET_B 0.000215895
7 *3905:RESET_B 6.28493e-05
8 *3906:RESET_B 0.000309434
9 *4039:X 0.000102054
10 *710:70 0.000330211
11 *710:68 0.000409833
12 *710:16 0.00058545
13 *710:14 0.000583924
14 *710:8 0.000545284
15 *3906:RESET_B *3910:D 3.34295e-05
16 *3906:RESET_B *3911:D 0
17 *3906:RESET_B *3917:D 0
18 *3907:RESET_B *3912:D 7.83587e-05
19 *3907:RESET_B *3916:D 0
20 *3910:RESET_B *3357:B 0
21 *3910:RESET_B *3910:D 3.42301e-05
22 *3912:RESET_B *897:10 3.67968e-05
23 *3936:RESET_B *3912:D 3.17148e-05
24 *3936:RESET_B *3916:D 0
25 *710:8 *4039:A 2.14757e-05
26 *710:14 *3357:B 0
27 *710:14 *3910:D 0.00063306
28 *710:14 *3937:RESET_B 0
29 *710:14 *896:10 0
30 *710:16 *3910:D 0.000388015
31 *710:16 *3917:D 0
32 *710:16 *3937:RESET_B 0
33 empty *710:14 2.06178e-05
34 *3911:CLK *3912:RESET_B 0.000113845
35 *3912:CLK *3908:RESET_B 0.000174741
36 *4114:A *710:8 9.77414e-05
*RES
1 *4039:X *710:8 15.1571 
2 *710:8 *710:14 9.28571 
3 *710:14 *710:16 4.98214 
4 *710:16 *3906:RESET_B 10.1875 
5 *710:16 *3905:RESET_B 5.38393 
6 *710:14 *3911:RESET_B 4.5 
7 *710:8 *3910:RESET_B 5.83929 
8 *3911:RESET_B *3912:RESET_B 3.69643 
9 *3912:RESET_B *710:68 3.08036 
10 *710:68 *710:70 4.5 
11 *710:70 *3907:RESET_B 6.72321 
12 *710:70 *3936:RESET_B 7.96429 
13 *710:68 *3908:RESET_B 4.1875 
*END

*D_NET *711 0.0063453
*CONN
*I *3943:RESET_B I *D sky130_fd_sc_hd__dfrtp_2
*I *3913:RESET_B I *D sky130_fd_sc_hd__dfrtp_2
*I *4039:A I *D sky130_fd_sc_hd__clkdlybuf4s25_1
*I *3938:SET_B I *D sky130_fd_sc_hd__dfstp_2
*I *3937:RESET_B I *D sky130_fd_sc_hd__dfrtp_2
*I *4040:X O *D sky130_fd_sc_hd__clkdlybuf4s25_1
*CAP
1 *3943:RESET_B 9.97171e-05
2 *3913:RESET_B 0.000315578
3 *4039:A 0.000410503
4 *3938:SET_B 0.000201169
5 *3937:RESET_B 0.000290124
6 *4040:X 9.57274e-05
7 *711:16 0.00056193
8 *711:14 0.000566863
9 *711:12 0.000493601
10 *711:6 0.000287745
11 *3913:RESET_B *3910:D 3.69047e-06
12 *3913:RESET_B *3938:D 5.88177e-05
13 *3913:RESET_B *898:10 5.52302e-05
14 *3937:RESET_B *896:10 0.000267237
15 *3938:SET_B *3938:D 2.59355e-05
16 *3943:RESET_B *3357:B 0.00017309
17 *4039:A *4038:A 5.33005e-05
18 *711:6 *712:14 8.67797e-05
19 *711:6 *712:24 0.000141734
20 *711:6 *730:16 7.73879e-05
21 *711:12 *3357:B 0.000173804
22 *711:12 *712:24 9.41642e-05
23 *711:14 *3357:B 0.000189448
24 *711:14 *896:10 3.17148e-05
25 *711:16 *896:10 0.000246038
26 *3449:A *3937:RESET_B 7.47493e-05
27 *3910:CLK *3913:RESET_B 5.52302e-05
28 *4114:A *4039:A 0.00031539
29 *15:30 *3937:RESET_B 0.000227055
30 *15:30 *711:12 9.22547e-05
31 *15:30 *711:14 0.000125281
32 *15:30 *711:16 0.0001376
33 *564:16 *3937:RESET_B 1.63058e-05
34 *642:24 *711:6 0.000230327
35 *642:24 *711:12 4.82947e-05
36 *710:8 *4039:A 2.14757e-05
37 *710:14 *3937:RESET_B 0
38 *710:16 *3937:RESET_B 0
*RES
1 *4040:X *711:6 13.5321 
2 *711:6 *711:12 7.69643 
3 *711:12 *711:14 2.85714 
4 *711:14 *711:16 3.16071 
5 *711:16 *3937:RESET_B 11.9911 
6 *711:16 *3938:SET_B 7.16964 
7 *711:14 *4039:A 21.4607 
8 *711:12 *3913:RESET_B 9.95536 
9 *711:6 *3943:RESET_B 11.25 
*END

*D_NET *712 0.00806287
*CONN
*I *3935:RESET_B I *D sky130_fd_sc_hd__dfrtp_2
*I *3934:RESET_B I *D sky130_fd_sc_hd__dfrtp_2
*I *4040:A I *D sky130_fd_sc_hd__clkdlybuf4s25_1
*I *3942:RESET_B I *D sky130_fd_sc_hd__dfrtp_2
*I *3904:RESET_B I *D sky130_fd_sc_hd__dfrtp_2
*I *3909:RESET_B I *D sky130_fd_sc_hd__dfrtp_2
*I *4041:X O *D sky130_fd_sc_hd__clkdlybuf4s25_1
*CAP
1 *3935:RESET_B 6.58043e-05
2 *3934:RESET_B 0.000298941
3 *4040:A 0
4 *3942:RESET_B 0
5 *3904:RESET_B 0.000377704
6 *3909:RESET_B 0.000414144
7 *4041:X 0.000240471
8 *712:24 0.00151617
9 *712:14 0.00148707
10 *3904:RESET_B *3406:B 2.74795e-05
11 *3904:RESET_B *3909:D 8.02157e-05
12 *3909:RESET_B *3942:D 0
13 *3909:RESET_B *729:46 0
14 *3909:RESET_B *729:54 0
15 *3934:RESET_B *3914:D 4.85567e-05
16 *3934:RESET_B *3934:D 0.000176941
17 *3934:RESET_B *3935:D 0
18 *3934:RESET_B *873:8 4.90023e-05
19 *3935:RESET_B *3904:D 0.000125717
20 *3935:RESET_B *3914:D 4.70821e-05
21 *712:14 *3357:B 0
22 *712:14 *730:16 5.20669e-05
23 *712:14 *895:10 0.000312154
24 *712:24 *3234:A 2.59355e-05
25 *712:24 *3405:A 7.86973e-05
26 *712:24 *3942:D 0
27 *712:24 *730:16 0.000297693
28 *175:22 *3909:RESET_B 0.000150625
29 *175:22 *712:24 0.000189448
30 *180:20 *3909:RESET_B 0
31 *336:10 *712:24 0.000142152
32 *563:10 *3909:RESET_B 0
33 *563:61 *3904:RESET_B 4.67709e-05
34 *642:24 *712:24 0.00136192
35 *681:22 *3935:RESET_B 0.000127439
36 *711:6 *712:14 8.67797e-05
37 *711:6 *712:24 0.000141734
38 *711:12 *712:24 9.41642e-05
*RES
1 *4041:X *712:14 23.8536 
2 *712:14 *712:24 33.0893 
3 *712:24 *3909:RESET_B 9.48214 
4 *3909:RESET_B *3904:RESET_B 12 
5 *712:24 *3942:RESET_B 4.5 
6 *712:14 *4040:A 9.3 
7 *3904:RESET_B *3934:RESET_B 14.1696 
8 *3934:RESET_B *3935:RESET_B 11.1161 
*END

*D_NET *713 0.0149991
*CONN
*I *3890:RESET_B I *D sky130_fd_sc_hd__dfrtp_2
*I *3939:RESET_B I *D sky130_fd_sc_hd__dfrtp_2
*I *3940:RESET_B I *D sky130_fd_sc_hd__dfrtp_2
*I *3889:RESET_B I *D sky130_fd_sc_hd__dfrtp_2
*I *3891:RESET_B I *D sky130_fd_sc_hd__dfrtp_2
*I *3888:SET_B I *D sky130_fd_sc_hd__dfstp_2
*I *4041:A I *D sky130_fd_sc_hd__clkdlybuf4s25_1
*I *3892:RESET_B I *D sky130_fd_sc_hd__dfrtp_2
*I *4042:X O *D sky130_fd_sc_hd__clkdlybuf4s25_1
*CAP
1 *3890:RESET_B 0.000102392
2 *3939:RESET_B 9.72385e-05
3 *3940:RESET_B 0.000624245
4 *3889:RESET_B 0.00144893
5 *3891:RESET_B 0.00222325
6 *3888:SET_B 0.00112835
7 *4041:A 0.00111301
8 *3892:RESET_B 0.000238215
9 *4042:X 5.54804e-05
10 *713:100 0.000796604
11 *713:98 0.000322741
12 *713:12 0.00176896
13 *713:8 0.000682012
14 *3888:SET_B *3903:D 0
15 *3891:RESET_B *4042:A 2.15245e-05
16 *3891:RESET_B *4054:A 8.32964e-05
17 *3940:RESET_B *3473:A1 0.000358699
18 *3940:RESET_B *3939:D 0.000369097
19 *3940:RESET_B *4023:A 0.000172284
20 *3940:RESET_B *715:12 0.000298388
21 *3940:RESET_B *729:20 5.51716e-05
22 *4041:A *3357:A 0
23 *4041:A *895:10 0
24 *713:98 *715:12 9.86633e-05
25 *713:100 *715:12 4.35141e-05
26 *3250:B *3940:RESET_B 0.000143581
27 *3367:A2 *3889:RESET_B 2.98475e-05
28 *3367:B1_N *3889:RESET_B 0.000103437
29 *3382:A *3889:RESET_B 0.000344709
30 *3382:B *3889:RESET_B 2.85321e-05
31 *3401:A1 *3889:RESET_B 9.67754e-05
32 *3401:A1 *3891:RESET_B 0.000124611
33 *3401:A2 *3891:RESET_B 9.50011e-06
34 *3888:CLK *3891:RESET_B 3.46801e-05
35 *3889:CLK *713:98 0
36 *3890:D *3890:RESET_B 4.68041e-05
37 *3891:D *3889:RESET_B 4.88537e-05
38 *3892:D *3892:RESET_B 0
39 *3892:D *713:12 9.24299e-05
40 *3901:D *3891:RESET_B 5.49995e-05
41 *3901:RESET_B *713:12 0
42 *4069:A *713:12 2.26973e-05
43 *4090:A *3888:SET_B 0.000221775
44 *4090:A *713:12 0.000150449
45 *4116:A *3888:SET_B 9.59566e-05
46 *4116:A *713:12 0.000102185
47 *299:14 *3889:RESET_B 0.000500088
48 *300:6 *3889:RESET_B 0.000484017
49 *565:26 *3939:RESET_B 4.92917e-05
50 *565:26 *3940:RESET_B 0
51 *565:26 *713:98 0
52 *565:26 *713:100 0
53 *675:10 *3940:RESET_B 5.55898e-05
54 *687:24 *3940:RESET_B 5.62306e-05
*RES
1 *4042:X *713:8 14.3357 
2 *713:8 *713:12 9.72321 
3 *713:12 *3892:RESET_B 8.47321 
4 *713:12 *4041:A 34.0411 
5 *713:8 *3888:SET_B 9.0625 
6 *3888:SET_B *3891:RESET_B 23.7857 
7 *3891:RESET_B *3889:RESET_B 36.8839 
8 *3889:RESET_B *713:98 7.96429 
9 *713:98 *713:100 1.64286 
10 *713:100 *3940:RESET_B 21.5625 
11 *713:100 *3939:RESET_B 6.20536 
12 *713:98 *3890:RESET_B 6.20536 
*END

*D_NET *714 0.0086697
*CONN
*I *3919:RESET_B I *D sky130_fd_sc_hd__dfrtp_2
*I *3927:RESET_B I *D sky130_fd_sc_hd__dfrtp_2
*I *3914:RESET_B I *D sky130_fd_sc_hd__dfrtp_2
*I *3915:RESET_B I *D sky130_fd_sc_hd__dfrtp_2
*I *3924:RESET_B I *D sky130_fd_sc_hd__dfrtp_2
*I *3920:RESET_B I *D sky130_fd_sc_hd__dfrtp_2
*I *3930:RESET_B I *D sky130_fd_sc_hd__dfrtp_2
*I *3931:RESET_B I *D sky130_fd_sc_hd__dfrtp_2
*I *4043:X O *D sky130_fd_sc_hd__clkdlybuf4s25_1
*CAP
1 *3919:RESET_B 0
2 *3927:RESET_B 0.000902617
3 *3914:RESET_B 0.00108421
4 *3915:RESET_B 0
5 *3924:RESET_B 0
6 *3920:RESET_B 0.000187783
7 *3930:RESET_B 5.40293e-05
8 *3931:RESET_B 0.000888927
9 *4043:X 0.000145547
10 *714:77 0.000254919
11 *714:70 0.00025714
12 *714:66 0.000234021
13 *714:52 0.000805838
14 *714:34 0.00136526
15 *3914:RESET_B *3904:D 0
16 *3930:RESET_B *3262:B1 3.02581e-06
17 *714:34 *3262:B1 0.000117378
18 *714:34 *3930:D 0
19 *714:34 *906:8 0.00014285
20 *714:52 *3920:D 0.000127008
21 *714:52 *3924:D 6.83697e-05
22 *714:66 *3920:D 0.000102193
23 *714:70 *3919:D 0
24 *714:70 *3920:D 0.000136748
25 *714:77 *3904:D 0
26 *714:77 *3919:D 0
27 *714:77 *3920:D 5.56943e-05
28 *3237:A *714:52 0.000196957
29 *3330:B *3931:RESET_B 0
30 *3413:A *3931:RESET_B 0.000131765
31 *3413:A *714:34 0.000163293
32 *3914:CLK *3927:RESET_B 1.92789e-05
33 *3920:CLK *3920:RESET_B 0.000136733
34 *3920:CLK *714:52 1.50087e-05
35 *3927:CLK *3927:RESET_B 0.000193643
36 *3929:CLK *3930:RESET_B 2.15245e-05
37 *3931:CLK *714:34 0.000392726
38 *184:18 *714:34 0
39 *184:18 *714:52 0
40 *185:21 *714:34 5.33433e-05
41 *185:31 *714:34 0.000131481
42 *185:31 *714:52 1.76135e-05
43 *187:8 *3931:RESET_B 0.000150625
44 *193:14 *714:52 0
45 *603:10 *714:52 4.75521e-05
46 *606:10 *3914:RESET_B 0
47 *606:10 *714:77 0
48 *606:39 *3914:RESET_B 0
49 *637:10 *714:52 6.46049e-05
*RES
1 *4043:X *3931:RESET_B 21.5411 
2 *3931:RESET_B *714:34 20.6339 
3 *714:34 *3930:RESET_B 5.38393 
4 *714:34 *714:52 11.875 
5 *714:52 *3920:RESET_B 7.16964 
6 *714:52 *714:66 1.33929 
7 *714:66 *714:70 4 
8 *714:70 *3924:RESET_B 4.5 
9 *714:70 *714:77 1.64286 
10 *714:77 *3915:RESET_B 4.5 
11 *714:77 *3914:RESET_B 7.96429 
12 *3914:RESET_B *3927:RESET_B 12.6071 
13 *714:66 *3919:RESET_B 4.5 
*END

*D_NET *715 0.00995094
*CONN
*I *3222:D I *D sky130_fd_sc_hd__nand4_2
*I *3220:D I *D sky130_fd_sc_hd__nand4_2
*I *3249:A2 I *D sky130_fd_sc_hd__a21oi_2
*I *3256:A3 I *D sky130_fd_sc_hd__a311o_2
*I *3216:C I *D sky130_fd_sc_hd__nand3b_2
*I *3224:D I *D sky130_fd_sc_hd__nand4b_2
*I *3228:C I *D sky130_fd_sc_hd__and3b_4
*I *4074:X O *D sky130_fd_sc_hd__clkdlybuf4s25_1
*CAP
1 *3222:D 0.000146758
2 *3220:D 0.000117474
3 *3249:A2 7.64416e-05
4 *3256:A3 0.000279103
5 *3216:C 0
6 *3224:D 6.37266e-05
7 *3228:C 0.000144495
8 *4074:X 0.000916835
9 *715:31 0.000131277
10 *715:29 0.000505859
11 *715:27 0.00032321
12 *715:25 0.000690506
13 *715:12 0.00140004
14 *715:12 *3939:D 0.000195471
15 *715:12 *4017:A 8.23954e-05
16 *3219:A *3249:A2 9.71197e-05
17 *3220:A *3222:D 0.000235473
18 *3220:C *3220:D 5.52302e-05
19 *3220:C *3222:D 5.33005e-05
20 *3220:C *715:27 0.000137939
21 *3222:A *3220:D 5.52302e-05
22 *3222:A *3222:D 2.47631e-06
23 *3222:B *3222:D 7.29262e-05
24 *3222:C *3222:D 5.52302e-05
25 *3224:C *3224:D 2.6949e-05
26 *3228:A_N *715:25 0.000234349
27 *3228:A_N *715:27 6.12813e-05
28 *3228:A_N *715:29 9.69119e-06
29 *3229:D *3228:C 9.58689e-05
30 *3249:A1 *3249:A2 5.03772e-05
31 *3256:A2 *3256:A3 0.000137983
32 *3256:C1 *3256:A3 0
33 *3257:B1 *3224:D 0.000224599
34 *3257:B1 *715:31 2.31791e-05
35 *3367:B1_N *715:12 0.00039358
36 *3468:S *715:25 3.48457e-05
37 *3940:RESET_B *715:12 0.000298388
38 *3941:CLK *3228:C 0.000397541
39 *3941:CLK *715:12 0.000262841
40 *4078:A *715:27 3.34366e-05
41 *4078:A *715:29 0.000195555
42 *172:6 *3222:D 5.30637e-06
43 *177:6 *3228:C 9.84673e-05
44 *192:8 *3249:A2 6.05161e-06
45 *642:30 *3224:D 0.00015234
46 *642:30 *715:31 1.02504e-05
47 *642:45 *3249:A2 0.000140933
48 *642:45 *715:29 2.26424e-05
49 *642:45 *715:31 6.16744e-05
50 *675:10 *715:25 0.000166893
51 *675:10 *715:27 1.08359e-05
52 *681:116 *715:25 0.000487726
53 *683:30 *3228:C 1.35465e-05
54 *683:30 *715:12 8.9477e-05
55 *683:38 *715:29 0
56 *683:44 *715:29 0
57 *687:12 *715:12 0
58 *687:46 *3256:A3 5.13251e-05
59 *697:8 *3256:A3 0.000172309
60 *697:19 *715:31 0
61 *713:98 *715:12 9.86633e-05
62 *713:100 *715:12 4.35141e-05
*RES
1 *4074:X *715:12 41.9607 
2 *715:12 *3228:C 13.8536 
3 *715:12 *715:25 14.9464 
4 *715:25 *715:27 2.55357 
5 *715:27 *715:29 3.16071 
6 *715:29 *715:31 1.64286 
7 *715:31 *3224:D 16.6571 
8 *715:31 *3216:C 13.8 
9 *715:29 *3256:A3 17.9429 
10 *715:27 *3249:A2 15.9786 
11 *715:25 *3220:D 15.2821 
12 *715:25 *3222:D 17.7821 
*END

*D_NET *716 0.00594357
*CONN
*I *3917:RESET_B I *D sky130_fd_sc_hd__dfrtp_2
*I *3916:RESET_B I *D sky130_fd_sc_hd__dfrtp_2
*I *3921:RESET_B I *D sky130_fd_sc_hd__dfrtp_2
*I *3925:RESET_B I *D sky130_fd_sc_hd__dfrtp_2
*I *3928:RESET_B I *D sky130_fd_sc_hd__dfrtp_2
*I *3922:RESET_B I *D sky130_fd_sc_hd__dfrtp_2
*I *3918:RESET_B I *D sky130_fd_sc_hd__dfrtp_2
*I *3923:RESET_B I *D sky130_fd_sc_hd__dfrtp_2
*I *4044:X O *D sky130_fd_sc_hd__clkdlybuf4s25_1
*CAP
1 *3917:RESET_B 0.000175533
2 *3916:RESET_B 0.000139839
3 *3921:RESET_B 4.77227e-05
4 *3925:RESET_B 0.000112188
5 *3928:RESET_B 0.000144386
6 *3922:RESET_B 0.000422711
7 *3918:RESET_B 8.74819e-05
8 *3923:RESET_B 0
9 *4044:X 0.000291715
10 *716:68 0.000325211
11 *716:58 0.000299593
12 *716:56 0.000452971
13 *716:40 0.000470995
14 *716:17 0.00069174
15 *716:10 0.000572189
16 *3916:RESET_B *3917:D 0
17 *3916:RESET_B *3918:D 0.000384257
18 *3916:RESET_B *3921:D 0.000102696
19 *3917:RESET_B *3917:D 3.11088e-05
20 *3918:RESET_B *3923:D 6.05161e-06
21 *3922:RESET_B *3923:D 0
22 *3928:RESET_B *3918:D 3.93986e-05
23 *716:10 *4044:A 0.000228931
24 *716:10 *888:34 0
25 *716:17 *3923:D 0
26 *716:17 *4044:A 0
27 *716:40 *887:10 5.52302e-05
28 *716:56 *3918:D 0.000131748
29 *716:68 *3918:D 0.0002671
30 *716:68 *3921:D 2.53112e-06
31 *3415:A *3922:RESET_B 0
32 *3415:A *716:17 0
33 *3917:CLK *3925:RESET_B 9.41642e-05
34 *3917:CLK *716:58 5.50052e-05
35 *3921:CLK *3921:RESET_B 8.79458e-05
36 *3922:CLK *3922:RESET_B 0
37 *3923:CLK *3922:RESET_B 0
38 *4093:A *3928:RESET_B 0.000175578
39 *4113:A *3922:RESET_B 0
40 *604:25 *3928:RESET_B 4.75537e-05
*RES
1 *4044:X *716:10 18.8536 
2 *716:10 *3923:RESET_B 4.5 
3 *716:10 *716:17 4.98214 
4 *716:17 *3918:RESET_B 5.79464 
5 *716:17 *3922:RESET_B 9.48214 
6 *3922:RESET_B *716:40 6.20536 
7 *716:40 *3928:RESET_B 7.84821 
8 *716:40 *716:56 9.60714 
9 *716:56 *716:58 0.946429 
10 *716:58 *3925:RESET_B 1.70536 
11 *716:58 *716:68 7.96429 
12 *716:68 *3921:RESET_B 5.38393 
13 *716:68 *3916:RESET_B 9.48214 
14 *716:56 *3917:RESET_B 2.9375 
*END

*D_NET *717 0.00858411
*CONN
*I *3933:RESET_B I *D sky130_fd_sc_hd__dfrtp_2
*I *4044:A I *D sky130_fd_sc_hd__clkdlybuf4s25_1
*I *3926:RESET_B I *D sky130_fd_sc_hd__dfrtp_2
*I *3932:RESET_B I *D sky130_fd_sc_hd__dfrtp_2
*I *4043:A I *D sky130_fd_sc_hd__clkdlybuf4s25_1
*I *4045:X O *D sky130_fd_sc_hd__clkdlybuf4s25_1
*CAP
1 *3933:RESET_B 0.000293931
2 *4044:A 0.000368075
3 *3926:RESET_B 0.000451837
4 *3932:RESET_B 0.000559288
5 *4043:A 3.04135e-05
6 *4045:X 0
7 *717:29 0.00107101
8 *717:14 0.00138384
9 *717:4 0.00136769
10 *3932:RESET_B *4032:A 5.49995e-05
11 *3933:RESET_B *3267:B 0
12 *3933:RESET_B *3268:A2 9.25014e-06
13 *3933:RESET_B *903:8 3.02581e-06
14 *3933:RESET_B *903:21 0
15 *4043:A *911:8 5.33005e-05
16 *4044:A *3923:D 0.000153047
17 *4044:A *4045:A 0.00034321
18 *717:14 *3413:B 0.000106533
19 *717:14 *3925:D 1.52978e-05
20 *717:29 *3925:D 0.000484889
21 *3330:B *3933:RESET_B 0
22 *3330:B *717:14 8.40012e-05
23 *3330:B *717:29 0.000839168
24 *3414:A *717:14 9.71197e-05
25 *3414:B *717:14 0.00048227
26 *3415:A *717:14 4.01768e-05
27 *3926:CLK *3926:RESET_B 1.84865e-05
28 *191:10 *3933:RESET_B 0
29 *643:16 *717:14 4.43256e-05
30 *716:10 *4044:A 0.000228931
31 *716:17 *4044:A 0
*RES
1 *4045:X *717:4 9.3 
2 *717:4 *717:14 28.3929 
3 *717:14 *4043:A 9.83571 
4 *717:14 *717:29 20.4821 
5 *717:29 *3932:RESET_B 3.90179 
6 *717:29 *3926:RESET_B 5.95536 
7 *717:4 *4044:A 27.0321 
8 *3932:RESET_B *3933:RESET_B 13.8661 
*END

*D_NET *718 0.01721
*CONN
*I *3929:RESET_B I *D sky130_fd_sc_hd__dfrtp_2
*I *3894:RESET_B I *D sky130_fd_sc_hd__dfrtp_2
*I *3895:RESET_B I *D sky130_fd_sc_hd__dfrtp_2
*I *3896:RESET_B I *D sky130_fd_sc_hd__dfrtp_2
*I *3897:RESET_B I *D sky130_fd_sc_hd__dfrtp_2
*I *4045:A I *D sky130_fd_sc_hd__clkdlybuf4s25_1
*I *3893:RESET_B I *D sky130_fd_sc_hd__dfrtp_2
*I *4046:X O *D sky130_fd_sc_hd__clkdlybuf4s25_1
*CAP
1 *3929:RESET_B 0.00215005
2 *3894:RESET_B 0
3 *3895:RESET_B 5.93597e-05
4 *3896:RESET_B 0.00160964
5 *3897:RESET_B 0.00147776
6 *4045:A 0.0010737
7 *3893:RESET_B 0.00153423
8 *4046:X 7.12181e-05
9 *718:91 0.00230833
10 *718:81 0.00169005
11 *718:6 0.00133862
12 *3897:RESET_B *3900:D 0.000345303
13 *3897:RESET_B *4046:A 0.000295844
14 *4045:A *3923:D 2.72545e-05
15 afull *4045:A 0
16 *3294:B1 *3929:RESET_B 4.29537e-05
17 *3308:A2_N *718:81 9.61273e-05
18 *3308:B2 *718:81 2.12733e-05
19 *3309:B1 *718:81 0.00100776
20 *3326:B1 *3929:RESET_B 2.28378e-05
21 *3326:B1 *718:91 0.000115166
22 *3327:A2_N *3929:RESET_B 2.04817e-05
23 *3327:A2_N *718:91 0.000135126
24 *3897:D *3896:RESET_B 6.44649e-05
25 *3898:D *3897:RESET_B 5.50052e-05
26 *3898:RESET_B *3897:RESET_B 9.11968e-05
27 *3900:RESET_B *3897:RESET_B 5.16892e-05
28 *3923:CLK *4045:A 0.000202835
29 *4044:A *4045:A 0.00034321
30 *4091:A *4045:A 9.24234e-05
31 *4091:A *718:6 5.20669e-05
32 *4115:A *3893:RESET_B 4.1331e-06
33 *4115:A *4045:A 0
34 *195:10 *3929:RESET_B 4.35748e-05
35 *218:39 *3929:RESET_B 0.000191082
36 *226:12 *3929:RESET_B 0.000333688
37 *558:10 *718:81 5.66971e-05
38 *558:10 *718:91 7.7939e-05
39 *596:62 *3897:RESET_B 9.22893e-05
40 *639:10 *3897:RESET_B 1.46689e-05
*RES
1 *4046:X *718:6 10.2464 
2 *718:6 *3893:RESET_B 12.4643 
3 *718:6 *4045:A 39.55 
4 *3893:RESET_B *3897:RESET_B 31.3214 
5 *3897:RESET_B *3896:RESET_B 11.5268 
6 *3896:RESET_B *718:81 20.8839 
7 *718:81 *3895:RESET_B 0.883929 
8 *718:81 *718:91 9.48214 
9 *718:91 *3894:RESET_B 4.5 
10 *718:91 *3929:RESET_B 27.5669 
*END

*D_NET *719 0.00953708
*CONN
*I *3672:A1 I *D sky130_fd_sc_hd__mux2_2
*I *3689:A1 I *D sky130_fd_sc_hd__mux2_2
*I *3723:A0 I *D sky130_fd_sc_hd__mux2_2
*I *3706:A1 I *D sky130_fd_sc_hd__mux2_2
*I *3620:A1 I *D sky130_fd_sc_hd__mux2_2
*I *3498:A1 I *D sky130_fd_sc_hd__mux2_2
*I *3654:A1 I *D sky130_fd_sc_hd__mux2_2
*I *3637:A1 I *D sky130_fd_sc_hd__mux2_2
*I *4047:X O *D sky130_fd_sc_hd__clkdlybuf4s25_1
*CAP
1 *3672:A1 0.000201635
2 *3689:A1 0
3 *3723:A0 0
4 *3706:A1 0
5 *3620:A1 0.000279267
6 *3498:A1 0
7 *3654:A1 0.000469222
8 *3637:A1 4.76862e-05
9 *4047:X 3.39943e-05
10 *719:82 0.000425409
11 *719:75 0.000461998
12 *719:68 0.00065908
13 *719:18 0.000766165
14 *719:12 0.000591557
15 *719:10 0.000761422
16 *719:6 0.000594706
17 *3620:A1 *3620:A0 0
18 *3637:A1 *3637:A0 9.83388e-05
19 *3654:A1 *3479:A2 2.21254e-05
20 *3654:A1 *3479:A3 0.000166417
21 *3654:A1 *3654:A0 0.00026715
22 *3654:A1 *811:8 0.000147718
23 *3672:A1 *3689:A0 8.2607e-05
24 *719:10 *3479:A1 0.000137983
25 *719:12 *3479:A0 7.6644e-05
26 *719:12 *3479:A2 0
27 *719:12 *3479:A3 0
28 *719:12 *3498:A0 0.000308409
29 *719:18 *3637:A0 4.08637e-05
30 *719:68 *3479:A0 5.49544e-05
31 *719:68 *3479:A1 0.000290986
32 *719:82 *3689:A0 9.99853e-05
33 *719:82 *3723:A1 5.71472e-05
34 *3478:S0 *3672:A1 2.80742e-05
35 *3478:S1 *3672:A1 0.000397023
36 *3478:S1 *719:82 0.000443603
37 *3479:S0 *3620:A1 0.00010096
38 *3479:S0 *719:12 9.97648e-05
39 *3479:S1 *719:68 0.000224161
40 *3480:A1 *719:68 5.16396e-05
41 *3499:A *719:68 7.50697e-05
42 *3620:S *3620:A1 7.61932e-05
43 *3637:S *3654:A1 3.57844e-05
44 *3637:S *719:18 3.97677e-05
45 *3654:S *3654:A1 5.47176e-05
46 *3679:S *719:82 0.000108305
47 *3724:A *719:75 1.84776e-05
48 *507:65 *3672:A1 0.00016565
49 *525:60 *3672:A1 2.55698e-05
50 *605:6 *719:6 2.84109e-05
51 *605:6 *719:10 1.98839e-05
52 *636:17 *3620:A1 4.35048e-05
53 *684:48 *719:68 0.000357054
*RES
1 *4047:X *719:6 9.83571 
2 *719:6 *719:10 6.26786 
3 *719:10 *719:12 7.41071 
4 *719:12 *719:18 8.42857 
5 *719:18 *3637:A1 10.2464 
6 *719:18 *3654:A1 28.5321 
7 *719:12 *3498:A1 13.8 
8 *719:10 *3620:A1 18.5321 
9 *719:6 *719:68 18.6429 
10 *719:68 *3706:A1 9.3 
11 *719:68 *719:75 3.41071 
12 *719:75 *3723:A0 9.3 
13 *719:75 *719:82 6.28571 
14 *719:82 *3689:A1 9.3 
15 *719:82 *3672:A1 23.9964 
*END

*D_NET *720 0.00987232
*CONN
*I *3550:A1 I *D sky130_fd_sc_hd__mux2_2
*I *3568:A1 I *D sky130_fd_sc_hd__mux2_2
*I *3532:A0 I *D sky130_fd_sc_hd__mux2_2
*I *3741:A1 I *D sky130_fd_sc_hd__mux2_2
*I *3603:A0 I *D sky130_fd_sc_hd__mux2_2
*I *3586:A1 I *D sky130_fd_sc_hd__mux2_2
*I *3758:A1 I *D sky130_fd_sc_hd__mux2_2
*I *3515:A1 I *D sky130_fd_sc_hd__mux2_2
*I *4048:X O *D sky130_fd_sc_hd__clkdlybuf4s25_1
*CAP
1 *3550:A1 0.000475274
2 *3568:A1 8.07003e-05
3 *3532:A0 0
4 *3741:A1 0
5 *3603:A0 0.000554637
6 *3586:A1 0.000219961
7 *3758:A1 0
8 *3515:A1 0
9 *4048:X 0.000520007
10 *720:81 0.00105933
11 *720:40 0.000621671
12 *720:36 0.00110658
13 *720:23 0.00107343
14 *720:16 0.000523144
15 *720:10 0.000725876
16 *3568:A1 *3568:A0 0.000121165
17 *3586:A1 *3586:A0 4.85049e-06
18 *720:16 *3515:A0 4.50349e-06
19 *720:23 *3515:A0 4.74842e-05
20 *720:23 *3758:A0 4.58194e-05
21 *720:36 *3758:A0 0.000187116
22 *3452:S0 *3586:A1 9.97164e-05
23 *3474:S0 *720:36 3.92757e-05
24 *3474:S1 *3603:A0 8.42609e-05
25 *3474:S1 *720:40 0.000404286
26 *3474:S1 *720:81 1.38737e-05
27 *3477:A2 *3568:A1 1.74766e-05
28 *3509:S *720:16 0
29 *3515:S *720:23 7.35217e-05
30 *3516:A *720:16 5.54404e-05
31 *3533:A *720:16 0
32 *3544:S *3550:A1 5.66157e-05
33 *3580:S *720:36 7.83587e-05
34 *3603:S *720:81 0.000169246
35 *3604:A *720:40 9.80173e-05
36 *3815:CLK *720:36 0.000198538
37 *4095:A *3550:A1 0
38 *413:112 *720:10 0
39 *413:112 *720:16 0
40 *432:34 *3550:A1 2.59355e-05
41 *432:47 *3550:A1 0.000150625
42 *452:48 *3586:A1 5.49544e-05
43 *461:57 *3550:A1 0.000147828
44 *461:57 *720:81 6.09804e-05
45 *544:61 *720:36 2.13481e-06
46 *562:106 *3586:A1 0.000206999
47 *611:47 *3550:A1 9.25014e-06
48 *636:6 *720:10 0.00011729
49 *636:15 *720:10 4.43256e-05
50 *666:24 *3568:A1 1.02504e-05
51 *666:49 *3568:A1 8.33208e-05
52 *668:51 *720:10 0.000128161
53 *695:44 *3586:A1 7.00963e-05
*RES
1 *4048:X *720:10 20.8 
2 *720:10 *720:16 8.19643 
3 *720:16 *3515:A1 9.3 
4 *720:16 *720:23 3.82143 
5 *720:23 *3758:A1 9.3 
6 *720:23 *720:36 19.1964 
7 *720:36 *720:40 6.71429 
8 *720:40 *3586:A1 23.8179 
9 *720:40 *3603:A0 10.2464 
10 *720:36 *3741:A1 9.3 
11 *720:10 *3532:A0 13.8 
12 *3603:A0 *720:81 15.9071 
13 *720:81 *3568:A1 20.55 
14 *720:81 *3550:A1 25.4964 
*END

*D_NET *721 0.0136749
*CONN
*I *3670:A1 I *D sky130_fd_sc_hd__mux2_2
*I *3496:A1 I *D sky130_fd_sc_hd__mux2_2
*I *3618:A1 I *D sky130_fd_sc_hd__mux2_2
*I *3721:A0 I *D sky130_fd_sc_hd__mux2_2
*I *3704:A1 I *D sky130_fd_sc_hd__mux2_2
*I *3687:A1 I *D sky130_fd_sc_hd__mux2_2
*I *3652:A1 I *D sky130_fd_sc_hd__mux2_2
*I *3635:A1 I *D sky130_fd_sc_hd__mux2_2
*I *4049:X O *D sky130_fd_sc_hd__clkdlybuf4s25_1
*CAP
1 *3670:A1 7.49893e-05
2 *3496:A1 0.000253801
3 *3618:A1 0
4 *3721:A0 0.000110003
5 *3704:A1 1.16777e-05
6 *3687:A1 0.000210899
7 *3652:A1 0
8 *3635:A1 0.000331708
9 *4049:X 0.000314437
10 *721:79 0.000328941
11 *721:64 0.000692028
12 *721:51 0.000548032
13 *721:26 0.00114448
14 *721:18 0.000756861
15 *721:12 0.000805987
16 *721:10 0.000723355
17 *3496:A1 *3496:A0 0.000561015
18 *3635:A1 *3635:A0 5.61819e-05
19 *3721:A0 *3721:A1 0.000156186
20 *721:10 *726:31 2.40379e-05
21 *721:26 *3618:A0 5.10039e-05
22 *721:51 *3635:A0 0.000128161
23 *721:79 *3704:A0 4.40513e-06
24 *721:79 *3721:A1 6.42134e-05
25 *721:79 *842:8 8.92152e-05
26 *3471:A2 *721:10 0.000241983
27 *3471:A2 *721:12 0.000242227
28 *3622:D_N *721:12 0.000142327
29 *3635:S *721:26 0.000227179
30 *3715:S *721:12 1.50087e-05
31 *3721:S *721:64 0
32 *3766:D *3496:A1 1.64343e-05
33 *3846:D *721:10 9.8291e-05
34 *3877:CLK *3721:A0 0.00010326
35 *3983:A *3670:A1 4.97967e-05
36 *202:54 *721:10 2.18021e-05
37 *202:56 *721:10 0.000128378
38 *202:65 *721:10 0.000301185
39 *202:104 *721:10 5.88556e-05
40 *202:104 *721:12 0.000229076
41 *387:8 *3635:A1 0.000242626
42 *387:8 *3721:A0 0.000383747
43 *387:8 *721:79 0.000150684
44 *404:14 *3496:A1 0.000213448
45 *470:25 *721:12 0.000300597
46 *470:25 *721:18 0.000212841
47 *479:8 *721:12 5.01213e-05
48 *479:8 *721:18 0.000146301
49 *507:30 *3687:A1 4.17702e-05
50 *507:42 *3687:A1 0.000269747
51 *516:109 *3704:A1 5.50052e-05
52 *525:29 *721:64 0
53 *562:214 *3635:A1 3.43708e-05
54 *634:31 *3635:A1 0.000243742
55 *665:12 *721:51 0.000365536
56 *665:12 *721:64 6.65302e-05
57 *665:14 *3635:A1 0.000175892
58 *665:14 *721:26 8.17274e-05
59 *672:14 *721:18 0.000125731
60 *685:18 *721:64 0
61 *691:16 *3704:A1 5.52302e-05
62 *692:30 *721:51 0.000536508
63 *692:30 *721:64 0.000372504
64 *692:30 *721:79 0.000232848
*RES
1 *4049:X *721:10 22.1571 
2 *721:10 *721:12 11.0536 
3 *721:12 *721:18 10.8393 
4 *721:18 *721:26 9.625 
5 *721:26 *3635:A1 25.9786 
6 *721:26 *721:51 14.6429 
7 *721:51 *3652:A1 13.8 
8 *721:51 *721:64 6.85714 
9 *721:64 *3687:A1 16.8 
10 *721:64 *721:79 5.94643 
11 *721:79 *3704:A1 14.3357 
12 *721:79 *3721:A0 18.7821 
13 *721:18 *3618:A1 9.3 
14 *721:12 *3496:A1 21.0679 
15 *721:10 *3670:A1 14.7464 
*END

*D_NET *722 0.00869696
*CONN
*I *3548:A1 I *D sky130_fd_sc_hd__mux2_2
*I *3566:A1 I *D sky130_fd_sc_hd__mux2_2
*I *3756:A1 I *D sky130_fd_sc_hd__mux2_2
*I *3739:A1 I *D sky130_fd_sc_hd__mux2_2
*I *3530:A0 I *D sky130_fd_sc_hd__mux2_2
*I *3601:A0 I *D sky130_fd_sc_hd__mux2_2
*I *3584:A1 I *D sky130_fd_sc_hd__mux2_2
*I *3513:A1 I *D sky130_fd_sc_hd__mux2_2
*I *4050:X O *D sky130_fd_sc_hd__clkdlybuf4s25_1
*CAP
1 *3548:A1 0.000106781
2 *3566:A1 0
3 *3756:A1 0
4 *3739:A1 0
5 *3530:A0 0
6 *3601:A0 5.5534e-05
7 *3584:A1 0.000271189
8 *3513:A1 0.000233016
9 *4050:X 0.000222888
10 *722:76 0.000386042
11 *722:33 0.000796037
12 *722:20 0.000702331
13 *722:18 0.000452621
14 *722:16 0.000790954
15 *722:8 0.000375055
16 *722:6 0.000538871
17 *3513:A1 *3466:A2 0.000114829
18 *3513:A1 *754:10 4.25523e-05
19 *3548:A1 *3467:A0 8.52118e-05
20 *3548:A1 *3548:A0 0.000141734
21 *3584:A1 *3584:A0 1.6578e-05
22 *722:16 *3466:A0 9.15804e-05
23 *722:16 *858:10 9.25014e-06
24 *722:18 *3530:A1 0.000230482
25 *722:33 *3466:A2 6.75007e-05
26 *722:33 *762:8 0
27 *722:33 *786:10 0.000170415
28 *722:76 *3467:A0 0.000397341
29 *3466:S0 *722:16 0
30 *3467:S1 *722:16 0
31 *3468:A0 *722:18 0.000315165
32 *3468:A1 *722:18 0.000228558
33 *3468:A1 *722:76 0.000290993
34 *3567:A *722:76 0.0001743
35 *3574:S *722:33 0
36 *3798:D *722:76 4.56977e-05
37 *3814:CLK *3584:A1 7.21478e-05
38 *3814:D *3584:A1 7.99677e-06
39 *3814:D *3601:A0 9.27562e-05
40 *3814:D *722:33 5.5764e-05
41 *3886:D *722:6 9.4578e-05
42 *3886:D *722:8 8.25843e-06
43 *3886:D *722:16 4.05548e-05
44 *4050:A *722:6 9.90431e-05
45 *4100:A *722:33 0
46 *413:85 *3513:A1 9.71197e-05
47 *442:37 *722:16 0.000150613
48 *452:117 *3513:A1 0
49 *452:117 *722:33 0
50 *635:10 *722:76 0.00038222
51 *688:51 *722:18 0.000242402
*RES
1 *4050:X *722:6 13.5321 
2 *722:6 *722:8 0.535714 
3 *722:8 *722:16 15.75 
4 *722:16 *722:18 10.8036 
5 *722:18 *722:20 4.5 
6 *722:20 *3513:A1 18.5143 
7 *722:20 *722:33 10.1429 
8 *722:33 *3584:A1 17.2286 
9 *722:33 *3601:A0 15.1393 
10 *722:18 *3530:A0 9.3 
11 *722:16 *3739:A1 9.3 
12 *722:8 *3756:A1 9.3 
13 *722:6 *722:76 17.8036 
14 *722:76 *3566:A1 9.3 
15 *722:76 *3548:A1 11.4786 
*END

*D_NET *723 0.00913321
*CONN
*I *3633:A1 I *D sky130_fd_sc_hd__mux2_2
*I *3719:A0 I *D sky130_fd_sc_hd__mux2_2
*I *3702:A1 I *D sky130_fd_sc_hd__mux2_2
*I *3668:A1 I *D sky130_fd_sc_hd__mux2_2
*I *3685:A1 I *D sky130_fd_sc_hd__mux2_2
*I *3616:A1 I *D sky130_fd_sc_hd__mux2_2
*I *3650:A1 I *D sky130_fd_sc_hd__mux2_2
*I *3494:A1 I *D sky130_fd_sc_hd__mux2_2
*I *4051:X O *D sky130_fd_sc_hd__clkdlybuf4s25_1
*CAP
1 *3633:A1 0
2 *3719:A0 0.000201097
3 *3702:A1 7.66027e-05
4 *3668:A1 0.000471945
5 *3685:A1 0
6 *3616:A1 0
7 *3650:A1 0
8 *3494:A1 0.000270602
9 *4051:X 0.000327044
10 *723:90 0.000603004
11 *723:66 0.000548978
12 *723:62 0.00061315
13 *723:47 0.000552255
14 *723:38 0.00107694
15 *723:24 0.000791939
16 *3494:A1 *3633:A0 5.66971e-05
17 *723:24 *3633:A0 0.000140908
18 *723:38 *3633:A0 4.73286e-05
19 *723:38 *3650:A0 0.000369287
20 *723:62 *3616:A0 1.02504e-05
21 *3617:A *723:38 0
22 *3634:A *723:38 7.18002e-05
23 *3648:S *723:38 0.000270262
24 *3648:S *723:47 3.08664e-05
25 *3702:S *3719:A0 3.27526e-05
26 *3719:S *3719:A0 2.07878e-05
27 *3829:D *723:38 0.000197385
28 *3845:CLK *3719:A0 0.000153047
29 *3845:D *723:62 0.000200406
30 *3845:D *723:90 0.000308819
31 *3853:D *3719:A0 3.67548e-05
32 *4051:A *3494:A1 5.33005e-05
33 *488:88 *723:47 0.000138448
34 *488:88 *723:62 3.42959e-05
35 *516:41 *3668:A1 0.000600577
36 *516:41 *723:66 9.41642e-05
37 *598:14 *3668:A1 2.56694e-05
38 *633:25 *723:38 0
39 *634:31 *723:62 1.69115e-05
40 *663:43 *3702:A1 4.82865e-05
41 *663:43 *723:90 8.58232e-05
42 *664:18 *3494:A1 0.000428054
43 *664:18 *723:24 9.8396e-05
44 *664:34 *723:38 1.59373e-05
45 *670:44 *723:62 1.24368e-05
*RES
1 *4051:X *3494:A1 25.3321 
2 *4051:X *723:24 11.0857 
3 *723:24 *723:38 23.9464 
4 *723:38 *3650:A1 9.3 
5 *723:38 *723:47 4.66071 
6 *723:47 *3616:A1 9.3 
7 *723:47 *723:62 9.05357 
8 *723:62 *723:66 5.44643 
9 *723:66 *3685:A1 9.3 
10 *723:66 *3668:A1 25.2107 
11 *723:62 *723:90 9.35714 
12 *723:90 *3702:A1 10.2464 
13 *723:90 *3719:A0 22.5321 
14 *723:24 *3633:A1 9.3 
*END

*D_NET *724 0.0117828
*CONN
*I *3564:A1 I *D sky130_fd_sc_hd__mux2_2
*I *3546:A1 I *D sky130_fd_sc_hd__mux2_2
*I *3511:A1 I *D sky130_fd_sc_hd__mux2_2
*I *3754:A1 I *D sky130_fd_sc_hd__mux2_2
*I *3599:A0 I *D sky130_fd_sc_hd__mux2_2
*I *3582:A1 I *D sky130_fd_sc_hd__mux2_2
*I *3528:A0 I *D sky130_fd_sc_hd__mux2_2
*I *3737:A1 I *D sky130_fd_sc_hd__mux2_2
*I *4052:X O *D sky130_fd_sc_hd__clkdlybuf4s25_1
*CAP
1 *3564:A1 0.000357251
2 *3546:A1 0
3 *3511:A1 0
4 *3754:A1 0.000382312
5 *3599:A0 0.000352967
6 *3582:A1 4.9768e-05
7 *3528:A0 7.69141e-05
8 *3737:A1 0.000454299
9 *4052:X 0.000840533
10 *724:115 0.00095031
11 *724:73 0.000717755
12 *724:49 0.000516421
13 *724:36 0.00023794
14 *724:32 0.000682413
15 *724:26 0.00127892
16 *3528:A0 *3458:A3 3.14003e-05
17 *3528:A0 *3528:A1 5.49995e-05
18 *3528:A0 *761:10 9.10894e-05
19 *3564:A1 *3546:A0 0.000208154
20 *3582:A1 *729:80 5.39629e-06
21 *3599:A0 *3433:A1 9.67702e-05
22 *3599:A0 *3582:A0 7.83659e-05
23 *3599:A0 *3599:A1 4.48206e-05
24 *3737:A1 *3737:A0 1.02504e-05
25 *3737:A1 *729:78 3.69047e-06
26 *724:36 *761:10 2.59355e-05
27 *724:49 *3582:A0 8.32171e-05
28 *724:73 *3458:A3 0.000382312
29 *724:73 *3511:A0 8.17708e-05
30 *724:73 *761:10 0.000100248
31 *724:115 *3459:A2 0
32 *724:115 *3546:A0 9.99853e-05
33 *3432:A2 *3754:A1 5.52238e-05
34 *3458:S0 *3599:A0 0
35 *3458:S0 *724:49 0
36 *3459:S1 *724:115 0
37 *3565:A *724:115 0.00011228
38 *3754:S *3754:A1 9.9129e-05
39 *3755:A *724:26 0.000141734
40 *3781:CLK *724:32 5.49489e-05
41 *3781:D *724:32 0.000145979
42 *3789:D *724:115 9.25014e-06
43 *3994:A *3528:A0 8.7392e-05
44 *3994:A *3599:A0 0.00017462
45 *3994:A *724:49 0.000139711
46 *4013:A *3599:A0 0
47 *4013:A *3754:A1 0
48 *4013:A *724:115 0
49 *26:22 *3737:A1 0.000198824
50 *388:16 *3754:A1 3.34783e-05
51 *388:16 *724:49 2.3942e-05
52 *388:16 *724:73 0.000810582
53 *388:22 *724:32 1.58163e-05
54 *388:22 *724:36 3.2033e-05
55 *413:20 *3754:A1 0.000185118
56 *452:14 *3737:A1 5.71472e-05
57 *452:27 *724:115 0.000247924
58 *461:53 *3754:A1 0
59 *461:53 *724:73 0
60 *461:143 *3599:A0 5.10822e-05
61 *662:24 *3737:A1 0.000313706
62 *666:16 *3564:A1 7.83659e-05
63 *668:12 *3528:A0 2.11336e-05
64 *681:44 *3754:A1 0.000319082
65 *681:58 *3754:A1 2.28598e-05
66 *687:78 *3737:A1 5.52302e-05
*RES
1 *4052:X *3737:A1 36.225 
2 *4052:X *724:26 15.9964 
3 *724:26 *724:32 5.60714 
4 *724:32 *724:36 5.44643 
5 *724:36 *3528:A0 16.5857 
6 *724:36 *724:49 3.46429 
7 *724:49 *3582:A1 14.3357 
8 *724:49 *3599:A0 22.7286 
9 *724:32 *724:73 15.4821 
10 *724:73 *3754:A1 30.3714 
11 *724:73 *3511:A1 13.8 
12 *724:26 *724:115 19.9821 
13 *724:115 *3546:A1 9.3 
14 *724:115 *3564:A1 23.1571 
*END

*D_NET *725 0.0111014
*CONN
*I *3614:A1 I *D sky130_fd_sc_hd__mux2_2
*I *3648:A1 I *D sky130_fd_sc_hd__mux2_2
*I *3683:A1 I *D sky130_fd_sc_hd__mux2_2
*I *3717:A0 I *D sky130_fd_sc_hd__mux2_2
*I *3666:A1 I *D sky130_fd_sc_hd__mux2_2
*I *3700:A1 I *D sky130_fd_sc_hd__mux2_2
*I *3631:A1 I *D sky130_fd_sc_hd__mux2_2
*I *3492:A1 I *D sky130_fd_sc_hd__mux2_2
*I *4053:X O *D sky130_fd_sc_hd__clkdlybuf4s25_1
*CAP
1 *3614:A1 0.000293787
2 *3648:A1 0
3 *3683:A1 0.000580532
4 *3717:A0 0
5 *3666:A1 0.000493699
6 *3700:A1 0
7 *3631:A1 0
8 *3492:A1 0.00010279
9 *4053:X 0.00062144
10 *725:85 0.000331775
11 *725:59 0.000993296
12 *725:41 0.000493699
13 *725:39 0.00064324
14 *725:35 0.000727781
15 *725:22 0.000977967
16 *3683:A1 *3683:A0 4.11262e-05
17 *725:39 *3648:A0 8.08022e-05
18 *725:59 *3454:A2 3.57844e-05
19 *725:59 *3700:A0 0.000131491
20 *725:59 *3717:A1 0.000266796
21 *3454:S1 *725:39 7.07908e-05
22 *3454:S1 *725:59 3.65544e-05
23 *3455:S1 *725:39 3.84291e-05
24 *3488:S *3492:A1 0.000757878
25 *3493:A *3492:A1 0.000276211
26 *3610:S *3614:A1 2.14757e-05
27 *3610:S *725:35 0.000277906
28 *3610:S *725:85 2.59355e-05
29 *3632:A *725:22 0.000141831
30 *3648:S *3614:A1 0.000398815
31 *3649:A *725:22 0
32 *3649:A *725:35 0
33 *3684:A *3683:A1 0.000395856
34 *3684:A *725:59 7.00561e-05
35 *350:26 *3683:A1 8.09765e-05
36 *350:26 *725:59 4.27842e-06
37 *516:51 *3666:A1 0.000689222
38 *516:57 *3666:A1 5.52302e-05
39 *525:86 *3683:A1 4.37451e-05
40 *594:10 *725:39 0
41 *594:10 *725:59 0.000119794
42 *633:6 *725:22 7.43578e-06
43 *633:21 *3492:A1 0.000212368
44 *633:21 *725:22 0.00017412
45 *664:34 *725:22 0.000386506
*RES
1 *4053:X *3492:A1 25.7071 
2 *4053:X *725:22 23.9071 
3 *725:22 *3631:A1 13.8 
4 *725:22 *725:35 10.8929 
5 *725:35 *725:39 9.48214 
6 *725:39 *725:41 4.5 
7 *725:41 *3700:A1 9.3 
8 *725:41 *3666:A1 16.4071 
9 *725:39 *725:59 10.8036 
10 *725:59 *3717:A0 13.8 
11 *725:59 *3683:A1 23.5143 
12 *725:35 *725:85 0.535714 
13 *725:85 *3648:A1 9.3 
14 *725:85 *3614:A1 13.5321 
*END

*D_NET *726 0.0135985
*CONN
*I *4025:A I *D sky130_fd_sc_hd__clkdlybuf4s25_1
*I *3470:S0 I *D sky130_fd_sc_hd__mux4_2
*I *4029:A I *D sky130_fd_sc_hd__clkdlybuf4s25_1
*I *3939:Q O *D sky130_fd_sc_hd__dfrtp_2
*CAP
1 *4025:A 2.23854e-05
2 *3470:S0 0.000819756
3 *4029:A 0
4 *3939:Q 0.000876545
5 *726:31 0.00181443
6 *726:25 0.00241141
7 *726:12 0.00231567
8 *3470:S0 *3470:S1 0
9 *3470:S0 *3670:A0 3.56785e-05
10 *3470:S0 *826:8 8.91963e-06
11 *726:12 *727:10 0.000146261
12 *726:25 *3904:D 0
13 *726:25 *3915:D 0
14 *726:25 *3919:D 0
15 *726:25 *727:10 0
16 *3222:B *726:25 0.000114852
17 *3250:A *726:12 0
18 *3256:A1 *726:25 0.000145753
19 *3257:B1 *726:25 0
20 *3258:A *726:25 0.000110208
21 *3258:B *726:25 0.00015304
22 *3259:A *726:25 0
23 *3423:A *726:25 0.00015244
24 *3443:S0 *726:12 9.41642e-05
25 *3443:S0 *726:25 1.24368e-05
26 *3468:S *726:12 0
27 *3472:A2 *3470:S0 0.000190564
28 *3534:A *726:31 1.04232e-05
29 *3552:B *726:31 0.000121199
30 *3553:A *726:31 0.000310236
31 *3688:A *3470:S0 0.000119679
32 *3862:CLK *3470:S0 1.03904e-05
33 *3941:CLK *726:12 3.85645e-05
34 *3982:A *3470:S0 5.33005e-05
35 *3983:A *3470:S0 0.000600319
36 *4031:A *726:31 6.444e-05
37 *170:39 *726:25 0.000127439
38 *173:60 *726:25 0
39 *173:71 *726:25 0
40 *177:10 *726:12 0
41 *488:65 *3470:S0 6.94598e-05
42 *507:30 *3470:S0 8.0025e-05
43 *562:204 *3470:S0 0
44 *570:10 *3470:S0 2.24646e-05
45 *632:25 *726:25 0.00110526
46 *667:27 *726:12 0
47 *681:22 *726:25 0
48 *683:38 *726:25 0.000321803
49 *683:44 *726:25 0.000123227
50 *683:59 *726:25 0.000184433
51 *698:10 *726:12 0.00011148
52 *699:34 *726:12 0.000149076
53 *699:34 *726:25 4.4545e-05
54 *703:61 *726:31 4.40586e-05
55 *703:98 *726:31 0.000438135
56 *721:10 *726:31 2.40379e-05
*RES
1 *3939:Q *726:12 35.7643 
2 *726:12 *4029:A 9.3 
3 *726:12 *726:25 46 
4 *726:25 *726:31 15.4643 
5 *726:31 *3470:S0 27.7857 
6 *726:31 *4025:A 9.72857 
*END

*D_NET *727 0.0139709
*CONN
*I *4023:A I *D sky130_fd_sc_hd__clkdlybuf4s25_1
*I *4020:A I *D sky130_fd_sc_hd__clkdlybuf4s25_1
*I *3470:S1 I *D sky130_fd_sc_hd__mux4_2
*I *3940:Q O *D sky130_fd_sc_hd__dfrtp_2
*CAP
1 *4023:A 0.00075779
2 *4020:A 0
3 *3470:S1 0.000694818
4 *3940:Q 0.00166059
5 *727:28 0.00163359
6 *727:10 0.00184157
7 *3470:S1 *3670:A0 0.000117424
8 *3470:S1 *826:8 4.7659e-05
9 *4023:A *732:27 3.7542e-05
10 *3217:A *727:10 7.83462e-05
11 *3221:A *727:10 0.000585561
12 *3222:B *727:10 0.000387395
13 *3258:A *727:10 0.000319323
14 *3470:S0 *3470:S1 0
15 *3472:A2 *3470:S1 9.69728e-05
16 *3472:A2 *727:28 4.59668e-05
17 *3472:B1 *727:28 0.000305282
18 *3940:CLK *4023:A 1.84865e-05
19 *3940:RESET_B *4023:A 0.000172284
20 *3953:A *727:28 2.12503e-05
21 *170:39 *727:10 4.48113e-05
22 *352:14 *727:28 0.000190284
23 *352:34 *727:28 4.15263e-05
24 *352:44 *3470:S1 9.90431e-05
25 *352:44 *727:28 0.000128496
26 *373:14 *727:28 2.55806e-05
27 *374:10 *727:28 0.000267698
28 *413:20 *727:28 0.000187872
29 *442:14 *727:10 0.000479862
30 *461:18 *727:28 2.47833e-05
31 *488:65 *3470:S1 0
32 *507:30 *3470:S1 1.30914e-05
33 *570:10 *727:28 0.00064938
34 *674:8 *3470:S1 0.00152995
35 *683:59 *727:10 0.00107625
36 *691:12 *3470:S1 0.000153054
37 *698:10 *727:10 9.10894e-05
38 *726:12 *727:10 0.000146261
39 *726:25 *727:10 0
*RES
1 *3940:Q *727:10 48.7821 
2 *727:10 *727:28 30.9464 
3 *727:28 *3470:S1 38.8 
4 *727:28 *4020:A 9.3 
5 *3940:Q *4023:A 27.6714 
*END

*D_NET *728 0.00175192
*CONN
*I *4017:A I *D sky130_fd_sc_hd__clkdlybuf4s25_1
*I *4018:A I *D sky130_fd_sc_hd__clkdlybuf4s25_1
*I *3941:Q O *D sky130_fd_sc_hd__dfrtp_2
*CAP
1 *4017:A 0.000485212
2 *4018:A 0
3 *3941:Q 4.30482e-05
4 *728:8 0.00052826
5 *4017:A *3941:D 2.95726e-05
6 *728:8 *3941:D 5.43733e-05
7 *3941:RESET_B *4017:A 9.71197e-05
8 *3941:RESET_B *728:8 8.50637e-05
9 *687:12 *4017:A 7.50739e-05
10 *687:24 *4017:A 0.000271799
11 *715:12 *4017:A 8.23954e-05
*RES
1 *3941:Q *728:8 10.675 
2 *728:8 *4018:A 9.3 
3 *728:8 *4017:A 29.0857 
*END

*D_NET *729 0.0243383
*CONN
*I *3260:A I *D sky130_fd_sc_hd__xor2_2
*I *3230:A I *D sky130_fd_sc_hd__inv_2
*I *3433:A1 I *D sky130_fd_sc_hd__a21bo_2
*I *3477:B1 I *D sky130_fd_sc_hd__o21a_2
*I *3453:B1 I *D sky130_fd_sc_hd__o21a_2
*I *3473:A1 I *D sky130_fd_sc_hd__a21bo_2
*I *3229:C I *D sky130_fd_sc_hd__nand4_4
*I *3942:Q O *D sky130_fd_sc_hd__dfrtp_2
*CAP
1 *3260:A 3.59657e-05
2 *3230:A 0
3 *3433:A1 0.000336957
4 *3477:B1 0
5 *3453:B1 0.000425523
6 *3473:A1 0.00149701
7 *3229:C 0
8 *3942:Q 7.12627e-05
9 *729:86 0.00148671
10 *729:80 0.00275002
11 *729:78 0.00276503
12 *729:54 0.002182
13 *729:46 0.000891665
14 *729:20 0.00281552
15 *729:6 0.00147663
16 *3260:A *874:21 1.58163e-05
17 *3453:B1 *3544:A0 0.000425694
18 *3453:B1 *3562:A0 0.000193184
19 *3453:B1 *768:10 0.000199706
20 *3453:B1 *776:8 7.83027e-05
21 *3473:A1 *858:10 4.01768e-05
22 *729:20 *873:8 0.000250201
23 *729:46 *873:8 0.00013921
24 *729:54 *873:8 0.000123217
25 *729:78 *3442:A0 0.000120604
26 *729:78 *3442:A2 0.000164512
27 *729:86 *3544:A0 3.45899e-05
28 *3229:A *729:20 4.77002e-05
29 *3231:A1 *729:54 4.84159e-05
30 *3231:A2 *729:54 5.23735e-05
31 *3231:B1 *729:54 2.80345e-05
32 *3231:B1 *729:78 5.66971e-05
33 *3255:B *729:20 0
34 *3366:A1_N *3473:A1 0.000139009
35 *3369:A1 *729:20 0.000190815
36 *3372:A1 *729:20 0.00025586
37 *3423:A *729:78 9.84729e-05
38 *3444:A0 *729:78 5.26625e-05
39 *3453:A2 *3453:B1 0.000147356
40 *3477:A2 *729:86 3.02856e-05
41 *3544:A1 *3453:B1 2.71192e-05
42 *3562:S *3453:B1 0.000102847
43 *3582:A1 *729:80 5.39629e-06
44 *3582:S *729:80 0.000219081
45 *3583:A *3433:A1 5.84171e-05
46 *3583:A *729:86 1.92789e-05
47 *3597:S *3453:B1 5.52302e-05
48 *3599:A0 *3433:A1 9.67702e-05
49 *3600:A *3433:A1 4.87953e-05
50 *3737:A1 *729:78 3.69047e-06
51 *3751:A *729:78 9.84673e-05
52 *3878:CLK *3473:A1 9.87617e-05
53 *3878:D *3473:A1 5.9199e-05
54 *3883:D *729:78 2.85321e-05
55 *3904:CLK *729:54 0.000151616
56 *3909:RESET_B *729:46 0
57 *3909:RESET_B *729:54 0
58 *3940:RESET_B *3473:A1 0.000358699
59 *3940:RESET_B *729:20 5.51716e-05
60 *3941:CLK *729:20 3.01245e-06
61 *3942:CLK *729:6 5.30637e-06
62 *3942:CLK *729:20 0
63 *3994:A *3433:A1 0.00046212
64 *26:22 *729:78 6.88155e-05
65 *169:10 *729:20 0
66 *169:35 *729:20 0.000270943
67 *169:48 *729:20 7.39741e-05
68 *174:10 *729:20 0
69 *175:22 *729:46 0
70 *178:6 *729:20 1.29901e-05
71 *352:58 *3453:B1 3.70128e-05
72 *356:14 *3433:A1 9.80173e-05
73 *395:16 *3473:A1 5.52238e-05
74 *413:75 *3473:A1 6.42095e-05
75 *452:14 *729:80 0.000258396
76 *452:37 *3433:A1 4.29414e-05
77 *461:53 *3433:A1 0.000460406
78 *461:143 *3433:A1 0.000354175
79 *563:61 *729:54 2.85321e-05
80 *642:24 *729:6 9.01258e-06
81 *642:24 *729:20 7.07155e-06
82 *662:24 *729:78 0.000126797
83 *675:10 *3473:A1 0.00035104
84 *675:10 *729:20 5.66943e-05
85 *683:30 *729:20 0.000111082
86 *687:24 *729:20 0.000226279
*RES
1 *3942:Q *729:6 10.2464 
2 *729:6 *729:20 39.7857 
3 *729:20 *3229:C 13.8 
4 *729:20 *3473:A1 40.5143 
5 *729:6 *729:46 6.44643 
6 *729:46 *729:54 15.5179 
7 *729:54 *729:78 33.4643 
8 *729:78 *729:80 16.9643 
9 *729:80 *729:86 17.25 
10 *729:86 *3453:B1 26.425 
11 *729:86 *3477:B1 13.8 
12 *729:80 *3433:A1 30.5143 
13 *729:54 *3230:A 9.3 
14 *729:46 *3260:A 14.3357 
*END

*D_NET *730 0.00931277
*CONN
*I *3261:A I *D sky130_fd_sc_hd__xor2_2
*I *3918:D I *D sky130_fd_sc_hd__dfrtp_2
*I *3234:A I *D sky130_fd_sc_hd__xnor2_4
*I *3943:Q O *D sky130_fd_sc_hd__dfrtp_2
*CAP
1 *3261:A 0
2 *3918:D 0.00106086
3 *3234:A 3.01804e-05
4 *3943:Q 0.000975214
5 *730:31 0.00143491
6 *730:16 0.00137944
7 *3918:D *3905:D 0.0010638
8 *3918:D *3916:D 0
9 *3918:D *3917:D 0
10 *3918:D *3937:D 0
11 *3918:D *886:10 2.30861e-05
12 *3918:D *887:10 2.49484e-05
13 *3918:D *897:10 2.5383e-05
14 *730:16 *895:10 0
15 *730:31 *3938:D 0.000181821
16 *730:31 *897:10 6.57675e-05
17 *730:31 *897:19 0.00033488
18 *730:31 *898:10 7.50601e-05
19 *3414:D *3918:D 5.71472e-05
20 *3415:A *3918:D 0
21 *3906:CLK *3918:D 0.000166723
22 *3916:RESET_B *3918:D 0.000384257
23 *3917:CLK *3918:D 0.000146603
24 *3918:CLK *3918:D 0.000133875
25 *3928:RESET_B *3918:D 3.93986e-05
26 *3943:CLK *730:31 4.36551e-06
27 *564:10 *3918:D 7.36114e-05
28 *564:10 *730:31 6.57675e-05
29 *564:16 *3918:D 0.000120133
30 *564:18 *3918:D 4.06782e-05
31 *564:71 *730:31 2.91887e-05
32 *604:8 *3918:D 0.000489429
33 *642:24 *730:16 3.43158e-05
34 *711:6 *730:16 7.73879e-05
35 *712:14 *730:16 5.20669e-05
36 *712:24 *3234:A 2.59355e-05
37 *712:24 *730:16 0.000297693
38 *716:56 *3918:D 0.000131748
39 *716:68 *3918:D 0.0002671
*RES
1 *3943:Q *730:16 30.9964 
2 *730:16 *3234:A 9.83571 
3 *730:16 *730:31 15.7143 
4 *730:31 *3918:D 46.9964 
5 *730:31 *3261:A 13.8 
*END

*D_NET *731 0.00269385
*CONN
*I *3362:B I *D sky130_fd_sc_hd__nand3_2
*I *3371:D I *D sky130_fd_sc_hd__nand4_2
*I *3361:A1 I *D sky130_fd_sc_hd__a32o_2
*I *3365:B I *D sky130_fd_sc_hd__nand2_2
*I *3939:D I *D sky130_fd_sc_hd__dfrtp_2
*I *3250:Y O *D sky130_fd_sc_hd__nor2_8
*CAP
1 *3362:B 0.000199266
2 *3371:D 4.15771e-05
3 *3361:A1 0.000165214
4 *3365:B 0
5 *3939:D 0.000348624
6 *3250:Y 0
7 *731:28 0.000349609
8 *731:19 0.00022515
9 *731:4 0.00023169
10 *3361:A3 *3361:A1 9.60875e-05
11 *3361:B1 *3361:A1 3.99614e-06
12 *3362:A *3362:B 0
13 *3362:C *3361:A1 1.5424e-05
14 *3365:A *3371:D 2.32013e-05
15 *3365:A *731:28 2.32866e-05
16 *3940:RESET_B *3939:D 0.000369097
17 *4022:A *3361:A1 5.33005e-05
18 *294:10 *3362:B 3.99614e-06
19 *297:12 *3361:A1 0.000126446
20 *565:18 *3362:B 6.444e-05
21 *565:26 *3362:B 3.15318e-05
22 *687:12 *3361:A1 0.000126446
23 *715:12 *3939:D 0.000195471
*RES
1 *3250:Y *731:4 9.3 
2 *731:4 *3939:D 23.5143 
3 *731:4 *731:19 1.35714 
4 *731:19 *3365:B 9.3 
5 *731:19 *731:28 2.19643 
6 *731:28 *3361:A1 22.1393 
7 *731:28 *3371:D 10.2643 
8 *3939:D *3362:B 22.0286 
*END

*D_NET *732 0.00388761
*CONN
*I *3360:B1 I *D sky130_fd_sc_hd__a21o_4
*I *3359:A I *D sky130_fd_sc_hd__nand3_2
*I *3940:D I *D sky130_fd_sc_hd__dfrtp_2
*I *3221:Y O *D sky130_fd_sc_hd__nand2_4
*CAP
1 *3360:B1 6.90557e-05
2 *3359:A 9.30759e-05
3 *3940:D 0
4 *3221:Y 0.000284538
5 *732:27 0.000794983
6 *732:12 0.00091739
7 *3352:A *3359:A 1.00332e-05
8 *3352:C *3359:A 0.000148312
9 *3940:CLK *732:27 0.000482791
10 *4023:A *732:27 3.7542e-05
11 *4027:A *732:12 8.92761e-05
12 *178:27 *3359:A 1.21398e-05
13 *292:10 *732:27 0.000314779
14 *675:10 *732:12 8.27732e-05
15 *681:10 *732:12 0.000136951
16 *687:24 *732:12 0.000413969
*RES
1 *3221:Y *732:12 26.175 
2 *732:12 *3940:D 9.3 
3 *732:12 *732:27 12.625 
4 *732:27 *3359:A 20.55 
5 *732:27 *3360:B1 10.2464 
*END

*D_NET *733 0.0064912
*CONN
*I *3374:A I *D sky130_fd_sc_hd__and3_2
*I *3386:B1 I *D sky130_fd_sc_hd__a21o_2
*I *3941:D I *D sky130_fd_sc_hd__dfrtp_2
*I *3227:Y O *D sky130_fd_sc_hd__inv_2
*CAP
1 *3374:A 5.34762e-05
2 *3386:B1 0.000118108
3 *3941:D 0.00101659
4 *3227:Y 0.000260819
5 *733:37 0.000355828
6 *733:12 0.00146165
7 *3370:C *733:37 9.66977e-05
8 *3372:A2 *3941:D 0.000224
9 *3372:A2 *733:37 4.3537e-05
10 *3372:C1 *733:12 0.000154104
11 *3374:B *3374:A 0.000128161
12 *3376:A1 *3374:A 0.000150625
13 *3386:A1 *3386:B1 8.12154e-05
14 *3386:A1 *733:37 5.33005e-05
15 *3386:A2 *3386:B1 9.90367e-05
16 *3941:RESET_B *3941:D 0.000857766
17 *3941:RESET_B *733:12 0
18 *3941:RESET_B *733:37 0.000175431
19 *4017:A *3941:D 2.95726e-05
20 *176:27 *733:37 0.000356152
21 *281:38 *3374:A 3.17148e-05
22 *282:14 *3386:B1 0.000268403
23 *282:14 *733:37 5.51918e-05
24 *282:31 *3386:B1 3.99614e-06
25 *282:31 *733:37 0.000313647
26 *304:22 *733:37 4.7801e-05
27 *318:8 *3386:B1 0
28 *728:8 *3941:D 5.43733e-05
*RES
1 *3227:Y *733:12 23.0143 
2 *733:12 *3941:D 28.0143 
3 *733:12 *733:37 7.25 
4 *733:37 *3386:B1 13.1571 
5 *733:37 *3374:A 20.2464 
*END

*D_NET *734 0.00136269
*CONN
*I *3942:D I *D sky130_fd_sc_hd__dfrtp_2
*I *3233:Y O *D sky130_fd_sc_hd__inv_2
*CAP
1 *3942:D 0.000428066
2 *3233:Y 0.000428066
3 *3232:B *3942:D 5.49489e-05
4 *3233:A *3942:D 3.18747e-05
5 *3909:RESET_B *3942:D 0
6 *3942:CLK *3942:D 6.81786e-05
7 *175:22 *3942:D 0
8 *180:20 *3942:D 0.000351554
9 *712:24 *3942:D 0
*RES
1 *3233:Y *3942:D 35.4036 
*END

*D_NET *735 0.00143048
*CONN
*I *3395:B I *D sky130_fd_sc_hd__xor2_2
*I *3943:D I *D sky130_fd_sc_hd__dfrtp_2
*I *3234:Y O *D sky130_fd_sc_hd__xnor2_4
*CAP
1 *3395:B 0.000149558
2 *3943:D 6.76052e-05
3 *3234:Y 0.000217163
4 *3395:B *3357:B 0.000367382
5 *3395:B *3395:A 0.000184739
6 *3395:B *898:10 0
7 *3943:D *898:10 0.000103285
8 *3943:CLK *3943:D 0.000199698
9 *15:30 *3395:B 0.000141053
*RES
1 *3234:Y *3943:D 30.1536 
2 *3234:Y *3395:B 23.8625 
*END

*D_NET *736 0.00175434
*CONN
*I *3914:D I *D sky130_fd_sc_hd__dfrtp_2
*I *3934:Q O *D sky130_fd_sc_hd__dfrtp_2
*CAP
1 *3914:D 0.000811503
2 *3934:Q 0.000811503
3 *3914:D *3904:D 0
4 *3914:D *3935:D 3.56976e-05
5 *3934:RESET_B *3914:D 4.85567e-05
6 *3935:RESET_B *3914:D 4.70821e-05
*RES
1 *3934:Q *3914:D 38.85 
*END

*D_NET *737 0.00179265
*CONN
*I *3915:D I *D sky130_fd_sc_hd__dfrtp_2
*I *3935:Q O *D sky130_fd_sc_hd__dfrtp_2
*CAP
1 *3915:D 0.000506676
2 *3935:Q 0.000506676
3 *3915:D *3904:D 0.000511886
4 *3915:D *3919:D 6.74815e-05
5 *681:22 *3915:D 0.000199934
6 *726:25 *3915:D 0
*RES
1 *3935:Q *3915:D 37.9214 
*END

*D_NET *738 0.00221409
*CONN
*I *3916:D I *D sky130_fd_sc_hd__dfrtp_2
*I *3936:Q O *D sky130_fd_sc_hd__dfrtp_2
*CAP
1 *3916:D 0.00081115
2 *3936:Q 0.00081115
3 *3916:D *3905:D 0
4 *3916:D *3912:D 0
5 *3916:D *3937:D 0.00015425
6 *3907:RESET_B *3916:D 0
7 *3918:D *3916:D 0
8 *3936:RESET_B *3916:D 0
9 *191:10 *3916:D 0
10 *374:10 *3916:D 0.00012401
11 *607:10 *3916:D 0.00015304
12 *607:18 *3916:D 0.00016049
13 *607:22 *3916:D 0
*RES
1 *3936:Q *3916:D 43.5821 
*END

*D_NET *739 0.00233018
*CONN
*I *3917:D I *D sky130_fd_sc_hd__dfrtp_2
*I *3937:Q O *D sky130_fd_sc_hd__dfrtp_2
*CAP
1 *3917:D 0.000897058
2 *3937:Q 0.000897058
3 *3917:D *3906:D 0.00029513
4 *3917:D *3921:D 0.000153923
5 *3449:A *3917:D 2.89016e-05
6 *3906:CLK *3917:D 2.69965e-05
7 *3906:RESET_B *3917:D 0
8 *3916:RESET_B *3917:D 0
9 *3917:RESET_B *3917:D 3.11088e-05
10 *3918:D *3917:D 0
11 *564:18 *3917:D 0
12 *710:16 *3917:D 0
*RES
1 *3937:Q *3917:D 45.5464 
*END

*D_NET *740 0.00174322
*CONN
*I *3420:A0 I *D sky130_fd_sc_hd__mux4_2
*I *3484:A0 I *D sky130_fd_sc_hd__mux2_2
*I *3760:Q O *D sky130_fd_sc_hd__dfxtp_2
*CAP
1 *3420:A0 0.000241348
2 *3484:A0 0.000130651
3 *3760:Q 0
4 *740:6 0.000372
5 *3420:S1 *3420:A0 1.24368e-05
6 *3422:A1 *3420:A0 0.000356022
7 *3440:A1 *3420:A0 9.56968e-05
8 *3440:A1 *3484:A0 0.000132292
9 *3484:A1 *3484:A0 9.91086e-05
10 *3485:A *3484:A0 0
11 *3498:S *3484:A0 1.02504e-05
12 *625:50 *3420:A0 0.000166976
13 *625:50 *3484:A0 0.000126439
*RES
1 *3760:Q *740:6 13.8 
2 *740:6 *3484:A0 17.2643 
3 *740:6 *3420:A0 20.2821 
*END

*D_NET *741 0.00146345
*CONN
*I *3430:A0 I *D sky130_fd_sc_hd__mux4_2
*I *3486:A0 I *D sky130_fd_sc_hd__mux2_2
*I *3761:Q O *D sky130_fd_sc_hd__dfxtp_2
*CAP
1 *3430:A0 8.86155e-05
2 *3486:A0 0.000136263
3 *3761:Q 0.000158326
4 *741:6 0.000383204
5 *3430:A0 *3608:A0 1.18064e-05
6 *3430:A0 *797:10 4.46186e-06
7 *3430:S0 *3430:A0 0.000250201
8 *3431:A2 *3430:A0 0.000197984
9 *3487:A *3430:A0 2.78822e-05
10 *3976:A *3430:A0 2.00015e-05
11 *488:27 *3486:A0 6.86693e-05
12 *488:27 *741:6 0.000116039
*RES
1 *3761:Q *741:6 11.4786 
2 *741:6 *3486:A0 11.0857 
3 *741:6 *3430:A0 21.9518 
*END

*D_NET *742 0.00215512
*CONN
*I *3438:A0 I *D sky130_fd_sc_hd__mux4_2
*I *3488:A0 I *D sky130_fd_sc_hd__mux2_2
*I *3762:Q O *D sky130_fd_sc_hd__dfxtp_2
*CAP
1 *3438:A0 0.000161967
2 *3488:A0 0.000182282
3 *3762:Q 0.00023697
4 *742:8 0.000581219
5 *3438:A0 *3438:A1 0.0001399
6 *3438:A0 *798:8 1.17968e-05
7 *3439:A1 *3438:A0 7.80039e-05
8 *3488:A1 *3488:A0 0
9 *3489:A *3438:A0 0.000268634
10 *3489:A *3488:A0 0.000267625
11 *3644:A1 *742:8 9.84673e-05
12 *4061:A *3488:A0 0
13 *664:48 *3438:A0 0.000106117
14 *664:48 *742:8 2.21384e-05
*RES
1 *3762:Q *742:8 16.8 
2 *742:8 *3488:A0 18.175 
3 *742:8 *3438:A0 18.925 
*END

*D_NET *743 0.00281809
*CONN
*I *3446:A0 I *D sky130_fd_sc_hd__mux4_2
*I *3490:A0 I *D sky130_fd_sc_hd__mux2_2
*I *3763:Q O *D sky130_fd_sc_hd__dfxtp_2
*CAP
1 *3446:A0 0.000305726
2 *3490:A0 0.00028654
3 *3763:Q 0.00021828
4 *743:8 0.000810546
5 *3446:A0 *799:12 0.000341854
6 *3447:A1 *3446:A0 0
7 *3490:A1 *3490:A0 0.000230475
8 *3763:CLK *3490:A0 0.000146533
9 *3763:D *3446:A0 0
10 *3763:D *3490:A0 8.93347e-05
11 *619:21 *3446:A0 0
12 *619:94 *3446:A0 0.000388798
*RES
1 *3763:Q *743:8 12.7286 
2 *743:8 *3490:A0 15.175 
3 *743:8 *3446:A0 26.6214 
*END

*D_NET *744 0.00169917
*CONN
*I *3455:A0 I *D sky130_fd_sc_hd__mux4_2
*I *3492:A0 I *D sky130_fd_sc_hd__mux2_2
*I *3764:Q O *D sky130_fd_sc_hd__dfxtp_2
*CAP
1 *3455:A0 0.00011936
2 *3492:A0 0.000286605
3 *3764:Q 0.000299532
4 *744:8 0.000705497
5 *3455:A0 *3455:A1 5.52238e-05
6 *3455:A0 *800:8 4.55219e-05
7 *3492:A0 *800:8 0.000104887
8 *3455:S0 *3455:A0 0
9 *3615:A *3455:A0 0
10 *3764:D *3492:A0 0
11 *380:22 *3455:A0 8.25485e-05
*RES
1 *3764:Q *744:8 17.2107 
2 *744:8 *3492:A0 19.3893 
3 *744:8 *3455:A0 16.5857 
*END

*D_NET *745 0.00109734
*CONN
*I *3462:A0 I *D sky130_fd_sc_hd__mux4_2
*I *3494:A0 I *D sky130_fd_sc_hd__mux2_2
*I *3765:Q O *D sky130_fd_sc_hd__dfxtp_2
*CAP
1 *3462:A0 7.31318e-05
2 *3494:A0 0.000181206
3 *3765:Q 0.000112786
4 *745:8 0.000367124
5 *3446:S0 *3462:A0 0.000124749
6 *3446:S0 *3494:A0 8.19254e-05
7 *3446:S0 *745:8 3.4689e-05
8 *634:31 *3462:A0 6.95906e-05
9 *672:32 *3494:A0 5.54817e-06
10 *692:38 *3462:A0 4.65934e-05
*RES
1 *3765:Q *745:8 15.1571 
2 *745:8 *3494:A0 17.2643 
3 *745:8 *3462:A0 16.05 
*END

*D_NET *746 0.00241393
*CONN
*I *3496:A0 I *D sky130_fd_sc_hd__mux2_2
*I *3470:A0 I *D sky130_fd_sc_hd__mux4_2
*I *3766:Q O *D sky130_fd_sc_hd__dfxtp_2
*CAP
1 *3496:A0 0.000645191
2 *3470:A0 8.234e-05
3 *3766:Q 9.43554e-05
4 *746:6 0.000821886
5 *3470:A0 *3470:A1 0.000101545
6 *3496:A1 *3496:A0 0.000561015
7 *3619:A *746:6 6.05161e-06
8 *488:65 *3470:A0 0.000101545
*RES
1 *3766:Q *746:6 10.2464 
2 *746:6 *3470:A0 20.175 
3 *746:6 *3496:A0 17.6571 
*END

*D_NET *747 0.00191312
*CONN
*I *3498:A0 I *D sky130_fd_sc_hd__mux2_2
*I *3479:A0 I *D sky130_fd_sc_hd__mux4_2
*I *3767:Q O *D sky130_fd_sc_hd__dfxtp_2
*CAP
1 *3498:A0 0.000173142
2 *3479:A0 0.000333905
3 *3767:Q 0
4 *747:4 0.000507047
5 *3479:A0 *3479:A1 9.41642e-05
6 *3479:S0 *3498:A0 0.000145477
7 *3479:S1 *3479:A0 8.60521e-05
8 *3498:S *3498:A0 1.32293e-05
9 *3499:A *3498:A0 2.59355e-05
10 *3767:D *3479:A0 9.41642e-05
11 *719:12 *3479:A0 7.6644e-05
12 *719:12 *3498:A0 0.000308409
13 *719:68 *3479:A0 5.49544e-05
*RES
1 *3767:Q *747:4 9.3 
2 *747:4 *3479:A0 22.8714 
3 *747:4 *3498:A0 22.9071 
*END

*D_NET *748 0.00128876
*CONN
*I *3416:A2 I *D sky130_fd_sc_hd__mux4_2
*I *3501:A0 I *D sky130_fd_sc_hd__mux2_2
*I *3768:Q O *D sky130_fd_sc_hd__dfxtp_2
*CAP
1 *3416:A2 9.29596e-05
2 *3501:A0 0.000259369
3 *3768:Q 3.2467e-05
4 *748:8 0.000384796
5 *3501:A1 *3501:A0 9.83442e-05
6 *3518:A0 *3416:A2 0
7 *3518:S *3501:A0 0
8 *3744:S *3416:A2 0.000202842
9 *3744:S *3501:A0 0.000198705
10 *626:18 *748:8 1.92789e-05
*RES
1 *3768:Q *748:8 14.3357 
2 *748:8 *3501:A0 18.9429 
3 *748:8 *3416:A2 16.3536 
*END

*D_NET *749 0.00288372
*CONN
*I *3503:A0 I *D sky130_fd_sc_hd__mux2_2
*I *3426:A2 I *D sky130_fd_sc_hd__mux4_2
*I *3769:Q O *D sky130_fd_sc_hd__dfxtp_2
*CAP
1 *3503:A0 0.000191709
2 *3426:A2 0
3 *3769:Q 0.000235168
4 *749:10 0.000426876
5 *3476:S0 *749:10 0.000107845
6 *3747:A *3503:A0 0.000462033
7 *3747:A *749:10 0.000259326
8 *3881:D *3503:A0 0.000451352
9 *3881:D *749:10 0.000328904
10 *4026:A *3503:A0 6.57032e-05
11 *356:14 *749:10 0.000146061
12 *413:85 *3503:A0 0.000135028
13 *413:91 *3503:A0 5.52238e-05
14 *562:162 *749:10 1.84865e-05
*RES
1 *3769:Q *749:10 21.4429 
2 *749:10 *3426:A2 13.8 
3 *749:10 *3503:A0 21.4607 
*END

*D_NET *750 0.00186648
*CONN
*I *3434:A2 I *D sky130_fd_sc_hd__mux4_2
*I *3505:A0 I *D sky130_fd_sc_hd__mux2_2
*I *3770:Q O *D sky130_fd_sc_hd__dfxtp_2
*CAP
1 *3434:A2 0.000403514
2 *3505:A0 0
3 *3770:Q 0.000315487
4 *750:12 0.000719001
5 *3505:S *3434:A2 0.000225982
6 *3506:A *750:12 0.00010337
7 *668:51 *750:12 9.91224e-05
*RES
1 *3770:Q *750:12 22.6393 
2 *750:12 *3505:A0 9.3 
3 *750:12 *3434:A2 14.3714 
*END

*D_NET *751 0.00219989
*CONN
*I *3507:A0 I *D sky130_fd_sc_hd__mux2_2
*I *3442:A2 I *D sky130_fd_sc_hd__mux4_2
*I *3771:Q O *D sky130_fd_sc_hd__dfxtp_2
*CAP
1 *3507:A0 1.75349e-05
2 *3442:A2 0.000315528
3 *3771:Q 0.00018284
4 *751:10 0.000515903
5 *3507:A1 *3507:A0 1.55885e-05
6 *3507:S *3507:A0 6.05161e-06
7 *3734:A *3442:A2 3.45899e-05
8 *3751:A *3442:A2 2.99064e-05
9 *3771:CLK *751:10 9.41642e-05
10 *3883:D *3442:A2 0.000148531
11 *395:16 *3442:A2 0
12 *395:16 *751:10 0
13 *413:54 *3442:A2 0.000321731
14 *413:75 *3507:A0 2.89016e-05
15 *413:75 *751:10 9.96264e-05
16 *620:33 *3442:A2 7.90803e-05
17 *620:33 *751:10 0.000145406
18 *729:78 *3442:A2 0.000164512
*RES
1 *3771:Q *751:10 17.5143 
2 *751:10 *3442:A2 21.8179 
3 *751:10 *3507:A0 14.3357 
*END

*D_NET *752 0.00166388
*CONN
*I *3450:A2 I *D sky130_fd_sc_hd__mux4_2
*I *3509:A0 I *D sky130_fd_sc_hd__mux2_2
*I *3772:Q O *D sky130_fd_sc_hd__dfxtp_2
*CAP
1 *3450:A2 0.000426307
2 *3509:A0 0.000113555
3 *3772:Q 0
4 *752:4 0.000539862
5 *3450:S0 *3450:A2 2.51043e-05
6 *3856:CLK *3450:A2 0.000165032
7 *3876:D *3450:A2 8.25843e-06
8 *609:25 *3450:A2 8.20639e-05
9 *609:25 *3509:A0 1.72894e-05
10 *636:17 *3509:A0 6.45442e-05
11 *648:12 *3450:A2 0.000221863
*RES
1 *3772:Q *752:4 9.3 
2 *752:4 *3509:A0 20.4786 
3 *752:4 *3450:A2 25.3893 
*END

*D_NET *753 0.00212246
*CONN
*I *3458:A2 I *D sky130_fd_sc_hd__mux4_2
*I *3511:A0 I *D sky130_fd_sc_hd__mux2_2
*I *3773:Q O *D sky130_fd_sc_hd__dfxtp_2
*CAP
1 *3458:A2 0.000335754
2 *3511:A0 0.000148457
3 *3773:Q 0
4 *753:4 0.000484211
5 *3511:A0 *3458:A3 1.3142e-05
6 *3995:A *3458:A2 9.90367e-05
7 *4013:A *3458:A2 0
8 *461:53 *3511:A0 1.3142e-05
9 *562:37 *3511:A0 4.04673e-05
10 *576:12 *3511:A0 0.000295137
11 *612:16 *3458:A2 0.000518818
12 *612:16 *3511:A0 7.83659e-05
13 *612:51 *3458:A2 1.41642e-05
14 *724:73 *3511:A0 8.17708e-05
*RES
1 *3773:Q *753:4 9.3 
2 *753:4 *3511:A0 22.9071 
3 *753:4 *3458:A2 25.5321 
*END

*D_NET *754 0.00236274
*CONN
*I *3466:A2 I *D sky130_fd_sc_hd__mux4_2
*I *3513:A0 I *D sky130_fd_sc_hd__mux2_2
*I *3774:Q O *D sky130_fd_sc_hd__dfxtp_2
*CAP
1 *3466:A2 0.000564097
2 *3513:A0 0
3 *3774:Q 0.00013596
4 *754:10 0.000700057
5 *3466:A2 *3466:A3 0.000356028
6 *3466:A2 *3530:A1 0
7 *3513:A1 *3466:A2 0.000114829
8 *3513:A1 *754:10 4.25523e-05
9 *3530:S *3466:A2 0.000177227
10 *3530:S *754:10 0.000148189
11 *3970:A *754:10 5.62995e-05
12 *4100:A *3466:A2 0
13 *452:117 *754:10 0
14 *722:33 *3466:A2 6.75007e-05
*RES
1 *3774:Q *754:10 16.6929 
2 *754:10 *3513:A0 13.8 
3 *754:10 *3466:A2 24.1929 
*END

*D_NET *755 0.00204159
*CONN
*I *3515:A0 I *D sky130_fd_sc_hd__mux2_2
*I *3474:A2 I *D sky130_fd_sc_hd__mux4_2
*I *3775:Q O *D sky130_fd_sc_hd__dfxtp_2
*CAP
1 *3515:A0 0.000191919
2 *3474:A2 4.36033e-05
3 *3775:Q 0.000171069
4 *755:10 0.000406591
5 *3474:A2 *3474:A3 5.33005e-05
6 *3515:A0 *3758:A0 5.33005e-05
7 *3515:S *3515:A0 0.000141729
8 *3759:A *3515:A0 0.000322366
9 *3759:A *755:10 0.000198691
10 *613:12 *755:10 6.86792e-05
11 *668:41 *3515:A0 0.000137939
12 *668:41 *755:10 0.000200413
13 *720:16 *3515:A0 4.50349e-06
14 *720:23 *3515:A0 4.74842e-05
*RES
1 *3775:Q *755:10 17.7107 
2 *755:10 *3474:A2 14.3357 
3 *755:10 *3515:A0 19.1571 
*END

*D_NET *756 0.00114801
*CONN
*I *3518:A1 I *D sky130_fd_sc_hd__mux2_2
*I *3416:A3 I *D sky130_fd_sc_hd__mux4_2
*I *3776:Q O *D sky130_fd_sc_hd__dfxtp_2
*CAP
1 *3518:A1 0.000325301
2 *3416:A3 0
3 *3776:Q 0.000138889
4 *756:12 0.000464191
5 *3416:S1 *756:12 0.000100823
6 *3518:S *3518:A1 1.83136e-05
7 *3744:S *756:12 5.01117e-05
8 *584:16 *756:12 5.03772e-05
*RES
1 *3776:Q *756:12 20.5857 
2 *756:12 *3416:A3 9.3 
3 *756:12 *3518:A1 13.1393 
*END

*D_NET *757 0.00110618
*CONN
*I *3426:A3 I *D sky130_fd_sc_hd__mux4_2
*I *3520:A1 I *D sky130_fd_sc_hd__mux2_2
*I *3777:Q O *D sky130_fd_sc_hd__dfxtp_2
*CAP
1 *3426:A3 0
2 *3520:A1 0.000341039
3 *3777:Q 4.45887e-05
4 *757:10 0.000385628
5 *3435:S0 *3520:A1 3.06035e-05
6 *356:14 *757:10 0.000151298
7 *686:10 *757:10 0.00015302
*RES
1 *3777:Q *757:10 20.2464 
2 *757:10 *3520:A1 13.6929 
3 *757:10 *3426:A3 9.3 
*END

*D_NET *758 0.00185862
*CONN
*I *3522:A1 I *D sky130_fd_sc_hd__mux2_2
*I *3434:A3 I *D sky130_fd_sc_hd__mux4_2
*I *3778:Q O *D sky130_fd_sc_hd__dfxtp_2
*CAP
1 *3522:A1 0.000192433
2 *3434:A3 0.000332472
3 *3778:Q 0.000524905
4 *3434:S1 *3434:A3 0.000290865
5 *3778:CLK *3434:A3 3.51284e-05
6 *413:108 *3522:A1 7.89362e-05
7 *614:6 *3434:A3 3.76286e-05
8 *622:23 *3522:A1 7.53919e-05
9 *628:22 *3434:A3 0.000290865
*RES
1 *3778:Q *3434:A3 34.3679 
2 *3778:Q *3522:A1 30.5286 
*END

*D_NET *759 0.00262677
*CONN
*I *3524:A1 I *D sky130_fd_sc_hd__mux2_2
*I *3442:A3 I *D sky130_fd_sc_hd__mux4_2
*I *3779:Q O *D sky130_fd_sc_hd__dfxtp_2
*CAP
1 *3524:A1 0.000286805
2 *3442:A3 0.00021712
3 *3779:Q 0
4 *759:6 0.000503925
5 *3444:A1 *3524:A1 0
6 *3875:CLK *3442:A3 0.000244362
7 *4049:A *3442:A3 0.000129719
8 *422:29 *3442:A3 0.000140697
9 *422:29 *3524:A1 0.0001488
10 *422:39 *3524:A1 5.52238e-05
11 *442:24 *3524:A1 1.19309e-05
12 *601:52 *3442:A3 0.000103267
13 *666:10 *3524:A1 4.70078e-05
14 *687:54 *3442:A3 0.00072766
15 *687:54 *3524:A1 1.02504e-05
*RES
1 *3779:Q *759:6 13.8 
2 *759:6 *3442:A3 23.0321 
3 *759:6 *3524:A1 19.7464 
*END

*D_NET *760 0.00357563
*CONN
*I *3450:A3 I *D sky130_fd_sc_hd__mux4_2
*I *3526:A1 I *D sky130_fd_sc_hd__mux2_2
*I *3780:Q O *D sky130_fd_sc_hd__dfxtp_2
*CAP
1 *3450:A3 9.70603e-05
2 *3526:A1 0.000563112
3 *3780:Q 0.000573975
4 *760:8 0.00123415
5 *3441:A *3526:A1 0
6 *3526:A0 *3450:A3 7.83659e-05
7 *3526:A0 *3526:A1 0.000417571
8 *3526:S *3526:A1 5.33433e-05
9 *3856:CLK *3526:A1 0
10 *544:38 *3526:A1 2.72449e-05
11 *618:25 *3450:A3 0.000268981
12 *648:12 *3450:A3 0.000180173
13 *648:12 *3526:A1 5.7616e-05
14 *648:12 *760:8 2.40379e-05
*RES
1 *3780:Q *760:8 20.0857 
2 *760:8 *3526:A1 23.3357 
3 *760:8 *3450:A3 18.175 
*END

*D_NET *761 0.00263853
*CONN
*I *3528:A1 I *D sky130_fd_sc_hd__mux2_2
*I *3458:A3 I *D sky130_fd_sc_hd__mux4_2
*I *3781:Q O *D sky130_fd_sc_hd__dfxtp_2
*CAP
1 *3528:A1 0.00011545
2 *3458:A3 0.0005399
3 *3781:Q 0.000156371
4 *761:10 0.000811721
5 *3458:S0 *3458:A3 0.000116454
6 *3511:A0 *3458:A3 1.3142e-05
7 *3528:A0 *3458:A3 3.14003e-05
8 *3528:A0 *3528:A1 5.49995e-05
9 *3528:A0 *761:10 9.10894e-05
10 *3994:A *3458:A3 7.04732e-05
11 *388:22 *761:10 7.4057e-06
12 *576:12 *3458:A3 1.78353e-05
13 *612:16 *3458:A3 7.6644e-05
14 *668:12 *3528:A1 2.7152e-05
15 *724:36 *761:10 2.59355e-05
16 *724:73 *3458:A3 0.000382312
17 *724:73 *761:10 0.000100248
*RES
1 *3781:Q *761:10 16.4964 
2 *761:10 *3458:A3 24.6571 
3 *761:10 *3528:A1 15.5679 
*END

*D_NET *762 0.00190411
*CONN
*I *3466:A3 I *D sky130_fd_sc_hd__mux4_2
*I *3530:A1 I *D sky130_fd_sc_hd__mux2_2
*I *3782:Q O *D sky130_fd_sc_hd__dfxtp_2
*CAP
1 *3466:A3 0.000226918
2 *3530:A1 0.000213153
3 *3782:Q 8.02023e-05
4 *762:8 0.000520273
5 *762:8 *786:10 0
6 *3466:A2 *3466:A3 0.000356028
7 *3466:A2 *3530:A1 0
8 *4100:A *3530:A1 9.91086e-05
9 *4100:A *762:8 0.000177948
10 *722:18 *3530:A1 0.000230482
11 *722:33 *762:8 0
*RES
1 *3782:Q *762:8 16.05 
2 *762:8 *3530:A1 17.3179 
3 *762:8 *3466:A3 18.4429 
*END

*D_NET *763 0.00211376
*CONN
*I *3532:A1 I *D sky130_fd_sc_hd__mux2_2
*I *3474:A3 I *D sky130_fd_sc_hd__mux4_2
*I *3783:Q O *D sky130_fd_sc_hd__dfxtp_2
*CAP
1 *3532:A1 0.000225466
2 *3474:A3 0.000250448
3 *3783:Q 0
4 *763:4 0.000475914
5 *3532:A1 *862:10 9.58126e-05
6 *3474:A2 *3474:A3 5.33005e-05
7 *3509:S *3532:A1 0.000125724
8 *413:112 *3532:A1 0.000243627
9 *636:17 *3532:A1 0.000362531
10 *668:41 *3532:A1 0.000225982
11 *668:51 *3532:A1 5.49544e-05
*RES
1 *3783:Q *763:4 9.3 
2 *763:4 *3474:A3 12.7286 
3 *763:4 *3532:A1 25.5679 
*END

*D_NET *764 0.000924008
*CONN
*I *3417:A0 I *D sky130_fd_sc_hd__mux4_2
*I *3536:A0 I *D sky130_fd_sc_hd__mux2_2
*I *3784:Q O *D sky130_fd_sc_hd__dfxtp_2
*CAP
1 *3417:A0 0.000109603
2 *3536:A0 0.000224586
3 *3784:Q 0.000114983
4 *3536:A0 *772:10 0
5 *3417:S0 *3417:A0 0.00034439
6 *3418:A1 *3417:A0 8.70197e-05
7 *3537:A *3417:A0 4.34267e-05
*RES
1 *3784:Q *3536:A0 29.2429 
2 *3536:A0 *3417:A0 21.9036 
*END

*D_NET *765 0.00297448
*CONN
*I *3427:A0 I *D sky130_fd_sc_hd__mux4_2
*I *3538:A0 I *D sky130_fd_sc_hd__mux2_2
*I *3785:Q O *D sky130_fd_sc_hd__dfxtp_2
*CAP
1 *3427:A0 0.000202749
2 *3538:A0 0.000160262
3 *3785:Q 0.000406197
4 *765:10 0.000769208
5 *3536:S *3427:A0 9.77087e-05
6 *3538:A1 *3538:A0 5.52238e-05
7 *3539:A *3538:A0 1.17968e-05
8 *3539:A *765:10 0.000126136
9 *3556:S *765:10 3.36406e-05
10 *3972:A *3427:A0 3.57366e-05
11 *3972:A *3538:A0 0.000436498
12 *4026:A *3538:A0 0.000457969
13 *4026:A *765:10 0.000147055
14 *630:10 *765:10 3.42969e-05
*RES
1 *3785:Q *765:10 20.675 
2 *765:10 *3538:A0 20.2286 
3 *765:10 *3427:A0 17.5679 
*END

*D_NET *766 0.00231944
*CONN
*I *3540:A0 I *D sky130_fd_sc_hd__mux2_2
*I *3435:A0 I *D sky130_fd_sc_hd__mux4_2
*I *3786:Q O *D sky130_fd_sc_hd__dfxtp_2
*CAP
1 *3540:A0 0.000327776
2 *3435:A0 0
3 *3786:Q 0.00033698
4 *766:14 0.000664756
5 *766:14 *3435:A1 4.78907e-05
6 *3435:S0 *3540:A0 7.8195e-05
7 *3435:S0 *766:14 1.25454e-05
8 *3436:A1 *3540:A0 5.48009e-05
9 *3540:A1 *3540:A0 0
10 *3541:A *3540:A0 0.000456841
11 *3559:A *766:14 0
12 *3794:D *3540:A0 0
13 *413:91 *3540:A0 5.49489e-05
14 *578:10 *766:14 0.000165456
15 *622:84 *766:14 0.000119246
*RES
1 *3786:Q *766:14 23.5679 
2 *766:14 *3435:A0 9.3 
3 *766:14 *3540:A0 25.9071 
*END

*D_NET *767 0.00143263
*CONN
*I *3542:A0 I *D sky130_fd_sc_hd__mux2_2
*I *3443:A0 I *D sky130_fd_sc_hd__mux4_2
*I *3787:Q O *D sky130_fd_sc_hd__dfxtp_2
*CAP
1 *3542:A0 0
2 *3443:A0 0.000161366
3 *3787:Q 0.000229132
4 *767:12 0.000390498
5 *3444:A1 *767:12 0
6 *3542:A1 *3443:A0 0.000358963
7 *602:21 *767:12 0.000292669
*RES
1 *3787:Q *767:12 23.0143 
2 *767:12 *3443:A0 12.7107 
3 *767:12 *3542:A0 9.3 
*END

*D_NET *768 0.0038895
*CONN
*I *3544:A0 I *D sky130_fd_sc_hd__mux2_2
*I *3452:A0 I *D sky130_fd_sc_hd__mux4_2
*I *3788:Q O *D sky130_fd_sc_hd__dfxtp_2
*CAP
1 *3544:A0 0.000303868
2 *3452:A0 0
3 *3788:Q 0.000867041
4 *768:10 0.00117091
5 *3453:A2 *3544:A0 1.02504e-05
6 *3453:A2 *768:10 0.000197991
7 *3453:B1 *3544:A0 0.000425694
8 *3453:B1 *768:10 0.000199706
9 *3477:A1 *3544:A0 0.000230568
10 *3477:A2 *3544:A0 5.66971e-05
11 *3544:A1 *3544:A0 2.97578e-05
12 *3788:CLK *768:10 2.61441e-05
13 *3788:D *768:10 3.10887e-05
14 *3796:D *3544:A0 0
15 *388:22 *3544:A0 0.000140524
16 *562:56 *768:10 1.39726e-05
17 *610:6 *768:10 9.60939e-05
18 *612:20 *768:10 5.46079e-05
19 *729:86 *3544:A0 3.45899e-05
*RES
1 *3788:Q *768:10 25.925 
2 *768:10 *3452:A0 13.8 
3 *768:10 *3544:A0 22.6929 
*END

*D_NET *769 0.00187627
*CONN
*I *3459:A0 I *D sky130_fd_sc_hd__mux4_2
*I *3546:A0 I *D sky130_fd_sc_hd__mux2_2
*I *3789:Q O *D sky130_fd_sc_hd__dfxtp_2
*CAP
1 *3459:A0 7.71499e-05
2 *3546:A0 0.000169168
3 *3789:Q 0.000101114
4 *769:8 0.000347431
5 *3459:A0 *3459:A1 0.000270224
6 *769:8 *777:12 7.83366e-05
7 *3459:S1 *3459:A0 5.60962e-05
8 *3460:A1 *3459:A0 0.000137983
9 *3460:A1 *3546:A0 9.91086e-05
10 *3564:A1 *3546:A0 0.000208154
11 *3565:A *3546:A0 0.000189457
12 *3565:A *769:8 2.05938e-05
13 *432:30 *3546:A0 2.14658e-05
14 *666:16 *3546:A0 0
15 *724:115 *3546:A0 9.99853e-05
*RES
1 *3789:Q *769:8 16.05 
2 *769:8 *3546:A0 18.4429 
3 *769:8 *3459:A0 16.3893 
*END

*D_NET *770 0.00184329
*CONN
*I *3548:A0 I *D sky130_fd_sc_hd__mux2_2
*I *3467:A0 I *D sky130_fd_sc_hd__mux4_2
*I *3790:Q O *D sky130_fd_sc_hd__dfxtp_2
*CAP
1 *3548:A0 7.44666e-05
2 *3467:A0 0.000139266
3 *3790:Q 0.000104559
4 *770:10 0.000318292
5 *3467:A0 *3467:A1 0.000434402
6 *3467:A0 *778:14 5.65955e-05
7 *3548:A1 *3467:A0 8.52118e-05
8 *3548:A1 *3548:A0 0.000141734
9 *3566:S *3467:A0 2.12005e-05
10 *3567:A *3467:A0 7.02183e-05
11 *722:76 *3467:A0 0.000397341
*RES
1 *3790:Q *770:10 19.9429 
2 *770:10 *3467:A0 15.3179 
3 *770:10 *3548:A0 11.0857 
*END

*D_NET *771 0.000832356
*CONN
*I *3550:A0 I *D sky130_fd_sc_hd__mux2_2
*I *3476:A0 I *D sky130_fd_sc_hd__mux4_2
*I *3791:Q O *D sky130_fd_sc_hd__dfxtp_2
*CAP
1 *3550:A0 0.000106476
2 *3476:A0 0.000124475
3 *3791:Q 4.52373e-05
4 *771:10 0.000276188
5 *3476:A0 *3476:A1 5.52238e-05
6 *771:10 *3568:A0 0
7 *3476:S0 *3476:A0 4.8035e-05
8 *3476:S0 *3550:A0 4.55516e-05
9 *3477:A2 *771:10 2.79092e-05
10 *3551:A *771:10 0.00010326
*RES
1 *3791:Q *771:10 19.6393 
2 *771:10 *3476:A0 11.4786 
3 *771:10 *3550:A0 11.0679 
*END

*D_NET *772 0.00229482
*CONN
*I *3417:A1 I *D sky130_fd_sc_hd__mux4_2
*I *3554:A0 I *D sky130_fd_sc_hd__mux2_2
*I *3792:Q O *D sky130_fd_sc_hd__dfxtp_2
*CAP
1 *3417:A1 0.000241134
2 *3554:A0 2.31464e-05
3 *3792:Q 0.000483183
4 *772:10 0.000747463
5 *3418:A1 *3417:A1 6.79414e-05
6 *3536:A0 *772:10 0
7 *3536:A1 *772:10 0
8 *3537:A *3417:A1 0.000185118
9 *3537:A *3554:A0 3.17148e-05
10 *3537:A *772:10 9.22948e-05
11 *3555:A *3417:A1 5.30764e-05
12 *3555:A *3554:A0 0
13 *3784:D *3417:A1 0.000173359
14 *3784:D *772:10 0.000115563
15 *626:55 *3554:A0 5.83233e-05
16 *626:55 *772:10 9.25014e-06
17 *686:122 *3417:A1 1.32552e-05
*RES
1 *3792:Q *772:10 21.7643 
2 *772:10 *3554:A0 14.5321 
3 *772:10 *3417:A1 28.5321 
*END

*D_NET *773 0.00268009
*CONN
*I *3556:A0 I *D sky130_fd_sc_hd__mux2_2
*I *3427:A1 I *D sky130_fd_sc_hd__mux4_2
*I *3793:Q O *D sky130_fd_sc_hd__dfxtp_2
*CAP
1 *3556:A0 0.000294729
2 *3427:A1 4.32799e-05
3 *3793:Q 0.000442262
4 *773:10 0.000780271
5 *3427:S1 *3427:A1 5.33005e-05
6 *3427:S1 *773:10 9.91086e-05
7 *3536:S *3427:A1 2.28598e-05
8 *3539:A *3556:A0 0
9 *3556:S *3556:A0 0.00027958
10 *3793:D *3556:A0 0.000400677
11 *3793:D *773:10 0.00012501
12 *4077:A *3556:A0 0
13 *4077:A *773:10 0.000139009
14 *694:8 *3556:A0 0
*RES
1 *3793:Q *773:10 20.0857 
2 *773:10 *3427:A1 14.7464 
3 *773:10 *3556:A0 21.2643 
*END

*D_NET *774 0.00220927
*CONN
*I *3558:A0 I *D sky130_fd_sc_hd__mux2_2
*I *3435:A1 I *D sky130_fd_sc_hd__mux4_2
*I *3794:Q O *D sky130_fd_sc_hd__dfxtp_2
*CAP
1 *3558:A0 0.000287068
2 *3435:A1 0.000378151
3 *3794:Q 3.49381e-05
4 *774:6 0.000700157
5 *3436:A1 *3558:A0 4.61453e-05
6 *3541:A *3558:A0 0.000148901
7 *3554:S *3558:A0 0.000132322
8 *3558:A1 *3558:A0 0
9 *3786:D *3558:A0 0.000102515
10 *3794:D *3435:A1 0.00015136
11 *3810:CLK *3558:A0 5.66971e-05
12 *688:85 *3435:A1 0.000103832
13 *688:85 *774:6 1.92905e-05
14 *766:14 *3435:A1 4.78907e-05
*RES
1 *3794:Q *774:6 9.83571 
2 *774:6 *3435:A1 24.1929 
3 *774:6 *3558:A0 25.3357 
*END

*D_NET *775 0.00092126
*CONN
*I *3560:A0 I *D sky130_fd_sc_hd__mux2_2
*I *3443:A1 I *D sky130_fd_sc_hd__mux4_2
*I *3795:Q O *D sky130_fd_sc_hd__dfxtp_2
*CAP
1 *3560:A0 4.45388e-05
2 *3443:A1 0
3 *3795:Q 0.000148406
4 *775:10 0.000192945
5 *3443:S1 *775:10 6.94441e-06
6 *3542:A1 *3560:A0 0.000201442
7 *3542:A1 *775:10 1.00887e-05
8 *442:24 *3560:A0 0.000191353
9 *442:24 *775:10 0.000125542
*RES
1 *3795:Q *775:10 16.3893 
2 *775:10 *3443:A1 13.8 
3 *775:10 *3560:A0 16.3536 
*END

*D_NET *776 0.00122268
*CONN
*I *3452:A1 I *D sky130_fd_sc_hd__mux4_2
*I *3562:A0 I *D sky130_fd_sc_hd__mux2_2
*I *3796:Q O *D sky130_fd_sc_hd__dfxtp_2
*CAP
1 *3452:A1 3.73289e-05
2 *3562:A0 0.000223509
3 *3796:Q 5.70864e-05
4 *776:8 0.000317924
5 *3450:S1 *3562:A0 0.000222034
6 *3453:B1 *3562:A0 0.000193184
7 *3453:B1 *776:8 7.83027e-05
8 *3597:S *3562:A0 1.78649e-05
9 *686:35 *3562:A0 4.13122e-06
10 *686:35 *776:8 7.13161e-05
*RES
1 *3796:Q *776:8 15.7464 
2 *776:8 *3562:A0 19.8357 
3 *776:8 *3452:A1 14.3357 
*END

*D_NET *777 0.0024622
*CONN
*I *3564:A0 I *D sky130_fd_sc_hd__mux2_2
*I *3459:A1 I *D sky130_fd_sc_hd__mux4_2
*I *3797:Q O *D sky130_fd_sc_hd__dfxtp_2
*CAP
1 *3564:A0 0
2 *3459:A1 0.000163886
3 *3797:Q 0.000456252
4 *777:12 0.000620138
5 *3459:A0 *3459:A1 0.000270224
6 *3459:S0 *3459:A1 0.000391694
7 *3459:S1 *3459:A1 0.000156371
8 *3803:CLK *777:12 4.01768e-05
9 *3803:D *777:12 3.32132e-06
10 *422:39 *777:12 4.29179e-05
11 *452:111 *777:12 0.000176226
12 *666:10 *777:12 5.29648e-05
13 *666:16 *777:12 9.69119e-06
14 *769:8 *777:12 7.83366e-05
*RES
1 *3797:Q *777:12 27.2821 
2 *777:12 *3459:A1 14.9071 
3 *777:12 *3564:A0 9.3 
*END

*D_NET *778 0.00161947
*CONN
*I *3566:A0 I *D sky130_fd_sc_hd__mux2_2
*I *3467:A1 I *D sky130_fd_sc_hd__mux4_2
*I *3798:Q O *D sky130_fd_sc_hd__dfxtp_2
*CAP
1 *3566:A0 0
2 *3467:A1 0.000279375
3 *3798:Q 0.000153942
4 *778:14 0.000433317
5 *3467:A0 *3467:A1 0.000434402
6 *3467:A0 *778:14 5.65955e-05
7 *3468:A1 *3467:A1 2.59355e-05
8 *3548:S *778:14 4.32865e-05
9 *3566:S *3467:A1 5.49544e-05
10 *3566:S *778:14 5.15722e-05
11 *3567:A *3467:A1 8.60897e-05
12 *635:10 *778:14 0
*RES
1 *3798:Q *778:14 21.0143 
2 *778:14 *3467:A1 15.7286 
3 *778:14 *3566:A0 9.3 
*END

*D_NET *779 0.00204872
*CONN
*I *3476:A1 I *D sky130_fd_sc_hd__mux4_2
*I *3568:A0 I *D sky130_fd_sc_hd__mux2_2
*I *3799:Q O *D sky130_fd_sc_hd__dfxtp_2
*CAP
1 *3476:A1 9.21308e-05
2 *3568:A0 0.000171057
3 *3799:Q 0.000286151
4 *779:10 0.000549338
5 *3476:A0 *3476:A1 5.52238e-05
6 *3476:S0 *3476:A1 9.23695e-05
7 *3477:A2 *3568:A0 0.000309905
8 *3551:A *3568:A0 5.52302e-05
9 *3551:A *779:10 0
10 *3568:A1 *3568:A0 0.000121165
11 *452:37 *779:10 6.70624e-05
12 *544:116 *779:10 0
13 *611:16 *3476:A1 7.02611e-05
14 *611:16 *3568:A0 5.10822e-05
15 *662:40 *3568:A0 2.59355e-05
16 *666:49 *3568:A0 4.8841e-05
17 *666:49 *779:10 5.29648e-05
18 *771:10 *3568:A0 0
*RES
1 *3799:Q *779:10 17.925 
2 *779:10 *3568:A0 19.0143 
3 *779:10 *3476:A1 15.9786 
*END

*D_NET *780 0.00150917
*CONN
*I *3572:A0 I *D sky130_fd_sc_hd__mux2_2
*I *3417:A2 I *D sky130_fd_sc_hd__mux4_2
*I *3800:Q O *D sky130_fd_sc_hd__dfxtp_2
*CAP
1 *3572:A0 0.000194949
2 *3417:A2 0.000155163
3 *3800:Q 0.000350112
4 *3416:S1 *3417:A2 0.000226513
5 *3572:S *3572:A0 3.11088e-05
6 *3589:A0 *3572:A0 1.35465e-05
7 *3590:A *3572:A0 0.000363399
8 *3808:D *3572:A0 0.000174377
*RES
1 *3800:Q *3417:A2 20.7786 
2 *3800:Q *3572:A0 33.225 
*END

*D_NET *781 0.00148118
*CONN
*I *3574:A0 I *D sky130_fd_sc_hd__mux2_2
*I *3427:A2 I *D sky130_fd_sc_hd__mux4_2
*I *3801:Q O *D sky130_fd_sc_hd__dfxtp_2
*CAP
1 *3574:A0 0.000352079
2 *3427:A2 0
3 *3801:Q 5.96411e-05
4 *781:8 0.00041172
5 *3574:A1 *3574:A0 0.000243529
6 *3575:A *3574:A0 0
7 *3592:A *3574:A0 0.000246629
8 *3592:A *781:8 0.000102545
9 *624:14 *3574:A0 2.2927e-05
10 *624:96 *3574:A0 4.21108e-05
*RES
1 *3801:Q *781:8 15.1393 
2 *781:8 *3427:A2 13.8 
3 *781:8 *3574:A0 21.8179 
*END

*D_NET *782 0.00228006
*CONN
*I *3435:A2 I *D sky130_fd_sc_hd__mux4_2
*I *3576:A0 I *D sky130_fd_sc_hd__mux2_2
*I *3802:Q O *D sky130_fd_sc_hd__dfxtp_2
*CAP
1 *3435:A2 0.000526491
2 *3576:A0 1.36122e-05
3 *3802:Q 0.000247026
4 *782:10 0.000787129
5 *3434:S0 *3435:A2 5.66943e-05
6 *3572:S *3435:A2 2.24405e-05
7 *3572:S *3576:A0 5.90911e-05
8 *3572:S *782:10 6.77059e-05
9 *3594:A *3435:A2 0.000317534
10 *3727:S *3576:A0 4.03342e-05
11 *3727:S *782:10 3.62206e-05
12 *622:63 *3435:A2 1.12391e-05
13 *622:84 *3435:A2 4.04683e-05
14 *688:85 *3435:A2 5.40745e-05
*RES
1 *3802:Q *782:10 17.0143 
2 *782:10 *3576:A0 14.5321 
3 *782:10 *3435:A2 30.425 
*END

*D_NET *783 0.00238422
*CONN
*I *3443:A2 I *D sky130_fd_sc_hd__mux4_2
*I *3578:A0 I *D sky130_fd_sc_hd__mux2_2
*I *3803:Q O *D sky130_fd_sc_hd__dfxtp_2
*CAP
1 *3443:A2 0.000340053
2 *3578:A0 0.000367088
3 *3803:Q 0
4 *783:4 0.000707141
5 *3578:A1 *3578:A0 3.37853e-05
6 *3579:A *3578:A0 5.61819e-05
7 *3795:CLK *3443:A2 0.000170375
8 *3795:CLK *3578:A0 0.000265207
9 *3795:D *3443:A2 0.00010182
10 *3803:D *3578:A0 0.000181114
11 *422:39 *3578:A0 4.79773e-05
12 *535:26 *3443:A2 3.75959e-05
13 *620:42 *3443:A2 7.58841e-05
*RES
1 *3803:Q *783:4 9.3 
2 *783:4 *3578:A0 24.8179 
3 *783:4 *3443:A2 23.1571 
*END

*D_NET *784 0.00144343
*CONN
*I *3580:A0 I *D sky130_fd_sc_hd__mux2_2
*I *3452:A2 I *D sky130_fd_sc_hd__mux4_2
*I *3804:Q O *D sky130_fd_sc_hd__dfxtp_2
*CAP
1 *3580:A0 0.00013429
2 *3452:A2 0.000158604
3 *3804:Q 0.000244256
4 *784:10 0.000537149
5 *3452:A2 *3597:A1 3.27461e-05
6 *3450:S1 *3452:A2 0
7 *3481:A2 *784:10 0.000141729
8 *3580:S *3580:A0 6.5883e-05
9 *562:106 *3452:A2 0
10 *618:6 *3580:A0 2.70242e-05
11 *633:45 *3580:A0 0.000101754
12 *686:35 *3452:A2 0
*RES
1 *3804:Q *784:10 17.4071 
2 *784:10 *3452:A2 16.6571 
3 *784:10 *3580:A0 16.4071 
*END

*D_NET *785 0.00159457
*CONN
*I *3459:A2 I *D sky130_fd_sc_hd__mux4_2
*I *3582:A0 I *D sky130_fd_sc_hd__mux2_2
*I *3805:Q O *D sky130_fd_sc_hd__dfxtp_2
*CAP
1 *3459:A2 0.000278805
2 *3582:A0 0.000121658
3 *3805:Q 0.000400463
4 *3458:S0 *3582:A0 0
5 *3599:A0 *3582:A0 7.83659e-05
6 *3797:D *3459:A2 8.00806e-05
7 *4013:A *3459:A2 0.000270243
8 *662:24 *3459:A2 0.000226507
9 *666:16 *3582:A0 5.52302e-05
10 *724:49 *3582:A0 8.32171e-05
11 *724:115 *3459:A2 0
*RES
1 *3805:Q *3582:A0 30.0821 
2 *3805:Q *3459:A2 33.2429 
*END

*D_NET *786 0.00276039
*CONN
*I *3467:A2 I *D sky130_fd_sc_hd__mux4_2
*I *3584:A0 I *D sky130_fd_sc_hd__mux2_2
*I *3806:Q O *D sky130_fd_sc_hd__dfxtp_2
*CAP
1 *3467:A2 0.000427314
2 *3584:A0 0.000384712
3 *3806:Q 0.000261863
4 *786:10 0.00107389
5 *3467:A2 *3467:A3 0.000272338
6 *3584:A1 *3584:A0 1.6578e-05
7 *3584:S *3584:A0 0.000131657
8 *3814:CLK *3584:A0 1.46148e-05
9 *3814:D *3584:A0 7.01199e-06
10 *4100:A *786:10 0
11 *722:33 *786:10 0.000170415
12 *762:8 *786:10 0
*RES
1 *3806:Q *786:10 24.1929 
2 *786:10 *3584:A0 14.2643 
3 *786:10 *3467:A2 16.6393 
*END

*D_NET *787 0.00180077
*CONN
*I *3586:A0 I *D sky130_fd_sc_hd__mux2_2
*I *3476:A2 I *D sky130_fd_sc_hd__mux4_2
*I *3807:Q O *D sky130_fd_sc_hd__dfxtp_2
*CAP
1 *3586:A0 0.000267057
2 *3476:A2 4.36033e-05
3 *3807:Q 0.000232515
4 *787:10 0.000543176
5 *3476:A2 *3476:A3 5.33005e-05
6 *787:10 *3603:A1 7.6997e-05
7 *3586:A1 *3586:A0 4.85049e-06
8 *3799:D *3586:A0 0.000212185
9 *3799:D *787:10 0.000252387
10 *452:37 *3586:A0 5.018e-05
11 *452:48 *3586:A0 7.92229e-06
12 *662:40 *787:10 5.65955e-05
13 *695:44 *3586:A0 0
*RES
1 *3807:Q *787:10 17.8 
2 *787:10 *3476:A2 14.3357 
3 *787:10 *3586:A0 18.8536 
*END

*D_NET *788 0.000923024
*CONN
*I *3589:A1 I *D sky130_fd_sc_hd__mux2_2
*I *3417:A3 I *D sky130_fd_sc_hd__mux4_2
*I *3808:Q O *D sky130_fd_sc_hd__dfxtp_2
*CAP
1 *3589:A1 3.62243e-05
2 *3417:A3 0.000111771
3 *3808:Q 5.54804e-05
4 *788:8 0.000203476
5 *3416:S1 *3417:A3 5.71472e-05
6 *3589:S *3417:A3 0.000273095
7 *3589:S *3589:A1 6.8255e-05
8 *3792:CLK *3417:A3 2.41848e-05
9 *3792:CLK *3589:A1 2.29112e-05
10 *585:38 *3417:A3 7.04796e-05
*RES
1 *3808:Q *788:8 14.3357 
2 *788:8 *3417:A3 17.8 
3 *788:8 *3589:A1 14.8357 
*END

*D_NET *789 0.00201409
*CONN
*I *3427:A3 I *D sky130_fd_sc_hd__mux4_2
*I *3591:A1 I *D sky130_fd_sc_hd__mux2_2
*I *3809:Q O *D sky130_fd_sc_hd__dfxtp_2
*CAP
1 *3427:A3 0
2 *3591:A1 0.000195602
3 *3809:Q 0.000318711
4 *789:10 0.000514313
5 *3427:S1 *3591:A1 9.55e-05
6 *3592:A *789:10 0.000101146
7 *3793:CLK *3591:A1 0.000247771
8 *3793:D *3591:A1 0.000101435
9 *3793:D *789:10 8.15843e-05
10 *3809:D *789:10 1.65169e-05
11 *624:14 *3591:A1 0.000143491
12 *624:14 *789:10 0.00014279
13 *624:21 *3591:A1 5.52302e-05
*RES
1 *3809:Q *789:10 19.1571 
2 *789:10 *3591:A1 20.2821 
3 *789:10 *3427:A3 13.8 
*END

*D_NET *790 0.0016162
*CONN
*I *3435:A3 I *D sky130_fd_sc_hd__mux4_2
*I *3593:A1 I *D sky130_fd_sc_hd__mux2_2
*I *3810:Q O *D sky130_fd_sc_hd__dfxtp_2
*CAP
1 *3435:A3 0.000228838
2 *3593:A1 0
3 *3810:Q 0.000150869
4 *790:12 0.000379707
5 *3418:S *790:12 0.000100088
6 *3435:S1 *3435:A3 6.69357e-05
7 *3436:S *790:12 4.25213e-05
8 *3997:A *790:12 5.71028e-05
9 *461:88 *790:12 0.000259723
10 *622:84 *3435:A3 0.000277109
11 *622:84 *790:12 5.33005e-05
*RES
1 *3810:Q *790:12 22.3 
2 *790:12 *3593:A1 9.3 
3 *790:12 *3435:A3 13.2643 
*END

*D_NET *791 0.0010577
*CONN
*I *3443:A3 I *D sky130_fd_sc_hd__mux4_2
*I *3595:A1 I *D sky130_fd_sc_hd__mux2_2
*I *3811:Q O *D sky130_fd_sc_hd__dfxtp_2
*CAP
1 *3443:A3 6.92475e-05
2 *3595:A1 0.000246633
3 *3811:Q 4.56968e-05
4 *791:10 0.000361578
5 *3466:S0 *791:10 0.000127939
6 *535:26 *791:10 0.00015078
7 *620:42 *791:10 1.34741e-05
8 *620:46 *3595:A1 4.23526e-05
*RES
1 *3811:Q *791:10 20.2464 
2 *791:10 *3595:A1 12.8714 
3 *791:10 *3443:A3 10.2464 
*END

*D_NET *792 0.00145844
*CONN
*I *3452:A3 I *D sky130_fd_sc_hd__mux4_2
*I *3597:A1 I *D sky130_fd_sc_hd__mux2_2
*I *3812:Q O *D sky130_fd_sc_hd__dfxtp_2
*CAP
1 *3452:A3 0.000124353
2 *3597:A1 0.000422337
3 *3812:Q 0.000101385
4 *792:8 0.000648075
5 *3450:S1 *3597:A1 0
6 *3452:A2 *3597:A1 3.27461e-05
7 *3452:S0 *792:8 5.09296e-05
8 *3562:A1 *3597:A1 2.36643e-05
9 *3597:S *3597:A1 5.49489e-05
10 *562:75 *3597:A1 0
11 *562:106 *3597:A1 0
*RES
1 *3812:Q *792:8 11.0857 
2 *792:8 *3597:A1 24.5321 
3 *792:8 *3452:A3 11.0679 
*END

*D_NET *793 0.000957035
*CONN
*I *3599:A1 I *D sky130_fd_sc_hd__mux2_2
*I *3459:A3 I *D sky130_fd_sc_hd__mux4_2
*I *3813:Q O *D sky130_fd_sc_hd__dfxtp_2
*CAP
1 *3599:A1 0.000157381
2 *3459:A3 0.000244975
3 *3813:Q 0.000402356
4 *3599:A0 *3599:A1 4.48206e-05
5 *4013:A *3599:A1 6.26559e-05
6 *452:37 *3599:A1 2.8266e-06
7 *461:143 *3599:A1 2.27416e-05
8 *461:168 *3599:A1 1.92789e-05
*RES
1 *3813:Q *3459:A3 22.0286 
2 *3813:Q *3599:A1 30.7964 
*END

*D_NET *794 0.00191881
*CONN
*I *3467:A3 I *D sky130_fd_sc_hd__mux4_2
*I *3601:A1 I *D sky130_fd_sc_hd__mux2_2
*I *3814:Q O *D sky130_fd_sc_hd__dfxtp_2
*CAP
1 *3467:A3 0.000303771
2 *3601:A1 0.000321572
3 *3814:Q 0
4 *794:4 0.000625343
5 *3467:A2 *3467:A3 0.000272338
6 *3556:S *3601:A1 1.62025e-05
7 *3601:S *3601:A1 0.000356677
8 *4100:A *3601:A1 2.29031e-05
*RES
1 *3814:Q *794:4 9.3 
2 *794:4 *3601:A1 23.1571 
3 *794:4 *3467:A3 13.55 
*END

*D_NET *795 0.000807763
*CONN
*I *3476:A3 I *D sky130_fd_sc_hd__mux4_2
*I *3603:A1 I *D sky130_fd_sc_hd__mux2_2
*I *3815:Q O *D sky130_fd_sc_hd__dfxtp_2
*CAP
1 *3476:A3 0.00013967
2 *3603:A1 4.99543e-05
3 *3815:Q 7.11331e-05
4 *795:6 0.000260758
5 *3452:S0 *3603:A1 2.16315e-05
6 *3476:A2 *3476:A3 5.33005e-05
7 *611:16 *3476:A3 9.77793e-05
8 *695:44 *3476:A3 3.60109e-06
9 *695:44 *3603:A1 2.38651e-06
10 *695:44 *795:6 3.05522e-05
11 *787:10 *3603:A1 7.6997e-05
*RES
1 *3815:Q *795:6 10.2464 
2 *795:6 *3603:A1 19.3357 
3 *795:6 *3476:A3 11.9071 
*END

*D_NET *796 0.00170409
*CONN
*I *3420:A1 I *D sky130_fd_sc_hd__mux4_2
*I *3606:A0 I *D sky130_fd_sc_hd__mux2_2
*I *3816:Q O *D sky130_fd_sc_hd__dfxtp_2
*CAP
1 *3420:A1 0.000248387
2 *3606:A0 8.60077e-05
3 *3816:Q 0.000136458
4 *796:10 0.000470853
5 *3420:A1 *3420:A3 9.90431e-05
6 *3420:S1 *3420:A1 9.71683e-05
7 *608:10 *796:10 0.000140243
8 *628:22 *3606:A0 8.90891e-05
9 *628:22 *796:10 2.09722e-05
10 *636:17 *3606:A0 0.000247614
11 *636:17 *796:10 6.8255e-05
*RES
1 *3816:Q *796:10 16.1929 
2 *796:10 *3606:A0 16.9607 
3 *796:10 *3420:A1 17.2286 
*END

*D_NET *797 0.00185201
*CONN
*I *3608:A0 I *D sky130_fd_sc_hd__mux2_2
*I *3430:A1 I *D sky130_fd_sc_hd__mux4_2
*I *3817:Q O *D sky130_fd_sc_hd__dfxtp_2
*CAP
1 *3608:A0 0.000192302
2 *3430:A1 5.75418e-05
3 *3817:Q 0.000156839
4 *797:10 0.000406683
5 *3430:A0 *3608:A0 1.18064e-05
6 *3430:A0 *797:10 4.46186e-06
7 *3430:S0 *3608:A0 0.000389861
8 *3487:A *797:10 0
9 *3976:A *3430:A1 5.33005e-05
10 *3976:A *797:10 0.00010326
11 *404:40 *3608:A0 0.000136951
12 *623:16 *3608:A0 7.90803e-05
13 *633:25 *3608:A0 0.000173406
14 *633:25 *797:10 1.17968e-05
15 *669:14 *3608:A0 4.58194e-05
16 *669:24 *3608:A0 2.89016e-05
*RES
1 *3817:Q *797:10 16.3893 
2 *797:10 *3430:A1 14.7464 
3 *797:10 *3608:A0 20.4429 
*END

*D_NET *798 0.00233261
*CONN
*I *3610:A0 I *D sky130_fd_sc_hd__mux2_2
*I *3438:A1 I *D sky130_fd_sc_hd__mux4_2
*I *3818:Q O *D sky130_fd_sc_hd__dfxtp_2
*CAP
1 *3610:A0 0.000159715
2 *3438:A1 0.000339917
3 *3818:Q 0.000179629
4 *798:8 0.000679262
5 *3438:A0 *3438:A1 0.0001399
6 *3438:A0 *798:8 1.17968e-05
7 *3439:A1 *3610:A0 4.75428e-05
8 *3439:A1 *798:8 6.8646e-06
9 *3489:A *798:8 0.000339142
10 *3610:A1 *3610:A0 2.27416e-05
11 *3610:S *3610:A0 0.00018372
12 *3762:D *798:8 5.1601e-05
13 *488:123 *3610:A0 0.000146523
14 *664:48 *3438:A1 2.42516e-05
*RES
1 *3818:Q *798:8 18.7821 
2 *798:8 *3438:A1 18.05 
3 *798:8 *3610:A0 18.3357 
*END

*D_NET *799 0.00123473
*CONN
*I *3446:A1 I *D sky130_fd_sc_hd__mux4_2
*I *3612:A0 I *D sky130_fd_sc_hd__mux2_2
*I *3819:Q O *D sky130_fd_sc_hd__dfxtp_2
*CAP
1 *3446:A1 0
2 *3612:A0 7.97637e-05
3 *3819:Q 0.00032393
4 *799:12 0.000403694
5 *3446:A0 *799:12 0.000341854
6 *3763:D *3612:A0 4.88284e-05
7 *619:94 *3612:A0 3.66572e-05
*RES
1 *3819:Q *799:12 24.8536 
2 *799:12 *3612:A0 20.2464 
3 *799:12 *3446:A1 9.3 
*END

*D_NET *800 0.00190788
*CONN
*I *3614:A0 I *D sky130_fd_sc_hd__mux2_2
*I *3455:A1 I *D sky130_fd_sc_hd__mux4_2
*I *3820:Q O *D sky130_fd_sc_hd__dfxtp_2
*CAP
1 *3614:A0 0.00017105
2 *3455:A1 0.000276802
3 *3820:Q 0.00020432
4 *800:8 0.000652173
5 *3455:A0 *3455:A1 5.52238e-05
6 *3455:A0 *800:8 4.55219e-05
7 *3492:A0 *800:8 0.000104887
8 *3610:S *3614:A0 5.71472e-05
9 *3829:CLK *3614:A0 0
10 *3829:CLK *800:8 0
11 *380:22 *3614:A0 0.000137224
12 *380:22 *800:8 0.000107442
13 *670:68 *3614:A0 9.60875e-05
*RES
1 *3820:Q *800:8 18.7821 
2 *800:8 *3455:A1 17.2286 
3 *800:8 *3614:A0 17.1036 
*END

*D_NET *801 0.00166826
*CONN
*I *3616:A0 I *D sky130_fd_sc_hd__mux2_2
*I *3462:A1 I *D sky130_fd_sc_hd__mux4_2
*I *3821:Q O *D sky130_fd_sc_hd__dfxtp_2
*CAP
1 *3616:A0 0.000219674
2 *3462:A1 0.000164141
3 *3821:Q 0.000154527
4 *801:8 0.000538343
5 *3462:A1 *3462:A3 9.97164e-05
6 *3462:S1 *3462:A1 5.71472e-05
7 *3617:A *3616:A0 0
8 *591:12 *3462:A1 2.50656e-05
9 *591:12 *3616:A0 1.92528e-05
10 *634:31 *3462:A1 0
11 *634:31 *3616:A0 0
12 *670:68 *3462:A1 3.17148e-05
13 *670:68 *3616:A0 0.00029513
14 *670:68 *801:8 5.33005e-05
15 *723:62 *3616:A0 1.02504e-05
*RES
1 *3821:Q *801:8 15.5679 
2 *801:8 *3462:A1 17.1929 
3 *801:8 *3616:A0 18.175 
*END

*D_NET *802 0.00228475
*CONN
*I *3470:A1 I *D sky130_fd_sc_hd__mux4_2
*I *3618:A0 I *D sky130_fd_sc_hd__mux2_2
*I *3822:Q O *D sky130_fd_sc_hd__dfxtp_2
*CAP
1 *3470:A1 0.000200637
2 *3618:A0 8.83751e-05
3 *3822:Q 0.000361367
4 *802:8 0.000650379
5 *3470:A0 *3470:A1 0.000101545
6 *3619:A *3470:A1 0.000267266
7 *3619:A *3618:A0 0.000104974
8 *488:65 *3470:A1 0.000304357
9 *488:65 *3618:A0 0.000101545
10 *672:14 *802:8 5.33005e-05
11 *674:8 *3470:A1 0
12 *721:26 *3618:A0 5.10039e-05
*RES
1 *3822:Q *802:8 17.6214 
2 *802:8 *3618:A0 16.0857 
3 *802:8 *3470:A1 20.0321 
*END

*D_NET *803 0.00222749
*CONN
*I *3479:A1 I *D sky130_fd_sc_hd__mux4_2
*I *3620:A0 I *D sky130_fd_sc_hd__mux2_2
*I *3823:Q O *D sky130_fd_sc_hd__dfxtp_2
*CAP
1 *3479:A1 0.000238406
2 *3620:A0 0.000165838
3 *3823:Q 0
4 *803:4 0.000404245
5 *3479:A0 *3479:A1 9.41642e-05
6 *3479:S0 *3479:A1 0.00031345
7 *3479:S1 *3479:A1 9.60939e-05
8 *3620:A1 *3620:A0 0
9 *605:6 *3479:A1 0.000312209
10 *605:6 *3620:A0 5.52302e-05
11 *605:14 *3620:A0 1.00399e-05
12 *636:17 *3620:A0 0.000108839
13 *719:10 *3479:A1 0.000137983
14 *719:68 *3479:A1 0.000290986
*RES
1 *3823:Q *803:4 9.3 
2 *803:4 *3620:A0 21.9964 
3 *803:4 *3479:A1 26.3179 
*END

*D_NET *804 0.00143282
*CONN
*I *3420:A2 I *D sky130_fd_sc_hd__mux4_2
*I *3623:A0 I *D sky130_fd_sc_hd__mux2_2
*I *3824:Q O *D sky130_fd_sc_hd__dfxtp_2
*CAP
1 *3420:A2 0.000140829
2 *3623:A0 0.000339889
3 *3824:Q 0.000480719
4 *3420:A2 *3420:A3 5.33005e-05
5 *3623:A0 *3640:A0 0.000173797
6 *3623:A1 *3623:A0 7.57312e-05
7 *3623:S *3623:A0 0.000100262
8 *3816:D *3623:A0 0
9 *636:17 *3623:A0 6.82922e-05
*RES
1 *3824:Q *3623:A0 34.7964 
2 *3824:Q *3420:A2 20.3679 
*END

*D_NET *805 0.00216961
*CONN
*I *3430:A2 I *D sky130_fd_sc_hd__mux4_2
*I *3625:A0 I *D sky130_fd_sc_hd__mux2_2
*I *3825:Q O *D sky130_fd_sc_hd__dfxtp_2
*CAP
1 *3430:A2 0.00017682
2 *3625:A0 0.000142526
3 *3825:Q 5.35717e-05
4 *805:8 0.000372918
5 *3430:A2 *3642:A0 5.52238e-05
6 *3430:S1 *3430:A2 4.66203e-05
7 *3478:S0 *3430:A2 0.000140667
8 *3478:S0 *3625:A0 2.8266e-06
9 *3478:S1 *3625:A0 0.000192489
10 *3625:A1 *3625:A0 0.00010096
11 *582:10 *3430:A2 0.000295844
12 *582:10 *3625:A0 0.00012401
13 *593:30 *805:8 4.00276e-06
14 *665:14 *3625:A0 0.000317503
15 *665:34 *3625:A0 0.000143633
*RES
1 *3825:Q *805:8 14.3357 
2 *805:8 *3625:A0 19.675 
3 *805:8 *3430:A2 19.3179 
*END

*D_NET *806 0.00188028
*CONN
*I *3627:A0 I *D sky130_fd_sc_hd__mux2_2
*I *3438:A2 I *D sky130_fd_sc_hd__mux4_2
*I *3826:Q O *D sky130_fd_sc_hd__dfxtp_2
*CAP
1 *3627:A0 0.000184733
2 *3438:A2 0.000354751
3 *3826:Q 8.74044e-05
4 *806:8 0.000626888
5 *3438:A2 *3438:A3 8.58932e-05
6 *3438:A2 *814:6 1.04766e-05
7 *3627:A1 *3627:A0 0.000100341
8 *3637:S *3627:A0 0
9 *3645:A *3627:A0 0.000125731
10 *3645:A *806:8 0.000200791
11 *3834:D *3627:A0 6.98302e-05
12 *3834:D *806:8 3.34366e-05
13 *583:18 *3627:A0 0
14 *664:48 *3627:A0 0
15 *664:48 *806:8 0
*RES
1 *3826:Q *806:8 16.3536 
2 *806:8 *3438:A2 18.0321 
3 *806:8 *3627:A0 17.925 
*END

*D_NET *807 0.00101419
*CONN
*I *3446:A2 I *D sky130_fd_sc_hd__mux4_2
*I *3629:A0 I *D sky130_fd_sc_hd__mux2_2
*I *3827:Q O *D sky130_fd_sc_hd__dfxtp_2
*CAP
1 *3446:A2 0.000125507
2 *3629:A0 0.000198786
3 *3827:Q 0
4 *807:4 0.000324292
5 *3446:S1 *3446:A2 0.000180202
6 *3446:S1 *3629:A0 0.000185408
*RES
1 *3827:Q *807:4 9.3 
2 *807:4 *3629:A0 21.4071 
3 *807:4 *3446:A2 11.0679 
*END

*D_NET *808 0.00256392
*CONN
*I *3455:A2 I *D sky130_fd_sc_hd__mux4_2
*I *3631:A0 I *D sky130_fd_sc_hd__mux2_2
*I *3828:Q O *D sky130_fd_sc_hd__dfxtp_2
*CAP
1 *3455:A2 0
2 *3631:A0 0.000383609
3 *3828:Q 0.000397562
4 *808:12 0.000781171
5 *808:12 *3648:A0 1.17968e-05
6 *808:12 *816:10 9.14466e-05
7 *3438:S0 *808:12 2.11419e-05
8 *3615:A *3631:A0 7.48091e-05
9 *3820:CLK *808:12 6.94441e-06
10 *3820:D *3631:A0 2.04401e-05
11 *3820:D *808:12 0.000289204
12 *594:10 *808:12 3.10725e-05
13 *664:34 *808:12 0.000315522
14 *664:48 *3631:A0 0.000139202
*RES
1 *3828:Q *808:12 27.4964 
2 *808:12 *3631:A0 15.6214 
3 *808:12 *3455:A2 9.3 
*END

*D_NET *809 0.00185898
*CONN
*I *3462:A2 I *D sky130_fd_sc_hd__mux4_2
*I *3633:A0 I *D sky130_fd_sc_hd__mux2_2
*I *3829:Q O *D sky130_fd_sc_hd__dfxtp_2
*CAP
1 *3462:A2 0.000268567
2 *3633:A0 0.000231741
3 *3829:Q 8.37817e-05
4 *809:6 0.00058409
5 *3494:A1 *3633:A0 5.66971e-05
6 *3765:CLK *3462:A2 0.000184941
7 *3765:CLK *3633:A0 8.02652e-05
8 *3765:CLK *809:6 3.69047e-06
9 *664:18 *3633:A0 3.52429e-05
10 *664:34 *3633:A0 0.000141729
11 *723:24 *3633:A0 0.000140908
12 *723:38 *3633:A0 4.73286e-05
*RES
1 *3829:Q *809:6 10.2464 
2 *809:6 *3633:A0 24.05 
3 *809:6 *3462:A2 22.4429 
*END

*D_NET *810 0.00205444
*CONN
*I *3470:A2 I *D sky130_fd_sc_hd__mux4_2
*I *3635:A0 I *D sky130_fd_sc_hd__mux2_2
*I *3830:Q O *D sky130_fd_sc_hd__dfxtp_2
*CAP
1 *3470:A2 0.000290255
2 *3635:A0 0.000235555
3 *3830:Q 0.00052581
4 *3470:A2 *818:8 8.00806e-05
5 *3635:A1 *3635:A0 5.61819e-05
6 *3635:S *3635:A0 5.66971e-05
7 *3822:CLK *3470:A2 8.71847e-05
8 *562:214 *3635:A0 9.35419e-05
9 *562:248 *3635:A0 2.59511e-05
10 *665:12 *3470:A2 0
11 *665:12 *3635:A0 0.000150476
12 *685:18 *3470:A2 0.000145584
13 *692:30 *3635:A0 0.000178959
14 *721:51 *3635:A0 0.000128161
*RES
1 *3830:Q *3635:A0 34.4036 
2 *3830:Q *3470:A2 33.2429 
*END

*D_NET *811 0.00175521
*CONN
*I *3479:A2 I *D sky130_fd_sc_hd__mux4_2
*I *3637:A0 I *D sky130_fd_sc_hd__mux2_2
*I *3831:Q O *D sky130_fd_sc_hd__dfxtp_2
*CAP
1 *3479:A2 0.00026981
2 *3637:A0 8.80468e-05
3 *3831:Q 4.96131e-05
4 *811:8 0.00040747
5 *3479:A2 *3479:A3 0.000386895
6 *811:8 *3479:A3 0.000148514
7 *3637:A1 *3637:A0 9.83388e-05
8 *3637:S *3637:A0 9.58126e-05
9 *3654:A1 *3479:A2 2.21254e-05
10 *3654:A1 *811:8 0.000147718
11 *719:12 *3479:A2 0
12 *719:18 *3637:A0 4.08637e-05
*RES
1 *3831:Q *811:8 15.7464 
2 *811:8 *3637:A0 15.9786 
3 *811:8 *3479:A2 20.0321 
*END

*D_NET *812 0.00237553
*CONN
*I *3420:A3 I *D sky130_fd_sc_hd__mux4_2
*I *3640:A0 I *D sky130_fd_sc_hd__mux2_2
*I *3832:Q O *D sky130_fd_sc_hd__dfxtp_2
*CAP
1 *3420:A3 8.96084e-05
2 *3640:A0 0.000199066
3 *3832:Q 0.000147559
4 *812:8 0.000436234
5 *3420:A1 *3420:A3 9.90431e-05
6 *3420:A2 *3420:A3 5.33005e-05
7 *3607:A *3640:A0 0.000271872
8 *3623:A0 *3640:A0 0.000173797
9 *3640:A1 *3640:A0 0.000313895
10 *3816:D *3640:A0 0
11 *3816:D *812:8 0
12 *488:48 *3640:A0 2.89979e-05
13 *636:17 *3640:A0 0.00027338
14 *636:17 *812:8 0.000288776
*RES
1 *3832:Q *812:8 17.5679 
2 *812:8 *3640:A0 21.0857 
3 *812:8 *3420:A3 15.5679 
*END

*D_NET *813 0.000979974
*CONN
*I *3430:A3 I *D sky130_fd_sc_hd__mux4_2
*I *3642:A0 I *D sky130_fd_sc_hd__mux2_2
*I *3833:Q O *D sky130_fd_sc_hd__dfxtp_2
*CAP
1 *3430:A3 0
2 *3642:A0 0.000298992
3 *3833:Q 7.45724e-05
4 *813:10 0.000373564
5 *3430:A2 *3642:A0 5.52238e-05
6 *3430:S1 *3642:A0 2.286e-05
7 *3478:S0 *813:10 0
8 *3609:A *813:10 0.000154762
9 *3642:S *813:10 0
*RES
1 *3833:Q *813:10 20.2464 
2 *813:10 *3642:A0 14.5143 
3 *813:10 *3430:A3 9.3 
*END

*D_NET *814 0.000919745
*CONN
*I *3438:A3 I *D sky130_fd_sc_hd__mux4_2
*I *3644:A0 I *D sky130_fd_sc_hd__mux2_2
*I *3834:Q O *D sky130_fd_sc_hd__dfxtp_2
*CAP
1 *3438:A3 0.000171777
2 *3644:A0 0.000115325
3 *3834:Q 2.6845e-05
4 *814:6 0.000313946
5 *3438:A2 *3438:A3 8.58932e-05
6 *3438:A2 *814:6 1.04766e-05
7 *3644:S *3644:A0 6.13812e-05
8 *3818:CLK *3644:A0 1.00887e-05
9 *583:18 *3644:A0 0.000124012
*RES
1 *3834:Q *814:6 9.83571 
2 *814:6 *3644:A0 20.9071 
3 *814:6 *3438:A3 13.0857 
*END

*D_NET *815 0.00147267
*CONN
*I *3646:A0 I *D sky130_fd_sc_hd__mux2_2
*I *3446:A3 I *D sky130_fd_sc_hd__mux4_2
*I *3835:Q O *D sky130_fd_sc_hd__dfxtp_2
*CAP
1 *3646:A0 0.00029463
2 *3446:A3 0.000129047
3 *3835:Q 0.000423677
4 *3446:S1 *3446:A3 5.66971e-05
5 *3646:S *3646:A0 0
6 *3763:D *3446:A3 4.76868e-05
7 *3819:D *3446:A3 0.00015091
8 *3835:CLK *3646:A0 0.0001399
9 *4110:A *3646:A0 9.25014e-06
10 *479:8 *3646:A0 7.50697e-05
11 *595:6 *3446:A3 1.07719e-05
12 *595:6 *3646:A0 0.000135028
13 *672:24 *3646:A0 0
*RES
1 *3835:Q *3446:A3 30.6179 
2 *3835:Q *3646:A0 32.1357 
*END

*D_NET *816 0.000852601
*CONN
*I *3648:A0 I *D sky130_fd_sc_hd__mux2_2
*I *3455:A3 I *D sky130_fd_sc_hd__mux4_2
*I *3836:Q O *D sky130_fd_sc_hd__dfxtp_2
*CAP
1 *3648:A0 8.18828e-05
2 *3455:A3 2.84912e-05
3 *3836:Q 0.000131308
4 *816:10 0.000241682
5 *3455:S0 *816:10 1.51831e-05
6 *3455:S1 *3648:A0 8.91822e-05
7 *3455:S1 *816:10 4.46186e-06
8 *3615:A *3455:A3 5.52302e-05
9 *3764:CLK *816:10 2.11336e-05
10 *725:39 *3648:A0 8.08022e-05
11 *808:12 *3648:A0 1.17968e-05
12 *808:12 *816:10 9.14466e-05
*RES
1 *3836:Q *816:10 16.5857 
2 *816:10 *3455:A3 14.3357 
3 *816:10 *3648:A0 16.05 
*END

*D_NET *817 0.00257965
*CONN
*I *3650:A0 I *D sky130_fd_sc_hd__mux2_2
*I *3462:A3 I *D sky130_fd_sc_hd__mux4_2
*I *3837:Q O *D sky130_fd_sc_hd__dfxtp_2
*CAP
1 *3650:A0 0.00021538
2 *3462:A3 0.000536781
3 *3837:Q 0.000752161
4 *3462:A1 *3462:A3 9.97164e-05
5 *3462:S1 *3462:A3 9.99853e-05
6 *3648:S *3650:A0 0.000103315
7 *3821:D *3462:A3 0.000214739
8 *516:51 *3650:A0 4.46186e-06
9 *591:12 *3462:A3 6.7438e-05
10 *591:14 *3462:A3 5.10256e-05
11 *670:68 *3462:A3 8.76314e-06
12 *670:68 *3650:A0 5.65955e-05
13 *723:38 *3650:A0 0.000369287
*RES
1 *3837:Q *3462:A3 35.7786 
2 *3837:Q *3650:A0 32.85 
*END

*D_NET *818 0.00126608
*CONN
*I *3652:A0 I *D sky130_fd_sc_hd__mux2_2
*I *3470:A3 I *D sky130_fd_sc_hd__mux4_2
*I *3838:Q O *D sky130_fd_sc_hd__dfxtp_2
*CAP
1 *3652:A0 0.000212108
2 *3470:A3 0.000136808
3 *3838:Q 4.07293e-05
4 *818:8 0.000389645
5 *3470:A2 *818:8 8.00806e-05
6 *488:8 *3652:A0 0.00018372
7 *488:27 *3652:A0 3.18988e-05
8 *665:12 *3652:A0 7.1724e-05
9 *665:12 *818:8 3.79467e-05
10 *685:18 *3652:A0 7.36267e-05
11 *685:18 *818:8 7.79781e-06
*RES
1 *3838:Q *818:8 15.1393 
2 *818:8 *3470:A3 15.5679 
3 *818:8 *3652:A0 18.9607 
*END

*D_NET *819 0.00247094
*CONN
*I *3479:A3 I *D sky130_fd_sc_hd__mux4_2
*I *3654:A0 I *D sky130_fd_sc_hd__mux2_2
*I *3839:Q O *D sky130_fd_sc_hd__dfxtp_2
*CAP
1 *3479:A3 0.000288581
2 *3654:A0 0.000152981
3 *3839:Q 0
4 *819:6 0.000441563
5 *3479:A2 *3479:A3 0.000386895
6 *3637:S *3479:A3 0.000315228
7 *3637:S *3654:A0 0.000252353
8 *3654:A1 *3479:A3 0.000166417
9 *3654:A1 *3654:A0 0.00026715
10 *3654:S *3654:A0 5.12625e-05
11 *719:12 *3479:A3 0
12 *811:8 *3479:A3 0.000148514
*RES
1 *3839:Q *819:6 13.8 
2 *819:6 *3654:A0 18.7286 
3 *819:6 *3479:A3 23.0321 
*END

*D_NET *820 0.00198634
*CONN
*I *3419:A0 I *D sky130_fd_sc_hd__mux4_2
*I *3658:A0 I *D sky130_fd_sc_hd__mux2_2
*I *3840:Q O *D sky130_fd_sc_hd__dfxtp_2
*CAP
1 *3419:A0 7.54972e-05
2 *3658:A0 0.000206487
3 *3840:Q 0.000310377
4 *820:8 0.000592362
5 *3419:A0 *828:10 7.58841e-05
6 *3658:A0 *828:10 0.000199775
7 *3676:A *3419:A0 6.69638e-05
8 *3676:A *3658:A0 0.000405694
9 *3692:S *3419:A0 5.33005e-05
10 *498:38 *3658:A0 0
*RES
1 *3840:Q *820:8 17.2107 
2 *820:8 *3658:A0 19.6214 
3 *820:8 *3419:A0 15.3714 
*END

*D_NET *821 0.00140351
*CONN
*I *3429:A0 I *D sky130_fd_sc_hd__mux4_2
*I *3660:A0 I *D sky130_fd_sc_hd__mux2_2
*I *3841:Q O *D sky130_fd_sc_hd__dfxtp_2
*CAP
1 *3429:A0 0
2 *3660:A0 0.00010723
3 *3841:Q 0.000161632
4 *821:10 0.000268861
5 *3430:S0 *3660:A0 0.000334969
6 *516:109 *821:10 1.21258e-05
7 *623:10 *3660:A0 0.000334969
8 *691:16 *821:10 0.000183726
*RES
1 *3841:Q *821:10 12.6393 
2 *821:10 *3660:A0 22.675 
3 *821:10 *3429:A0 9.3 
*END

*D_NET *822 0.00181325
*CONN
*I *3437:A0 I *D sky130_fd_sc_hd__mux4_2
*I *3662:A0 I *D sky130_fd_sc_hd__mux2_2
*I *3842:Q O *D sky130_fd_sc_hd__dfxtp_2
*CAP
1 *3437:A0 0.000365804
2 *3662:A0 0
3 *3842:Q 0.000197632
4 *822:10 0.000563436
5 *3437:S0 *3437:A0 0.000219808
6 *3439:A0 *822:10 0
7 *3439:S *3437:A0 0.000381332
8 *3439:S *822:10 9.25014e-06
9 *3860:D *822:10 0
10 *3868:D *3437:A0 0
11 *366:16 *822:10 0
12 *516:57 *822:10 1.60719e-05
13 *590:42 *3437:A0 5.5782e-05
14 *590:42 *822:10 4.1331e-06
*RES
1 *3842:Q *822:10 16.5857 
2 *822:10 *3662:A0 13.8 
3 *822:10 *3437:A0 22.6036 
*END

*D_NET *823 0.00169174
*CONN
*I *3664:A0 I *D sky130_fd_sc_hd__mux2_2
*I *3445:A0 I *D sky130_fd_sc_hd__mux4_2
*I *3843:Q O *D sky130_fd_sc_hd__dfxtp_2
*CAP
1 *3664:A0 0.000430064
2 *3445:A0 0
3 *3843:Q 0.000344449
4 *823:10 0.000774513
5 *3447:A0 *3664:A0 5.14943e-05
6 *3447:A0 *823:10 5.37741e-06
7 *3664:S *3664:A0 3.86158e-05
8 *373:14 *3664:A0 4.72217e-05
*RES
1 *3843:Q *823:10 18.5321 
2 *823:10 *3445:A0 13.8 
3 *823:10 *3664:A0 21.4071 
*END

*D_NET *824 0.00168206
*CONN
*I *3454:A0 I *D sky130_fd_sc_hd__mux4_2
*I *3666:A0 I *D sky130_fd_sc_hd__mux2_2
*I *3844:Q O *D sky130_fd_sc_hd__dfxtp_2
*CAP
1 *3454:A0 0.000178931
2 *3666:A0 0.000166294
3 *3844:Q 0
4 *824:6 0.000345225
5 *3454:A0 *3454:A1 5.71472e-05
6 *3456:A0 *3454:A0 0.00010096
7 *3666:S *3454:A0 3.34295e-05
8 *3666:S *3666:A0 0.000401429
9 *3861:CLK *3454:A0 0.000114838
10 *3861:CLK *3666:A0 6.75007e-05
11 *516:51 *3666:A0 2.44318e-05
12 *663:43 *3454:A0 0.000191877
*RES
1 *3844:Q *824:6 13.8 
2 *824:6 *3666:A0 18.4429 
3 *824:6 *3454:A0 18.8357 
*END

*D_NET *825 0.00176956
*CONN
*I *3668:A0 I *D sky130_fd_sc_hd__mux2_2
*I *3461:A0 I *D sky130_fd_sc_hd__mux4_2
*I *3845:Q O *D sky130_fd_sc_hd__dfxtp_2
*CAP
1 *3668:A0 0.000119352
2 *3461:A0 0.000202797
3 *3845:Q 0
4 *825:4 0.00032215
5 *3669:A *3668:A0 0.000134284
6 *597:12 *3461:A0 7.74135e-05
7 *634:31 *3461:A0 0.000166847
8 *663:43 *3461:A0 3.97677e-05
9 *663:43 *3668:A0 0.000318107
10 *692:32 *3461:A0 0.000165958
11 *692:38 *3461:A0 0.000222885
*RES
1 *3845:Q *825:4 9.3 
2 *825:4 *3461:A0 24.2286 
3 *825:4 *3668:A0 12.7286 
*END

*D_NET *826 0.00146904
*CONN
*I *3469:A0 I *D sky130_fd_sc_hd__mux4_2
*I *3670:A0 I *D sky130_fd_sc_hd__mux2_2
*I *3846:Q O *D sky130_fd_sc_hd__dfxtp_2
*CAP
1 *3469:A0 0
2 *3670:A0 0.000149851
3 *3846:Q 3.52268e-05
4 *826:8 0.000185078
5 *3470:S0 *3670:A0 3.56785e-05
6 *3470:S0 *826:8 8.91963e-06
7 *3470:S1 *3670:A0 0.000117424
8 *3470:S1 *826:8 4.7659e-05
9 *3472:A2 *826:8 7.89362e-05
10 *3862:CLK *3670:A0 0.00015456
11 *3983:A *3670:A0 0.000182811
12 *498:32 *3670:A0 0.000348877
13 *507:30 *3670:A0 0.000124019
*RES
1 *3846:Q *826:8 15.1393 
2 *826:8 *3670:A0 20.0679 
3 *826:8 *3469:A0 13.8 
*END

*D_NET *827 0.000882037
*CONN
*I *3478:A0 I *D sky130_fd_sc_hd__mux4_2
*I *3672:A0 I *D sky130_fd_sc_hd__mux2_2
*I *3847:Q O *D sky130_fd_sc_hd__dfxtp_2
*CAP
1 *3478:A0 0.000183005
2 *3672:A0 0.000252738
3 *3847:Q 6.97328e-05
4 *3478:A0 *3478:A1 0.000182592
5 *3478:S0 *3478:A0 9.93555e-05
6 *3480:A0 *3672:A0 3.006e-05
7 *3672:S *3672:A0 6.45537e-05
*RES
1 *3847:Q *3672:A0 29.2429 
2 *3672:A0 *3478:A0 22.0107 
*END

*D_NET *828 0.00205347
*CONN
*I *3675:A0 I *D sky130_fd_sc_hd__mux2_2
*I *3419:A1 I *D sky130_fd_sc_hd__mux4_2
*I *3848:Q O *D sky130_fd_sc_hd__dfxtp_2
*CAP
1 *3675:A0 0.000192133
2 *3419:A1 7.89197e-05
3 *3848:Q 0.00034031
4 *828:10 0.000611362
5 *3419:A0 *828:10 7.58841e-05
6 *3419:S0 *3419:A1 0.000132607
7 *3422:A0 *3675:A0 7.83659e-05
8 *3658:A0 *828:10 0.000199775
9 *3675:A1 *3675:A0 0
10 *3675:A1 *828:10 0
11 *3676:A *3675:A0 2.93043e-05
12 *3676:A *828:10 2.00659e-05
13 *3692:S *3419:A1 0.000210203
14 *625:82 *828:10 8.45372e-05
*RES
1 *3848:Q *828:10 20.05 
2 *828:10 *3419:A1 16.3893 
3 *828:10 *3675:A0 16.8893 
*END

*D_NET *829 0.00178671
*CONN
*I *3429:A1 I *D sky130_fd_sc_hd__mux4_2
*I *3677:A0 I *D sky130_fd_sc_hd__mux2_2
*I *3849:Q O *D sky130_fd_sc_hd__dfxtp_2
*CAP
1 *3429:A1 9.93534e-05
2 *3677:A0 8.77466e-05
3 *3849:Q 0.000259941
4 *829:8 0.000447041
5 *3429:A1 *3711:A1 2.8135e-05
6 *3677:A0 *3711:A1 8.16457e-05
7 *3675:S *3429:A1 9.8291e-05
8 *3675:S *3677:A0 0.000234033
9 *507:46 *3677:A0 1.00887e-05
10 *516:109 *3429:A1 9.41642e-05
11 *599:22 *829:8 0.000346266
*RES
1 *3849:Q *829:8 17.2107 
2 *829:8 *3677:A0 16.9607 
3 *829:8 *3429:A1 16.0857 
*END

*D_NET *830 0.00156318
*CONN
*I *3679:A0 I *D sky130_fd_sc_hd__mux2_2
*I *3437:A1 I *D sky130_fd_sc_hd__mux4_2
*I *3850:Q O *D sky130_fd_sc_hd__dfxtp_2
*CAP
1 *3679:A0 0.000183065
2 *3437:A1 0
3 *3850:Q 0.000277814
4 *830:10 0.000460879
5 *3679:A0 *3437:A3 9.8126e-05
6 *3679:A0 *846:8 1.07719e-05
7 *3679:A1 *3679:A0 0.000354078
8 *3680:A *3679:A0 5.35386e-05
9 *3706:S *3679:A0 0
10 *3706:S *830:10 0
11 *366:16 *3679:A0 8.89326e-06
12 *366:16 *830:10 0.000116017
13 *516:57 *830:10 0
*RES
1 *3850:Q *830:10 18.925 
2 *830:10 *3437:A1 13.8 
3 *830:10 *3679:A0 18.8536 
*END

*D_NET *831 0.00174439
*CONN
*I *3445:A1 I *D sky130_fd_sc_hd__mux4_2
*I *3681:A0 I *D sky130_fd_sc_hd__mux2_2
*I *3851:Q O *D sky130_fd_sc_hd__dfxtp_2
*CAP
1 *3445:A1 3.7311e-05
2 *3681:A0 0.000382371
3 *3851:Q 0.000126517
4 *831:10 0.0005462
5 *3447:A1 *3681:A0 0
6 *3681:S *3681:A0 1.90936e-05
7 *4111:A *3681:A0 0.000136676
8 *619:55 *3681:A0 0.000297594
9 *619:55 *831:10 6.19467e-05
10 *670:44 *3681:A0 0.000136676
*RES
1 *3851:Q *831:10 15.9786 
2 *831:10 *3681:A0 22.5679 
3 *831:10 *3445:A1 14.3357 
*END

*D_NET *832 0.00171163
*CONN
*I *3683:A0 I *D sky130_fd_sc_hd__mux2_2
*I *3454:A1 I *D sky130_fd_sc_hd__mux4_2
*I *3852:Q O *D sky130_fd_sc_hd__dfxtp_2
*CAP
1 *3683:A0 0.000249189
2 *3454:A1 0.000329961
3 *3852:Q 0
4 *832:6 0.000579151
5 *3454:A0 *3454:A1 5.71472e-05
6 *3456:A0 *3454:A1 9.77274e-05
7 *3683:A1 *3683:A0 4.11262e-05
8 *3683:S *3683:A0 0.000147774
9 *3861:CLK *3454:A1 0.00020955
10 *380:22 *3454:A1 0
*RES
1 *3852:Q *832:6 13.8 
2 *832:6 *3454:A1 21.8714 
3 *832:6 *3683:A0 18.5679 
*END

*D_NET *833 0.00181406
*CONN
*I *3461:A1 I *D sky130_fd_sc_hd__mux4_2
*I *3685:A0 I *D sky130_fd_sc_hd__mux2_2
*I *3853:Q O *D sky130_fd_sc_hd__dfxtp_2
*CAP
1 *3461:A1 0.000140491
2 *3685:A0 0.000140814
3 *3853:Q 0.000188918
4 *833:8 0.000470224
5 *3445:S0 *833:8 5.52302e-05
6 *3845:D *3685:A0 0.000173083
7 *3867:CLK *833:8 5.94433e-06
8 *597:18 *833:8 2.22999e-05
9 *634:31 *3461:A1 0.000221994
10 *634:31 *3685:A0 0.000340059
11 *685:24 *3461:A1 5.49995e-05
*RES
1 *3853:Q *833:8 15.9786 
2 *833:8 *3685:A0 18.175 
3 *833:8 *3461:A1 17.1929 
*END

*D_NET *834 0.00184137
*CONN
*I *3469:A1 I *D sky130_fd_sc_hd__mux4_2
*I *3687:A0 I *D sky130_fd_sc_hd__mux2_2
*I *3854:Q O *D sky130_fd_sc_hd__dfxtp_2
*CAP
1 *3469:A1 0.000116876
2 *3687:A0 0
3 *3854:Q 0.000359889
4 *834:10 0.000476765
5 *3469:S0 *3469:A1 3.45899e-05
6 *3469:S1 *3469:A1 5.33005e-05
7 *3721:S *3469:A1 7.93793e-05
8 *3721:S *834:10 6.87672e-05
9 *525:39 *834:10 0.000310286
10 *685:18 *3469:A1 0.000197378
11 *685:18 *834:10 0.000144139
*RES
1 *3854:Q *834:10 19.5679 
2 *834:10 *3687:A0 13.8 
3 *834:10 *3469:A1 17.3 
*END

*D_NET *835 0.00263385
*CONN
*I *3478:A1 I *D sky130_fd_sc_hd__mux4_2
*I *3689:A0 I *D sky130_fd_sc_hd__mux2_2
*I *3855:Q O *D sky130_fd_sc_hd__dfxtp_2
*CAP
1 *3478:A1 0.000140789
2 *3689:A0 0.000148032
3 *3855:Q 0.000261875
4 *835:10 0.000550696
5 *3478:A0 *3478:A1 0.000182592
6 *3478:S0 *3478:A1 0.000219379
7 *3480:A0 *835:10 0.000189267
8 *3672:A1 *3689:A0 8.2607e-05
9 *3673:A *835:10 7.83587e-05
10 *3679:S *3689:A0 0.000141729
11 *507:65 *3689:A0 5.49544e-05
12 *525:60 *3689:A0 0
13 *567:8 *3689:A0 0.000166093
14 *567:8 *835:10 0.00031749
15 *719:82 *3689:A0 9.99853e-05
*RES
1 *3855:Q *835:10 19.5321 
2 *835:10 *3689:A0 17.8179 
3 *835:10 *3478:A1 17.2107 
*END

*D_NET *836 0.00214524
*CONN
*I *3419:A2 I *D sky130_fd_sc_hd__mux4_2
*I *3692:A0 I *D sky130_fd_sc_hd__mux2_2
*I *3856:Q O *D sky130_fd_sc_hd__dfxtp_2
*CAP
1 *3419:A2 0.000301277
2 *3692:A0 0.000468443
3 *3856:Q 0
4 *836:4 0.00076972
5 *3419:A2 *3419:A3 5.50052e-05
6 *3420:S0 *3419:A2 5.07786e-05
7 *3422:A1 *3692:A0 7.74135e-05
8 *3440:A1 *3692:A0 7.74135e-05
9 *3692:S *3692:A0 0.000112962
10 *3864:D *3692:A0 0.000232223
*RES
1 *3856:Q *836:4 9.3 
2 *836:4 *3692:A0 25.2286 
3 *836:4 *3419:A2 13.6929 
*END

*D_NET *837 0.00181364
*CONN
*I *3429:A2 I *D sky130_fd_sc_hd__mux4_2
*I *3694:A0 I *D sky130_fd_sc_hd__mux2_2
*I *3857:Q O *D sky130_fd_sc_hd__dfxtp_2
*CAP
1 *3429:A2 0.000101954
2 *3694:A0 0
3 *3857:Q 0.000415066
4 *837:12 0.00051702
5 *3692:S *3429:A2 0.000130733
6 *3694:A1 *837:12 3.54498e-05
7 *3712:A *837:12 8.9047e-06
8 *3857:D *837:12 0.000228876
9 *516:109 *3429:A2 0.000169277
10 *689:25 *3429:A2 0.000206357
*RES
1 *3857:Q *837:12 23.8714 
2 *837:12 *3694:A0 9.3 
3 *837:12 *3429:A2 13.2821 
*END

*D_NET *838 0.00127375
*CONN
*I *3437:A2 I *D sky130_fd_sc_hd__mux4_2
*I *3696:A0 I *D sky130_fd_sc_hd__mux2_2
*I *3858:Q O *D sky130_fd_sc_hd__dfxtp_2
*CAP
1 *3437:A2 0.000220622
2 *3696:A0 0
3 *3858:Q 0.000103036
4 *838:10 0.000323658
5 *3654:S *838:10 9.91086e-05
6 *3866:D *3437:A2 9.56968e-05
7 *583:12 *3437:A2 0.000219193
8 *583:12 *838:10 0.000150625
9 *621:10 *3437:A2 1.07719e-05
10 *621:16 *3437:A2 2.37817e-05
11 *621:16 *838:10 2.72545e-05
*RES
1 *3858:Q *838:10 16.2821 
2 *838:10 *3696:A0 13.8 
3 *838:10 *3437:A2 18.8357 
*END

*D_NET *839 0.00278881
*CONN
*I *3445:A2 I *D sky130_fd_sc_hd__mux4_2
*I *3698:A0 I *D sky130_fd_sc_hd__mux2_2
*I *3859:Q O *D sky130_fd_sc_hd__dfxtp_2
*CAP
1 *3445:A2 0.000155511
2 *3698:A0 0.000174777
3 *3859:Q 0.000121797
4 *839:8 0.000452085
5 *3445:A2 *3445:A3 0.000139491
6 *3445:S1 *3445:A2 0.000139491
7 *3665:A *3445:A2 0.000189898
8 *3665:A *3698:A0 3.17067e-05
9 *3682:A *3445:A2 0.000353288
10 *3682:A *3698:A0 0.000198691
11 *3685:S *3698:A0 0.000110341
12 *3685:S *839:8 1.36589e-05
13 *3843:D *3698:A0 0
14 *4111:A *3698:A0 0.000354996
15 *516:41 *3698:A0 0
16 *619:55 *3698:A0 0
17 *670:44 *3698:A0 0.000353073
*RES
1 *3859:Q *839:8 15.1571 
2 *839:8 *3698:A0 20.3714 
3 *839:8 *3445:A2 19.8357 
*END

*D_NET *840 0.00141011
*CONN
*I *3454:A2 I *D sky130_fd_sc_hd__mux4_2
*I *3700:A0 I *D sky130_fd_sc_hd__mux2_2
*I *3860:Q O *D sky130_fd_sc_hd__dfxtp_2
*CAP
1 *3454:A2 0.000189632
2 *3700:A0 0.000126034
3 *3860:Q 0
4 *840:6 0.000315666
5 *3454:A2 *3454:A3 0.000224583
6 *3454:S1 *3454:A2 7.83587e-05
7 *3454:S1 *3700:A0 0.000247778
8 *516:51 *3700:A0 3.18676e-05
9 *516:57 *3700:A0 2.89114e-05
10 *725:59 *3454:A2 3.57844e-05
11 *725:59 *3700:A0 0.000131491
*RES
1 *3860:Q *840:6 13.8 
2 *840:6 *3700:A0 17.9071 
3 *840:6 *3454:A2 17.0143 
*END

*D_NET *841 0.00157123
*CONN
*I *3461:A2 I *D sky130_fd_sc_hd__mux4_2
*I *3702:A0 I *D sky130_fd_sc_hd__mux2_2
*I *3861:Q O *D sky130_fd_sc_hd__dfxtp_2
*CAP
1 *3461:A2 0.000109176
2 *3702:A0 0.000381335
3 *3861:Q 0
4 *841:4 0.000490511
5 *3461:A2 *3461:A3 0.000186922
6 *3702:A0 *3461:A3 0.000141734
7 *3702:A0 *3719:A1 7.70035e-05
8 *3703:A *3702:A0 0
9 *3720:A *3702:A0 8.45624e-05
10 *633:25 *3702:A0 0
11 *663:43 *3702:A0 9.99853e-05
*RES
1 *3861:Q *841:4 9.3 
2 *841:4 *3702:A0 25.6393 
3 *841:4 *3461:A2 11.0679 
*END

*D_NET *842 0.000953476
*CONN
*I *3704:A0 I *D sky130_fd_sc_hd__mux2_2
*I *3469:A2 I *D sky130_fd_sc_hd__mux4_2
*I *3862:Q O *D sky130_fd_sc_hd__dfxtp_2
*CAP
1 *3704:A0 0.000133632
2 *3469:A2 2.28969e-05
3 *3862:Q 7.33814e-05
4 *842:8 0.000229911
5 *3469:A2 *3469:A3 5.49995e-05
6 *3704:A0 *3721:A1 0.000139724
7 *3721:S *3704:A0 5.06863e-05
8 *3721:S *842:8 5.85373e-05
9 *691:16 *3704:A0 9.60875e-05
10 *721:79 *3704:A0 4.40513e-06
11 *721:79 *842:8 8.92152e-05
*RES
1 *3862:Q *842:8 16.05 
2 *842:8 *3469:A2 14.3357 
3 *842:8 *3704:A0 16.9964 
*END

*D_NET *843 0.00104379
*CONN
*I *3478:A2 I *D sky130_fd_sc_hd__mux4_2
*I *3706:A0 I *D sky130_fd_sc_hd__mux2_2
*I *3863:Q O *D sky130_fd_sc_hd__dfxtp_2
*CAP
1 *3478:A2 0.000176499
2 *3706:A0 0.00022511
3 *3863:Q 0
4 *843:4 0.000401609
5 *3498:S *3706:A0 7.23369e-05
6 *3706:S *3706:A0 1.00887e-05
7 *3707:A *3706:A0 0
8 *3863:CLK *3478:A2 3.18676e-05
9 *3863:CLK *3706:A0 9.31209e-05
10 *684:48 *3706:A0 3.31535e-05
*RES
1 *3863:Q *843:4 9.3 
2 *843:4 *3706:A0 22.0143 
3 *843:4 *3478:A2 11.4786 
*END

*D_NET *844 0.00114919
*CONN
*I *3419:A3 I *D sky130_fd_sc_hd__mux4_2
*I *3709:A1 I *D sky130_fd_sc_hd__mux2_2
*I *3864:Q O *D sky130_fd_sc_hd__dfxtp_2
*CAP
1 *3419:A3 0.000135799
2 *3709:A1 0.000204708
3 *3864:Q 0
4 *844:6 0.000340508
5 *3419:A2 *3419:A3 5.50052e-05
6 *3422:S *3709:A1 4.49446e-05
7 *3692:S *3419:A3 0.000134362
8 *3692:S *3709:A1 3.02892e-05
9 *3710:A *3419:A3 4.50606e-05
10 *3710:A *3709:A1 0.000101813
11 *562:75 *3419:A3 0
12 *625:82 *3709:A1 5.66971e-05
*RES
1 *3864:Q *844:6 13.8 
2 *844:6 *3709:A1 18.6393 
3 *844:6 *3419:A3 16.9071 
*END

*D_NET *845 0.0019728
*CONN
*I *3429:A3 I *D sky130_fd_sc_hd__mux4_2
*I *3711:A1 I *D sky130_fd_sc_hd__mux2_2
*I *3865:Q O *D sky130_fd_sc_hd__dfxtp_2
*CAP
1 *3429:A3 0
2 *3711:A1 0.00039854
3 *3865:Q 0.000146438
4 *845:10 0.000544978
5 *3429:A1 *3711:A1 2.8135e-05
6 *3429:S1 *3711:A1 1.02504e-05
7 *3429:S1 *845:10 0.00015304
8 *3675:S *3711:A1 0
9 *3675:S *845:10 4.88515e-05
10 *3677:A0 *3711:A1 8.16457e-05
11 *3678:A *3711:A1 7.46072e-05
12 *3849:D *3711:A1 0.000171505
13 *3849:D *845:10 0.000144512
14 *525:45 *3711:A1 5.49995e-05
15 *623:71 *3711:A1 0.000115295
*RES
1 *3865:Q *845:10 17.1036 
2 *845:10 *3711:A1 21.9786 
3 *845:10 *3429:A3 13.8 
*END

*D_NET *846 0.00135416
*CONN
*I *3713:A1 I *D sky130_fd_sc_hd__mux2_2
*I *3437:A3 I *D sky130_fd_sc_hd__mux4_2
*I *3866:Q O *D sky130_fd_sc_hd__dfxtp_2
*CAP
1 *3713:A1 0.000101257
2 *3437:A3 0.000377952
3 *3866:Q 4.87527e-05
4 *846:8 0.000527961
5 *3437:S1 *3437:A3 2.89016e-05
6 *3440:A1 *3713:A1 4.06094e-05
7 *3679:A0 *3437:A3 9.8126e-05
8 *3679:A0 *846:8 1.07719e-05
9 *366:16 *3437:A3 8.99841e-05
10 *366:16 *3713:A1 2.98475e-05
*RES
1 *3866:Q *846:8 14.3357 
2 *846:8 *3437:A3 20.0321 
3 *846:8 *3713:A1 16.05 
*END

*D_NET *847 0.00142663
*CONN
*I *3445:A3 I *D sky130_fd_sc_hd__mux4_2
*I *3715:A1 I *D sky130_fd_sc_hd__mux2_2
*I *3867:Q O *D sky130_fd_sc_hd__dfxtp_2
*CAP
1 *3445:A3 0.000273885
2 *3715:A1 0.000225377
3 *3867:Q 0
4 *847:4 0.000499262
5 *3445:A2 *3445:A3 0.000139491
6 *3445:S1 *3445:A3 0.000113994
7 *3682:A *3715:A1 7.58841e-05
8 *3715:A0 *3715:A1 1.43137e-05
9 *3715:S *3715:A1 1.83136e-05
10 *3851:CLK *3715:A1 3.75868e-05
11 *3851:D *3715:A1 2.85234e-05
*RES
1 *3867:Q *847:4 9.3 
2 *847:4 *3715:A1 21.5143 
3 *847:4 *3445:A3 13.1393 
*END

*D_NET *848 0.00187043
*CONN
*I *3717:A1 I *D sky130_fd_sc_hd__mux2_2
*I *3454:A3 I *D sky130_fd_sc_hd__mux4_2
*I *3868:Q O *D sky130_fd_sc_hd__dfxtp_2
*CAP
1 *3717:A1 0.000171445
2 *3454:A3 0.00021637
3 *3868:Q 0.000387815
4 *3454:A2 *3454:A3 0.000224583
5 *3454:S1 *3454:A3 0.000312215
6 *3684:A *3717:A1 0.000265267
7 *380:22 *3717:A1 2.59355e-05
8 *725:59 *3717:A1 0.000266796
*RES
1 *3868:Q *3454:A3 23.6714 
2 *3868:Q *3717:A1 32.1357 
*END

*D_NET *849 0.00204925
*CONN
*I *3461:A3 I *D sky130_fd_sc_hd__mux4_2
*I *3719:A1 I *D sky130_fd_sc_hd__mux2_2
*I *3869:Q O *D sky130_fd_sc_hd__dfxtp_2
*CAP
1 *3461:A3 0.000189291
2 *3719:A1 0.000168376
3 *3869:Q 0.000145043
4 *849:10 0.00050271
5 *3461:A2 *3461:A3 0.000186922
6 *3702:A0 *3461:A3 0.000141734
7 *3702:A0 *3719:A1 7.70035e-05
8 *3719:S *3719:A1 0.000182598
9 *3720:A *3719:A1 0.000103437
10 *3720:A *849:10 0.000165323
11 *685:34 *3461:A3 0.000186817
*RES
1 *3869:Q *849:10 16.5857 
2 *849:10 *3719:A1 16.9071 
3 *849:10 *3461:A3 18.4429 
*END

*D_NET *850 0.0016838
*CONN
*I *3469:A3 I *D sky130_fd_sc_hd__mux4_2
*I *3721:A1 I *D sky130_fd_sc_hd__mux2_2
*I *3870:Q O *D sky130_fd_sc_hd__dfxtp_2
*CAP
1 *3469:A3 0.000167267
2 *3721:A1 0.000287339
3 *3870:Q 0.00014055
4 *850:6 0.000595156
5 *3469:A2 *3469:A3 5.49995e-05
6 *3704:A0 *3721:A1 0.000139724
7 *3721:A0 *3721:A1 0.000156186
8 *3721:S *3721:A1 0
9 *3877:CLK *3721:A1 7.83659e-05
10 *721:79 *3721:A1 6.42134e-05
*RES
1 *3870:Q *850:6 10.6571 
2 *850:6 *3721:A1 24.8536 
3 *850:6 *3469:A3 11.4964 
*END

*D_NET *851 0.00103674
*CONN
*I *3478:A3 I *D sky130_fd_sc_hd__mux4_2
*I *3723:A1 I *D sky130_fd_sc_hd__mux2_2
*I *3871:Q O *D sky130_fd_sc_hd__dfxtp_2
*CAP
1 *3478:A3 3.72704e-05
2 *3723:A1 0.000118089
3 *3871:Q 0.000260921
4 *851:8 0.000416281
5 *3478:S1 *3723:A1 5.33882e-05
6 *3724:A *3723:A1 0
7 *3724:A *851:8 0
8 *3988:A *851:8 3.79467e-05
9 *350:57 *3723:A1 0
10 *350:57 *851:8 0
11 *592:14 *851:8 5.56943e-05
12 *719:82 *3723:A1 5.71472e-05
*RES
1 *3871:Q *851:8 18.175 
2 *851:8 *3723:A1 15.9786 
3 *851:8 *3478:A3 14.3357 
*END

*D_NET *852 0.00106751
*CONN
*I *3416:A0 I *D sky130_fd_sc_hd__mux4_2
*I *3727:A0 I *D sky130_fd_sc_hd__mux2_2
*I *3872:Q O *D sky130_fd_sc_hd__dfxtp_2
*CAP
1 *3416:A0 0.000119616
2 *3727:A0 0
3 *3872:Q 0.000271966
4 *852:14 0.000391582
5 *347:10 *3416:A0 0
6 *347:10 *852:14 0
7 *626:10 *3416:A0 0.000177941
8 *626:14 *3416:A0 7.29667e-05
9 *626:14 *852:14 3.34366e-05
10 *628:20 *852:14 0
*RES
1 *3872:Q *852:14 17.8714 
2 *852:14 *3727:A0 13.8 
3 *852:14 *3416:A0 16.9607 
*END

*D_NET *853 0.000625499
*CONN
*I *3729:A0 I *D sky130_fd_sc_hd__mux2_2
*I *3426:A0 I *D sky130_fd_sc_hd__mux4_2
*I *3873:Q O *D sky130_fd_sc_hd__dfxtp_2
*CAP
1 *3729:A0 6.87399e-05
2 *3426:A0 0.000133213
3 *3873:Q 7.77074e-05
4 *853:6 0.00027966
5 *681:124 *3729:A0 4.64044e-05
6 *699:52 *3729:A0 1.9774e-05
*RES
1 *3873:Q *853:6 10.2464 
2 *853:6 *3426:A0 10.6571 
3 *853:6 *3729:A0 19.6393 
*END

*D_NET *854 0.00101258
*CONN
*I *3731:A0 I *D sky130_fd_sc_hd__mux2_2
*I *3434:A0 I *D sky130_fd_sc_hd__mux4_2
*I *3874:Q O *D sky130_fd_sc_hd__dfxtp_2
*CAP
1 *3731:A0 0
2 *3434:A0 7.8546e-05
3 *3874:Q 6.38597e-05
4 *854:10 0.000142406
5 *3434:S0 *3434:A0 0.000358374
6 *3436:A0 *3434:A0 0.000269741
7 *3727:S *854:10 9.96553e-05
*RES
1 *3874:Q *854:10 19.6393 
2 *854:10 *3434:A0 12.7107 
3 *854:10 *3731:A0 9.3 
*END

*D_NET *855 0.00189273
*CONN
*I *3442:A0 I *D sky130_fd_sc_hd__mux4_2
*I *3733:A0 I *D sky130_fd_sc_hd__mux2_2
*I *3875:Q O *D sky130_fd_sc_hd__dfxtp_2
*CAP
1 *3442:A0 0.000228386
2 *3733:A0 0.000280212
3 *3875:Q 7.82995e-05
4 *855:8 0.000586898
5 *3448:A0 *3442:A0 0.000124749
6 *3448:A0 *855:8 0.000150773
7 *535:18 *3733:A0 5.49995e-05
8 *535:26 *3733:A0 0.000141786
9 *620:6 *3733:A0 0.000126021
10 *729:78 *3442:A0 0.000120604
*RES
1 *3875:Q *855:8 15.7464 
2 *855:8 *3733:A0 19.2643 
3 *855:8 *3442:A0 17.6214 
*END

*D_NET *856 0.00116466
*CONN
*I *3450:A0 I *D sky130_fd_sc_hd__mux4_2
*I *3735:A0 I *D sky130_fd_sc_hd__mux2_2
*I *3876:Q O *D sky130_fd_sc_hd__dfxtp_2
*CAP
1 *3450:A0 0.000127265
2 *3735:A0 0.000284955
3 *3876:Q 4.57896e-05
4 *856:6 0.000458009
5 *3598:A *3450:A0 0
6 *347:10 *3450:A0 7.99531e-05
7 *347:10 *3735:A0 4.07505e-05
8 *544:61 *3735:A0 0.000127939
9 *610:23 *3450:A0 0
*RES
1 *3876:Q *856:6 9.83571 
2 *856:6 *3735:A0 22.5321 
3 *856:6 *3450:A0 21.1571 
*END

*D_NET *857 0.00175832
*CONN
*I *3737:A0 I *D sky130_fd_sc_hd__mux2_2
*I *3458:A0 I *D sky130_fd_sc_hd__mux4_2
*I *3877:Q O *D sky130_fd_sc_hd__dfxtp_2
*CAP
1 *3737:A0 8.03247e-05
2 *3458:A0 0.000425175
3 *3877:Q 0.000221796
4 *857:6 0.000727295
5 *3458:A0 *865:12 0.000184745
6 *3737:A1 *3737:A0 1.02504e-05
7 *3877:D *3458:A0 7.99677e-06
8 *26:22 *3737:A0 2.98373e-05
9 *681:44 *3458:A0 4.3959e-05
10 *681:44 *857:6 2.69405e-05
*RES
1 *3877:Q *857:6 11.8893 
2 *857:6 *3458:A0 14.7643 
3 *857:6 *3737:A0 19.6393 
*END

*D_NET *858 0.000962525
*CONN
*I *3466:A0 I *D sky130_fd_sc_hd__mux4_2
*I *3739:A0 I *D sky130_fd_sc_hd__mux2_2
*I *3878:Q O *D sky130_fd_sc_hd__dfxtp_2
*CAP
1 *3466:A0 3.67492e-05
2 *3739:A0 1.69531e-05
3 *3878:Q 0.000167657
4 *858:10 0.000221359
5 *3466:S0 *858:10 0
6 *3468:A0 *3739:A0 5.33005e-05
7 *3468:A1 *3739:A0 5.33005e-05
8 *3473:A1 *858:10 4.01768e-05
9 *3739:S *858:10 0
10 *442:37 *3466:A0 0.000100831
11 *442:37 *858:10 0.000171368
12 *722:16 *3466:A0 9.15804e-05
13 *722:16 *858:10 9.25014e-06
*RES
1 *3878:Q *858:10 16.9964 
2 *858:10 *3739:A0 14.3357 
3 *858:10 *3466:A0 15.1393 
*END

*D_NET *859 0.00104812
*CONN
*I *3474:A0 I *D sky130_fd_sc_hd__mux4_2
*I *3741:A0 I *D sky130_fd_sc_hd__mux2_2
*I *3879:Q O *D sky130_fd_sc_hd__dfxtp_2
*CAP
1 *3474:A0 0.000170189
2 *3741:A0 0.000216409
3 *3879:Q 4.62196e-05
4 *3474:S1 *3474:A0 0.000356028
5 *3580:S *3741:A0 0.00012501
6 *3735:S *3741:A0 0.000100823
7 *662:59 *3741:A0 3.34366e-05
*RES
1 *3879:Q *3741:A0 29.2429 
2 *3741:A0 *3474:A0 22.0107 
*END

*D_NET *860 0.0013197
*CONN
*I *3744:A0 I *D sky130_fd_sc_hd__mux2_2
*I *3416:A1 I *D sky130_fd_sc_hd__mux4_2
*I *3880:Q O *D sky130_fd_sc_hd__dfxtp_2
*CAP
1 *3744:A0 0.000160066
2 *3416:A1 0.000274825
3 *3880:Q 0.00043489
4 *3744:S *3744:A0 0.000101771
5 *626:10 *3416:A1 0.000103325
6 *628:14 *3416:A1 3.67142e-05
7 *628:14 *3744:A0 5.4959e-05
8 *628:20 *3416:A1 0.000153153
*RES
1 *3880:Q *3416:A1 33.1357 
2 *3880:Q *3744:A0 30.4929 
*END

*D_NET *861 0.00259251
*CONN
*I *3426:A1 I *D sky130_fd_sc_hd__mux4_2
*I *3746:A0 I *D sky130_fd_sc_hd__mux2_2
*I *3881:Q O *D sky130_fd_sc_hd__dfxtp_2
*CAP
1 *3426:A1 0.000250947
2 *3746:A0 0.000636318
3 *3881:Q 7.55507e-05
4 *861:6 0.000962816
5 *3746:A1 *3746:A0 0.000119616
6 *3747:A *3746:A0 1.69032e-05
7 *3881:CLK *3746:A0 2.85234e-05
8 *3881:D *3746:A0 7.71871e-05
9 *3971:A *3426:A1 0.000121583
10 *562:162 *3426:A1 1.95368e-05
11 *562:176 *3426:A1 7.15595e-05
12 *686:10 *3426:A1 5.54817e-06
13 *686:22 *3426:A1 0.000206425
*RES
1 *3881:Q *861:6 10.2464 
2 *861:6 *3746:A0 17.2464 
3 *861:6 *3426:A1 24.5321 
*END

*D_NET *862 0.00371759
*CONN
*I *3748:A0 I *D sky130_fd_sc_hd__mux2_2
*I *3434:A1 I *D sky130_fd_sc_hd__mux4_2
*I *3882:Q O *D sky130_fd_sc_hd__dfxtp_2
*CAP
1 *3748:A0 0.000277663
2 *3434:A1 8.01715e-05
3 *3882:Q 0.000580169
4 *862:10 0.000938004
5 *3434:S1 *3748:A0 0.000211215
6 *3434:S1 *862:10 5.54817e-06
7 *3532:A1 *862:10 9.58126e-05
8 *3749:A *3748:A0 0.000141036
9 *3882:D *3748:A0 0.00050054
10 *3882:D *862:10 0.000369118
11 *544:78 *3748:A0 2.59355e-05
12 *622:14 *3748:A0 0.000308913
13 *628:20 *3748:A0 2.53773e-05
14 *628:22 *862:10 0
15 *631:28 *3748:A0 0.000118315
16 *668:41 *862:10 3.97677e-05
*RES
1 *3882:Q *862:10 23.1214 
2 *862:10 *3434:A1 14.7464 
3 *862:10 *3748:A0 23.3 
*END

*D_NET *863 0.00113236
*CONN
*I *3750:A0 I *D sky130_fd_sc_hd__mux2_2
*I *3442:A1 I *D sky130_fd_sc_hd__mux4_2
*I *3883:Q O *D sky130_fd_sc_hd__dfxtp_2
*CAP
1 *3750:A0 8.40242e-05
2 *3442:A1 0.000144535
3 *3883:Q 5.19774e-05
4 *863:8 0.000280536
5 *3750:A1 *3750:A0 0.000257371
6 *3750:A1 *863:8 5.49489e-05
7 *3750:S *3750:A0 0.000141131
8 *571:8 *3442:A1 0
9 *620:12 *3442:A1 0.000117831
10 *687:54 *3442:A1 0
*RES
1 *3883:Q *863:8 10.2643 
2 *863:8 *3442:A1 21.4607 
3 *863:8 *3750:A0 11.8893 
*END

*D_NET *864 0.00129265
*CONN
*I *3450:A1 I *D sky130_fd_sc_hd__mux4_2
*I *3752:A0 I *D sky130_fd_sc_hd__mux2_2
*I *3884:Q O *D sky130_fd_sc_hd__dfxtp_2
*CAP
1 *3450:A1 0.000121815
2 *3752:A0 0.000323282
3 *3884:Q 0.000201467
4 *3450:S1 *3450:A1 0.000139907
5 *3753:A *3752:A0 0.000132938
6 *347:10 *3450:A1 0.000200413
7 *544:61 *3450:A1 0.000106542
8 *618:47 *3450:A1 6.62868e-05
*RES
1 *3884:Q *3752:A0 22.0286 
2 *3752:A0 *3450:A1 31.9214 
*END

*D_NET *865 0.00220253
*CONN
*I *3458:A1 I *D sky130_fd_sc_hd__mux4_2
*I *3754:A0 I *D sky130_fd_sc_hd__mux2_2
*I *3885:Q O *D sky130_fd_sc_hd__dfxtp_2
*CAP
1 *3458:A1 0
2 *3754:A0 0.000373375
3 *3885:Q 0.000384818
4 *865:12 0.000758192
5 *3458:A0 *865:12 0.000184745
6 *3458:S1 *3754:A0 0.000141734
7 *3458:S1 *865:12 5.65955e-05
8 *3460:A0 *865:12 1.40415e-05
9 *3460:A1 *865:12 0
10 *3464:A0 *3754:A0 9.25014e-06
11 *3755:A *3754:A0 0.000174469
12 *3877:D *865:12 3.2534e-05
13 *4052:A *3754:A0 0
14 *452:14 *865:12 0
15 *562:37 *3754:A0 1.81774e-05
16 *681:44 *3754:A0 4.38265e-05
17 *681:44 *865:12 1.07719e-05
*RES
1 *3885:Q *865:12 25.4786 
2 *865:12 *3754:A0 25.4607 
3 *865:12 *3458:A1 9.3 
*END

*D_NET *866 0.00116508
*CONN
*I *3756:A0 I *D sky130_fd_sc_hd__mux2_2
*I *3466:A1 I *D sky130_fd_sc_hd__mux4_2
*I *3886:Q O *D sky130_fd_sc_hd__dfxtp_2
*CAP
1 *3756:A0 4.94426e-05
2 *3466:A1 0.000155939
3 *3886:Q 8.49653e-05
4 *866:6 0.000290347
5 *3468:A1 *3756:A0 0.000147715
6 *442:37 *3756:A0 0.000150625
7 *688:31 *3466:A1 0
8 *688:31 *866:6 6.05161e-06
9 *688:35 *3466:A1 0.000242156
10 *688:35 *866:6 3.78423e-05
*RES
1 *3886:Q *866:6 10.6571 
2 *866:6 *3466:A1 12.7464 
3 *866:6 *3756:A0 20.2464 
*END

*D_NET *867 0.00190456
*CONN
*I *3758:A0 I *D sky130_fd_sc_hd__mux2_2
*I *3474:A1 I *D sky130_fd_sc_hd__mux4_2
*I *3887:Q O *D sky130_fd_sc_hd__dfxtp_2
*CAP
1 *3758:A0 0.000175671
2 *3474:A1 0
3 *3887:Q 0.000151803
4 *867:8 0.000327474
5 *3450:S0 *867:8 0
6 *3515:A0 *3758:A0 5.33005e-05
7 *3759:A *3758:A0 1.98839e-05
8 *3879:D *3758:A0 0.000150618
9 *3879:D *867:8 0.000248509
10 *544:61 *3758:A0 0.000315339
11 *544:61 *867:8 4.38511e-05
12 *544:78 *3758:A0 8.43535e-06
13 *613:10 *3758:A0 6.07232e-05
14 *613:10 *867:8 0.000116014
15 *628:22 *3758:A0 0
16 *720:23 *3758:A0 4.58194e-05
17 *720:36 *3758:A0 0.000187116
*RES
1 *3887:Q *867:8 18.4786 
2 *867:8 *3474:A1 13.8 
3 *867:8 *3758:A0 19.9786 
*END

*D_NET *868 0.00469004
*CONN
*I *3262:B1 I *D sky130_fd_sc_hd__a21o_2
*I *3285:D I *D sky130_fd_sc_hd__and4_4
*I *4037:A I *D sky130_fd_sc_hd__clkdlybuf4s25_1
*I *3929:Q O *D sky130_fd_sc_hd__dfrtp_2
*CAP
1 *3262:B1 0.000456187
2 *3285:D 0.000477531
3 *4037:A 0
4 *3929:Q 0.000164673
5 *868:17 0.00100629
6 *868:8 0.000237249
7 *3262:B1 *3238:B1 5.96516e-05
8 *3262:B1 *3930:D 0
9 *3285:D *3238:B1 9.60875e-05
10 *3285:D *869:71 5.52302e-05
11 *868:8 *3319:B1 0
12 *868:17 *3319:B1 0
13 *868:17 *906:10 0
14 *3252:A1 *3285:D 5.33005e-05
15 *3252:B1 *3285:D 2.09495e-05
16 *3262:A1 *3262:B1 0.00022459
17 *3262:A1 *3285:D 5.41797e-06
18 *3262:A2 *3262:B1 5.52302e-05
19 *3263:A2 *3262:B1 0.000107996
20 *3263:A2 *3285:D 0.000215699
21 *3264:A *3285:D 0.000314964
22 *3605:D_N *3262:B1 0.000139332
23 *3605:D_N *3285:D 5.41797e-06
24 *3929:CLK *3262:B1 0.000212954
25 *3929:CLK *868:8 0.000346639
26 *3929:CLK *868:17 0.000115474
27 *3930:RESET_B *3262:B1 3.02581e-06
28 *184:18 *3262:B1 2.58997e-05
29 *184:18 *3285:D 9.01775e-06
30 *184:40 *3285:D 5.52302e-05
31 *185:21 *3285:D 1.21258e-05
32 *193:45 *3285:D 9.64979e-05
33 *714:34 *3262:B1 0.000117378
*RES
1 *3929:Q *868:8 18.175 
2 *868:8 *4037:A 13.8 
3 *868:8 *868:17 1.64286 
4 *868:17 *3285:D 31.6214 
5 *868:17 *3262:B1 25.1929 
*END

*D_NET *869 0.0086389
*CONN
*I *3238:B1 I *D sky130_fd_sc_hd__a31oi_2
*I *3235:C I *D sky130_fd_sc_hd__and3b_2
*I *3285:C I *D sky130_fd_sc_hd__and4_4
*I *3482:A_N I *D sky130_fd_sc_hd__and4bb_2
*I *3552:A_N I *D sky130_fd_sc_hd__and4b_2
*I *3743:A_N I *D sky130_fd_sc_hd__and4bb_2
*I *3674:A_N I *D sky130_fd_sc_hd__and4bb_2
*I *3605:A I *D sky130_fd_sc_hd__nor4b_4
*I *3930:Q O *D sky130_fd_sc_hd__dfrtp_2
*CAP
1 *3238:B1 0.000385599
2 *3235:C 0.000243412
3 *3285:C 0
4 *3482:A_N 0
5 *3552:A_N 0.000132753
6 *3743:A_N 2.36895e-05
7 *3674:A_N 0
8 *3605:A 0.000195213
9 *3930:Q 0
10 *869:71 0.000564024
11 *869:40 0.000286298
12 *869:31 0.000331753
13 *869:20 0.000800687
14 *869:14 0.000886324
15 *869:4 0.00118896
16 *3251:A *869:71 4.58194e-05
17 *3252:A1 *3238:B1 0
18 *3252:B1 *869:71 0.000191403
19 *3262:B1 *3238:B1 5.96516e-05
20 *3263:A1 *3238:B1 5.83304e-05
21 *3263:A2 *3238:B1 0.000216755
22 *3263:A2 *869:14 0.000310292
23 *3285:D *3238:B1 9.60875e-05
24 *3285:D *869:71 5.52302e-05
25 *3483:C_N *869:20 5.33005e-05
26 *3605:D_N *869:14 1.98839e-05
27 *3656:A_N *3605:A 0.00020455
28 *3656:A_N *3743:A_N 5.52238e-05
29 *3656:A_N *869:31 0.000373009
30 *3656:A_N *869:40 0.000136732
31 *3656:C *869:20 3.17684e-05
32 *3915:CLK *3552:A_N 0
33 *3929:CLK *3238:B1 2.14378e-05
34 *173:10 *869:14 0.000462835
35 *184:18 *3238:B1 8.49024e-05
36 *184:40 *3235:C 8.23523e-05
37 *184:40 *869:71 5.51819e-05
38 *185:21 *3238:B1 2.59355e-05
39 *218:39 *3238:B1 0.000175505
40 *373:14 *869:14 0.000170424
41 *403:8 *869:14 9.90431e-05
42 *403:8 *869:20 2.42554e-05
43 *404:14 *3605:A 8.2395e-05
44 *507:12 *869:31 1.01912e-05
45 *507:12 *869:40 4.6025e-06
46 *544:16 *3552:A_N 4.38265e-05
47 *544:16 *869:40 5.56181e-05
48 *562:302 *3552:A_N 1.01912e-05
49 *600:58 *869:40 0
50 *637:14 *3235:C 8.64961e-05
51 *637:20 *869:71 3.4323e-05
52 *637:22 *869:71 2.34204e-05
53 *643:16 *3235:C 0.000134753
54 *701:10 *3552:A_N 0
55 *701:12 *869:31 0
56 *701:12 *869:40 0
57 *701:16 *3605:A 0
58 *701:16 *869:31 0
59 *701:84 *3552:A_N 0
60 *707:29 *869:71 4.46186e-06
*RES
1 *3930:Q *869:4 9.3 
2 *869:4 *869:14 19.6607 
3 *869:14 *869:20 10.8036 
4 *869:20 *3605:A 18.4786 
5 *869:20 *869:31 4.98214 
6 *869:31 *3674:A_N 13.8 
7 *869:31 *869:40 2.55357 
8 *869:40 *3743:A_N 14.3357 
9 *869:40 *3552:A_N 16.3536 
10 *869:14 *3482:A_N 9.3 
11 *869:4 *869:71 14.1429 
12 *869:71 *3285:C 9.3 
13 *869:71 *3235:C 14.4473 
14 *869:4 *3238:B1 25.3357 
*END

*D_NET *870 0.000553873
*CONN
*I *4035:A I *D sky130_fd_sc_hd__clkdlybuf4s25_1
*I *3931:Q O *D sky130_fd_sc_hd__dfrtp_2
*CAP
1 *4035:A 0.000182864
2 *3931:Q 0.000182864
3 *3330:B *4035:A 0
4 *187:8 *4035:A 5.33978e-05
5 *187:14 *4035:A 0.000134748
6 *204:10 *4035:A 0
*RES
1 *3931:Q *4035:A 31.975 
*END

*D_NET *871 0.000341602
*CONN
*I *4032:A I *D sky130_fd_sc_hd__clkdlybuf4s25_1
*I *3932:Q O *D sky130_fd_sc_hd__dfrtp_2
*CAP
1 *4032:A 0.00012293
2 *3932:Q 0.00012293
3 *3330:B *4032:A 4.07423e-05
4 *3932:RESET_B *4032:A 5.49995e-05
*RES
1 *3932:Q *4032:A 29.7786 
*END

*D_NET *872 0.00298959
*CONN
*I *3938:D I *D sky130_fd_sc_hd__dfstp_2
*I *3409:X O *D sky130_fd_sc_hd__o211a_2
*CAP
1 *3938:D 0.00105569
2 *3409:X 0.00105569
3 *3938:D *3913:D 0.000178847
4 *3407:B1 *3938:D 3.25892e-05
5 *3409:A2 *3938:D 0
6 *3409:B1 *3938:D 3.69047e-06
7 *3409:C1 *3938:D 0
8 *3913:RESET_B *3938:D 5.88177e-05
9 *3938:CLK *3938:D 5.50052e-05
10 *3938:SET_B *3938:D 2.59355e-05
11 *564:8 *3938:D 0.000240477
12 *564:10 *3938:D 3.29297e-05
13 *564:71 *3938:D 6.81083e-05
14 *730:31 *3938:D 0.000181821
*RES
1 *3409:X *3938:D 44.1536 
*END

*D_NET *873 0.00265867
*CONN
*I *3406:B I *D sky130_fd_sc_hd__xnor2_2
*I *3934:D I *D sky130_fd_sc_hd__dfrtp_2
*I *3255:X O *D sky130_fd_sc_hd__xor2_2
*CAP
1 *3406:B 0.000350233
2 *3934:D 8.30534e-05
3 *3255:X 0.000430062
4 *873:8 0.000863348
5 *3406:B *3909:D 6.72754e-05
6 *873:8 *3909:D 3.37618e-05
7 *873:8 *3935:D 0
8 *3904:RESET_B *3406:B 2.74795e-05
9 *3934:RESET_B *3934:D 0.000176941
10 *3934:RESET_B *873:8 4.90023e-05
11 *3942:CLK *873:8 6.48863e-05
12 *174:10 *873:8 0
13 *175:22 *873:8 0
14 *729:20 *873:8 0.000250201
15 *729:46 *873:8 0.00013921
16 *729:54 *873:8 0.000123217
*RES
1 *3255:X *873:8 23.6393 
2 *873:8 *3934:D 16.05 
3 *873:8 *3406:B 20.0857 
*END

*D_NET *874 0.00595632
*CONN
*I *3407:A2 I *D sky130_fd_sc_hd__a21oi_2
*I *3408:A2 I *D sky130_fd_sc_hd__o211a_2
*I *3935:D I *D sky130_fd_sc_hd__dfrtp_2
*I *3259:X O *D sky130_fd_sc_hd__buf_2
*CAP
1 *3407:A2 0.000171895
2 *3408:A2 0.000151789
3 *3935:D 0.000536081
4 *3259:X 0.00030382
5 *874:21 0.00137858
6 *874:6 0.0018948
7 *3935:D *3904:D 0
8 *874:21 *875:10 0.00078403
9 *3225:A *874:6 0.000113295
10 *3231:A2 *3935:D 6.09945e-05
11 *3260:A *874:21 1.58163e-05
12 *3260:B *874:6 3.69047e-06
13 *3260:B *874:21 0.000102776
14 *3408:A1 *3407:A2 5.97623e-05
15 *3408:A1 *3408:A2 0.000116882
16 *3408:B1 *3408:A2 1.00887e-05
17 *3408:C1 *3407:A2 1.58163e-05
18 *3408:C1 *3408:A2 1.41665e-05
19 *3409:A1 *3407:A2 0
20 *3409:B1 *3407:A2 0
21 *3409:C1 *3407:A2 0
22 *3409:C1 *3408:A2 0
23 *3914:D *3935:D 3.56976e-05
24 *3934:RESET_B *3935:D 0
25 *174:10 *3935:D 2.19684e-05
26 *175:22 *874:21 4.96155e-05
27 *336:10 *3407:A2 1.76039e-05
28 *642:24 *3407:A2 9.71601e-05
29 *873:8 *3935:D 0
*RES
1 *3259:X *874:6 13.1214 
2 *874:6 *3935:D 28.4429 
3 *874:6 *874:21 18.5893 
4 *874:21 *3408:A2 17.2643 
5 *874:21 *3407:A2 17.5143 
*END

*D_NET *875 0.00349755
*CONN
*I *3403:A I *D sky130_fd_sc_hd__and2_2
*I *3402:B I *D sky130_fd_sc_hd__nor2_2
*I *3936:D I *D sky130_fd_sc_hd__dfrtp_2
*I *3260:X O *D sky130_fd_sc_hd__xor2_2
*CAP
1 *3403:A 0.000106716
2 *3402:B 0
3 *3936:D 0.000175218
4 *3260:X 0.000553895
5 *875:23 0.000106716
6 *875:10 0.000729113
7 *3402:A *3403:A 0.000235925
8 *3409:A1 *3403:A 5.50052e-05
9 *3409:A1 *875:10 0.000200218
10 *3409:A2 *3403:A 1.853e-05
11 *3409:B1 *3403:A 9.58632e-05
12 *3409:C1 *875:10 0.000200218
13 *3936:CLK *3936:D 0.000141935
14 *563:6 *875:10 9.41642e-05
15 *874:21 *875:10 0.00078403
*RES
1 *3260:X *875:10 26.9429 
2 *875:10 *3936:D 17.1036 
3 *875:10 *875:23 4.5 
4 *875:23 *3402:B 9.3 
5 *875:23 *3403:A 12.8714 
*END

*D_NET *876 0.00114293
*CONN
*I *3404:B I *D sky130_fd_sc_hd__xnor2_2
*I *3937:D I *D sky130_fd_sc_hd__dfrtp_2
*I *3261:X O *D sky130_fd_sc_hd__xor2_2
*CAP
1 *3404:B 7.15224e-05
2 *3937:D 0.000268723
3 *3261:X 0
4 *876:6 0.000340246
5 *3937:D *897:10 4.79282e-05
6 *3261:B *3404:B 0.00015244
7 *3261:B *3937:D 3.45899e-05
8 *3449:A *3937:D 7.32272e-05
9 *3916:D *3937:D 0.00015425
10 *3918:D *3937:D 0
*RES
1 *3261:X *876:6 13.8 
2 *876:6 *3937:D 20.1393 
3 *876:6 *3404:B 15.7464 
*END

*D_NET *877 0.00161821
*CONN
*I *3903:D I *D sky130_fd_sc_hd__dfrtp_2
*I *3901:Q O *D sky130_fd_sc_hd__dfrtp_2
*CAP
1 *3903:D 0.000570709
2 *3901:Q 0.000570709
3 *3903:D *4042:A 0.000128012
4 *3888:SET_B *3903:D 0
5 *3901:RESET_B *3903:D 0.000109531
6 *3903:CLK *3903:D 9.99899e-05
7 *4116:A *3903:D 0.00013926
*RES
1 *3901:Q *3903:D 36.35 
*END

*D_NET *878 0.00427897
*CONN
*I *4042:A I *D sky130_fd_sc_hd__clkdlybuf4s25_1
*I *4054:A I *D sky130_fd_sc_hd__dlygate4sd3_1
*I *3903:Q O *D sky130_fd_sc_hd__dfrtp_2
*CAP
1 *4042:A 0.000941801
2 *4054:A 0.000788485
3 *3903:Q 0
4 *878:4 0.00173029
5 *3393:A1 *4054:A 1.65558e-05
6 *3401:A1 *4054:A 0
7 *3401:A2 *4054:A 0.00034843
8 *3891:RESET_B *4042:A 2.15245e-05
9 *3891:RESET_B *4054:A 8.32964e-05
10 *3903:CLK *4042:A 2.95018e-05
11 *3903:D *4042:A 0.000128012
12 *3903:RESET_B *4042:A 5.00521e-05
13 *4116:A *4042:A 9.75171e-05
14 *304:44 *4054:A 4.35048e-05
*RES
1 *3903:Q *878:4 9.3 
2 *878:4 *4054:A 33.1929 
3 *878:4 *4042:A 22.5143 
*END

*D_NET *879 0.00138241
*CONN
*I *3919:D I *D sky130_fd_sc_hd__dfrtp_2
*I *3914:Q O *D sky130_fd_sc_hd__dfrtp_2
*CAP
1 *3919:D 0.00059275
2 *3914:Q 0.00059275
3 *3919:D *3904:D 5.16489e-05
4 *3915:D *3919:D 6.74815e-05
5 *3919:CLK *3919:D 7.77751e-05
6 *632:25 *3919:D 0
7 *714:70 *3919:D 0
8 *714:77 *3919:D 0
9 *726:25 *3919:D 0
*RES
1 *3914:Q *3919:D 37.8321 
*END

*D_NET *880 0.00217935
*CONN
*I *3920:D I *D sky130_fd_sc_hd__dfrtp_2
*I *3915:Q O *D sky130_fd_sc_hd__dfrtp_2
*CAP
1 *3920:D 0.000582919
2 *3915:Q 0.000582919
3 *3920:D *3924:D 0.000480886
4 *3920:CLK *3920:D 1.19388e-05
5 *606:8 *3920:D 9.90431e-05
6 *606:10 *3920:D 0
7 *714:52 *3920:D 0.000127008
8 *714:66 *3920:D 0.000102193
9 *714:70 *3920:D 0.000136748
10 *714:77 *3920:D 5.56943e-05
*RES
1 *3915:Q *3920:D 39.4259 
*END

*D_NET *881 0.00068575
*CONN
*I *3921:D I *D sky130_fd_sc_hd__dfrtp_2
*I *3916:Q O *D sky130_fd_sc_hd__dfrtp_2
*CAP
1 *3921:D 0.000213299
2 *3916:Q 0.000213299
3 *3916:RESET_B *3921:D 0.000102696
4 *3917:D *3921:D 0.000153923
5 *716:68 *3921:D 2.53112e-06
*RES
1 *3916:Q *3921:D 32.3143 
*END

*D_NET *882 0.000687921
*CONN
*I *3922:D I *D sky130_fd_sc_hd__dfrtp_2
*I *3917:Q O *D sky130_fd_sc_hd__dfrtp_2
*CAP
1 *3922:D 0.000243754
2 *3917:Q 0.000243754
3 *4113:A *3922:D 0.000200413
*RES
1 *3917:Q *3922:D 32.2071 
*END

*D_NET *883 0.000959799
*CONN
*I *3923:D I *D sky130_fd_sc_hd__dfrtp_2
*I *3918:Q O *D sky130_fd_sc_hd__dfrtp_2
*CAP
1 *3923:D 0.000350861
2 *3918:Q 0.000350861
3 *3918:RESET_B *3923:D 6.05161e-06
4 *3922:RESET_B *3923:D 0
5 *3923:CLK *3923:D 7.1724e-05
6 *4044:A *3923:D 0.000153047
7 *4045:A *3923:D 2.72545e-05
8 *716:17 *3923:D 0
*RES
1 *3918:Q *3923:D 34.7607 
*END

*D_NET *884 0.00697399
*CONN
*I *3411:A I *D sky130_fd_sc_hd__xor2_2
*I *3293:A I *D sky130_fd_sc_hd__inv_2
*I *3289:C I *D sky130_fd_sc_hd__nand3_2
*I *3317:B1 I *D sky130_fd_sc_hd__o211ai_2
*I *3919:Q O *D sky130_fd_sc_hd__dfrtp_2
*CAP
1 *3411:A 0.000127733
2 *3293:A 0.000222791
3 *3289:C 0
4 *3317:B1 0.00043601
5 *3919:Q 0.000231074
6 *884:16 0.000553452
7 *884:14 0.000985069
8 *884:8 0.00100364
9 *884:14 *885:10 0.000336146
10 *884:14 *885:12 0.000209584
11 *884:16 *885:12 7.27468e-05
12 *3236:A *884:14 0.000148331
13 *3294:B1 *3317:B1 5.4396e-05
14 *3295:C1 *3317:B1 5.50052e-05
15 *3316:C *3317:B1 0.000235188
16 *3920:CLK *884:14 0
17 *202:54 *3411:A 0.000356677
18 *214:10 *884:16 7.11068e-05
19 *214:12 *3317:B1 5.51716e-05
20 *214:12 *884:16 0.000172285
21 *218:39 *3317:B1 0.000148514
22 *221:6 *3317:B1 0.000210433
23 *225:30 *3317:B1 4.44437e-05
24 *676:10 *3317:B1 5.51716e-05
25 *676:10 *884:14 0.000690391
26 *676:10 *884:16 0.000374217
27 *708:39 *884:14 0.000124405
*RES
1 *3919:Q *884:8 17.8714 
2 *884:8 *884:14 18.1964 
3 *884:14 *884:16 4.98214 
4 *884:16 *3317:B1 31.4964 
5 *884:16 *3289:C 13.8 
6 *884:14 *3293:A 17.2107 
7 *884:8 *3411:A 17.2107 
*END

*D_NET *885 0.00717205
*CONN
*I *3283:A I *D sky130_fd_sc_hd__inv_2
*I *3288:C I *D sky130_fd_sc_hd__nand3_2
*I *3286:A3 I *D sky130_fd_sc_hd__a311oi_1
*I *3307:A3 I *D sky130_fd_sc_hd__a311o_2
*I *3292:B I *D sky130_fd_sc_hd__nand3_4
*I *3920:Q O *D sky130_fd_sc_hd__dfrtp_2
*CAP
1 *3283:A 0
2 *3288:C 3.48189e-05
3 *3286:A3 3.75977e-05
4 *3307:A3 0.000381457
5 *3292:B 0
6 *3920:Q 0.000557136
7 *885:29 0.000568615
8 *885:18 0.000265058
9 *885:12 0.000445553
10 *885:10 0.000852373
11 *3239:A2 *885:10 0.000583453
12 *3241:A1 *885:10 0
13 *3244:A1 *885:10 0
14 *3246:A *885:10 4.0698e-05
15 *3286:A1 *3286:A3 9.90367e-05
16 *3307:A1 *3307:A3 8.86969e-05
17 *3307:C1 *3307:A3 0.000221678
18 *3413:A *885:10 5.49257e-05
19 *213:19 *885:12 1.30914e-05
20 *213:19 *885:18 6.90976e-05
21 *213:21 *3307:A3 2.24646e-05
22 *213:21 *885:29 0.000393429
23 *213:23 *3307:A3 0.000275362
24 *213:50 *3307:A3 5.99599e-07
25 *214:10 *885:12 7.96661e-05
26 *214:12 *885:12 0.000162196
27 *214:12 *885:18 0.000221886
28 *214:14 *3307:A3 2.10446e-05
29 *214:14 *885:18 9.15842e-06
30 *214:14 *885:29 0.000137781
31 *214:26 *3307:A3 7.56799e-05
32 *216:10 *885:10 3.40128e-05
33 *216:10 *885:12 0.000315381
34 *216:16 *885:12 6.35976e-05
35 *216:20 *3307:A3 7.67094e-06
36 *219:10 *3307:A3 0
37 *221:6 *3288:C 0.000182811
38 *224:14 *3288:C 0.000182811
39 *562:308 *885:10 2.85321e-05
40 *596:42 *3307:A3 2.62066e-05
41 *884:14 *885:10 0.000336146
42 *884:14 *885:12 0.000209584
43 *884:16 *885:12 7.27468e-05
*RES
1 *3920:Q *885:10 28.7286 
2 *885:10 *885:12 9.83929 
3 *885:12 *885:18 7.89286 
4 *885:18 *3292:B 9.3 
5 *885:18 *885:29 10.0179 
6 *885:29 *3307:A3 22.0857 
7 *885:29 *3286:A3 14.7464 
8 *885:12 *3288:C 15.5679 
9 *885:10 *3283:A 13.8 
*END

*D_NET *886 0.00822158
*CONN
*I *3410:A I *D sky130_fd_sc_hd__xor2_2
*I *3273:A I *D sky130_fd_sc_hd__inv_2
*I *3272:C I *D sky130_fd_sc_hd__nand3_2
*I *3280:B1 I *D sky130_fd_sc_hd__o21ai_4
*I *3921:Q O *D sky130_fd_sc_hd__dfrtp_2
*CAP
1 *3410:A 0
2 *3273:A 0.000299936
3 *3272:C 5.69909e-05
4 *3280:B1 0.000431006
5 *3921:Q 0.000476586
6 *886:22 0.000856585
7 *886:16 0.00123663
8 *886:10 0.00104469
9 *3273:A *3279:A 6.3629e-05
10 *3273:A *887:33 9.67754e-05
11 *886:10 *3410:B 0
12 *886:10 *3905:D 6.44649e-05
13 *886:10 *3926:D 0
14 *886:16 *3275:B_N 1.46689e-05
15 *886:16 *3410:B 0
16 *886:16 *887:10 0.000686229
17 *886:16 *887:12 1.17968e-05
18 *886:16 *887:14 3.19467e-05
19 *886:16 *887:16 7.78928e-05
20 *886:22 *3275:B_N 6.13812e-05
21 *3272:B *3272:C 1.02301e-05
22 *3272:B *886:22 1.62025e-05
23 *3288:A *3272:C 5.49995e-05
24 *3288:A *3280:B1 0.000480187
25 *3291:A2 *3272:C 1.32293e-05
26 *3291:A3 *3280:B1 0.000148651
27 *3332:B *886:16 0.000174805
28 *3414:A *886:16 0.00053268
29 *3414:A *886:22 7.89362e-05
30 *3917:CLK *886:10 6.85942e-05
31 *3918:D *886:10 2.30861e-05
32 *3921:CLK *886:10 0.000144035
33 *202:10 *3280:B1 3.41939e-05
34 *206:8 *3273:A 5.4775e-05
35 *211:6 *3272:C 7.15503e-05
36 *211:6 *886:22 8.10737e-06
37 *233:16 *886:22 0.000527937
38 *235:8 *886:22 9.96553e-05
39 *604:8 *886:10 0.000126209
40 *604:8 *886:16 4.23086e-05
*RES
1 *3921:Q *886:10 24.7286 
2 *886:10 *886:16 16.2679 
3 *886:16 *886:22 12.625 
4 *886:22 *3280:B1 26.6214 
5 *886:22 *3272:C 11.3893 
6 *886:16 *3273:A 17.9429 
7 *886:10 *3410:A 13.8 
*END

*D_NET *887 0.00754095
*CONN
*I *3271:B I *D sky130_fd_sc_hd__nand2_2
*I *3270:B I *D sky130_fd_sc_hd__or2_4
*I *3274:A I *D sky130_fd_sc_hd__or2b_2
*I *3279:B I *D sky130_fd_sc_hd__and2_4
*I *3278:B I *D sky130_fd_sc_hd__nor2_2
*I *3275:B_N I *D sky130_fd_sc_hd__or2b_2
*I *3922:Q O *D sky130_fd_sc_hd__dfrtp_2
*CAP
1 *3271:B 0.000164472
2 *3270:B 0.000181663
3 *3274:A 0.000399936
4 *3279:B 0
5 *3278:B 0.000218494
6 *3275:B_N 0.000306486
7 *3922:Q 0.000481849
8 *887:33 0.000288272
9 *887:16 0.000462763
10 *887:14 0.000527985
11 *887:12 0.000281613
12 *887:10 0.000704722
13 *3270:B *3270:A 3.06035e-05
14 *3270:B *3332:A 3.69047e-06
15 *3271:B *3271:A 0.000253864
16 *3271:B *3330:A 1.04232e-05
17 *3271:B *888:8 6.57032e-05
18 *3274:A *3274:B_N 2.96219e-05
19 *3274:A *3332:A 6.96806e-05
20 *3274:A *888:51 0.00013519
21 *3275:B_N *3275:A 3.33123e-05
22 *3275:B_N *3278:A 0.000139344
23 *887:33 *3279:A 9.67754e-05
24 *3272:B *3278:B 4.40806e-05
25 *3273:A *887:33 9.67754e-05
26 *3330:B *3271:B 0.000144773
27 *3331:C1 *3275:B_N 6.96346e-05
28 *3331:C1 *887:12 3.92854e-05
29 *3331:C1 *887:14 6.69944e-05
30 *3331:C1 *887:16 8.0025e-05
31 *3332:B *887:12 0.000116481
32 *3332:B *887:14 5.83233e-05
33 *3414:C *887:10 0.000106552
34 *3414:C *887:12 3.67452e-05
35 *3414:D *887:10 3.25247e-05
36 *3918:CLK *887:10 0.000128161
37 *3918:D *887:10 2.49484e-05
38 *204:12 *3278:B 3.67279e-06
39 *206:8 *3278:B 0.000268042
40 *206:8 *887:33 1.38323e-05
41 *212:6 *3278:B 5.50052e-05
42 *233:29 *3275:B_N 0.000139331
43 *604:8 *887:10 0.000190148
44 *716:40 *887:10 5.52302e-05
45 *886:16 *3275:B_N 1.46689e-05
46 *886:16 *887:10 0.000686229
47 *886:16 *887:12 1.17968e-05
48 *886:16 *887:14 3.19467e-05
49 *886:16 *887:16 7.78928e-05
50 *886:22 *3275:B_N 6.13812e-05
*RES
1 *3922:Q *887:10 25.3179 
2 *887:10 *887:12 1.94643 
3 *887:12 *887:14 1.64286 
4 *887:14 *887:16 2.25 
5 *887:16 *3275:B_N 20.3893 
6 *887:16 *887:33 6.28571 
7 *887:33 *3278:B 23.1393 
8 *887:33 *3279:B 9.3 
9 *887:14 *3274:A 18.8536 
10 *887:12 *3270:B 15.9964 
11 *887:10 *3271:B 18.175 
*END

*D_NET *888 0.00601443
*CONN
*I *3270:A I *D sky130_fd_sc_hd__or2_4
*I *3274:B_N I *D sky130_fd_sc_hd__or2b_2
*I *3279:A I *D sky130_fd_sc_hd__and2_4
*I *3278:A I *D sky130_fd_sc_hd__nor2_2
*I *3332:A I *D sky130_fd_sc_hd__xor2_2
*I *3275:A I *D sky130_fd_sc_hd__or2b_2
*I *3330:A I *D sky130_fd_sc_hd__xnor2_2
*I *3271:A I *D sky130_fd_sc_hd__nand2_2
*I *3923:Q O *D sky130_fd_sc_hd__dfrtp_2
*CAP
1 *3270:A 0.000121399
2 *3274:B_N 4.62411e-05
3 *3279:A 5.94844e-05
4 *3278:A 0.000323451
5 *3332:A 0.000192398
6 *3275:A 0.0004235
7 *3330:A 1.99857e-05
8 *3271:A 0.000181794
9 *3923:Q 0
10 *888:62 0.000473327
11 *888:51 0.000295581
12 *888:47 0.000180431
13 *888:34 0.000646199
14 *888:8 0.000447555
15 *888:4 0.000468474
16 *3270:B *3270:A 3.06035e-05
17 *3270:B *3332:A 3.69047e-06
18 *3271:B *3271:A 0.000253864
19 *3271:B *3330:A 1.04232e-05
20 *3271:B *888:8 6.57032e-05
21 *3273:A *3279:A 6.3629e-05
22 *3274:A *3274:B_N 2.96219e-05
23 *3274:A *3332:A 6.96806e-05
24 *3274:A *888:51 0.00013519
25 *3275:B_N *3275:A 3.33123e-05
26 *3275:B_N *3278:A 0.000139344
27 *3302:B *3278:A 5.33005e-05
28 *3330:B *3271:A 4.88637e-05
29 *3331:C1 *3278:A 0.000146853
30 *3331:C1 *888:34 0
31 *3331:C1 *888:62 0.000182179
32 *3337:A1_N *3275:A 0.000146017
33 *3337:A1_N *3278:A 4.48698e-05
34 *3337:A1_N *888:34 1.37442e-05
35 *3337:A1_N *888:62 5.71639e-05
36 *206:8 *3279:A 0.000221978
37 *233:16 *3278:A 0.000112536
38 *233:29 *3278:A 2.38501e-05
39 *234:12 *3270:A 5.23735e-05
40 *263:8 *888:8 9.90431e-05
41 *716:10 *888:34 0
42 *887:33 *3279:A 9.67754e-05
*RES
1 *3923:Q *888:4 9.3 
2 *888:4 *888:8 4.25 
3 *888:8 *3271:A 13.1393 
4 *888:8 *3330:A 9.72857 
5 *888:4 *888:34 7.75 
6 *888:34 *3275:A 21.05 
7 *888:34 *888:47 4.5 
8 *888:47 *888:51 3.01786 
9 *888:51 *3332:A 10.6571 
10 *888:51 *888:62 7.05357 
11 *888:62 *3278:A 20.4071 
12 *888:62 *3279:A 15.9786 
13 *888:47 *3274:B_N 10.2464 
14 *3332:A *3270:A 21.225 
*END

*D_NET *889 0.000597577
*CONN
*I *3909:D I *D sky130_fd_sc_hd__dfrtp_2
*I *3904:Q O *D sky130_fd_sc_hd__dfrtp_2
*CAP
1 *3909:D 0.000208162
2 *3904:Q 0.000208162
3 *3406:B *3909:D 6.72754e-05
4 *3904:RESET_B *3909:D 8.02157e-05
5 *873:8 *3909:D 3.37618e-05
*RES
1 *3904:Q *3909:D 31.1179 
*END

*D_NET *890 0.00303084
*CONN
*I *3910:D I *D sky130_fd_sc_hd__dfrtp_2
*I *3905:Q O *D sky130_fd_sc_hd__dfrtp_2
*CAP
1 *3910:D 0.000966512
2 *3905:Q 0.000966512
3 *3910:D *3911:D 0
4 *3910:D *895:10 5.39166e-06
5 *3906:RESET_B *3910:D 3.34295e-05
6 *3910:RESET_B *3910:D 3.42301e-05
7 *3913:RESET_B *3910:D 3.69047e-06
8 *4109:A *3910:D 0
9 *642:10 *3910:D 0
10 *710:14 *3910:D 0.00063306
11 *710:16 *3910:D 0.000388015
*RES
1 *3905:Q *3910:D 46.5464 
*END

*D_NET *891 0.00104596
*CONN
*I *3911:D I *D sky130_fd_sc_hd__dfrtp_2
*I *3906:Q O *D sky130_fd_sc_hd__dfrtp_2
*CAP
1 *3911:D 0.000458075
2 *3906:Q 0.000458075
3 rd_data[3] *3911:D 4.08555e-06
4 *3906:RESET_B *3911:D 0
5 *3910:D *3911:D 0
6 *4109:A *3911:D 0.000125724
*RES
1 *3906:Q *3911:D 36.225 
*END

*D_NET *892 0.000252852
*CONN
*I *3912:D I *D sky130_fd_sc_hd__dfrtp_2
*I *3907:Q O *D sky130_fd_sc_hd__dfrtp_2
*CAP
1 *3912:D 7.13894e-05
2 *3907:Q 7.13894e-05
3 *3907:RESET_B *3912:D 7.83587e-05
4 *3916:D *3912:D 0
5 *3936:RESET_B *3912:D 3.17148e-05
*RES
1 *3907:Q *3912:D 28.9393 
*END

*D_NET *893 0.00201105
*CONN
*I *3913:D I *D sky130_fd_sc_hd__dfrtp_2
*I *3908:Q O *D sky130_fd_sc_hd__dfrtp_2
*CAP
1 *3913:D 0.000463687
2 *3908:Q 0.000463687
3 *3407:B1 *3913:D 4.05548e-05
4 *3409:B1 *3913:D 0.000338941
5 *3912:CLK *3913:D 5.4959e-05
6 *3936:CLK *3913:D 0.00047037
7 *3938:D *3913:D 0.000178847
*RES
1 *3908:Q *3913:D 38.9393 
*END

*D_NET *894 0.0033681
*CONN
*I *3339:B I *D sky130_fd_sc_hd__and2_2
*I *3340:B I *D sky130_fd_sc_hd__nor2_2
*I *3406:A I *D sky130_fd_sc_hd__xnor2_2
*I *3909:Q O *D sky130_fd_sc_hd__dfrtp_2
*CAP
1 *3339:B 2.32729e-05
2 *3340:B 0.000188676
3 *3406:A 0.000144969
4 *3909:Q 5.11063e-05
5 *894:25 0.000979987
6 *894:8 0.000964114
7 *3339:B *3340:A 5.38444e-06
8 *3340:B *3340:A 8.58255e-05
9 *894:25 *3340:A 2.8078e-05
10 *894:25 *895:24 6.05161e-06
11 *3226:A2 *3340:B 0
12 *176:14 *3340:B 3.43495e-05
13 *178:27 *894:25 0.000161746
14 *180:20 *894:25 0.000526979
15 *563:10 *894:25 6.8174e-05
16 *563:14 *3406:A 6.23879e-05
17 *563:14 *894:25 3.70036e-05
*RES
1 *3909:Q *894:8 14.3357 
2 *894:8 *3406:A 16.3893 
3 *894:8 *894:25 20.1429 
4 *894:25 *3340:B 12.8714 
5 *894:25 *3339:B 10.0321 
*END

*D_NET *895 0.00803297
*CONN
*I *3356:A I *D sky130_fd_sc_hd__nor2_2
*I *3357:A I *D sky130_fd_sc_hd__and2_2
*I *3353:A I *D sky130_fd_sc_hd__or2_2
*I *3354:A I *D sky130_fd_sc_hd__nand2_2
*I *3405:A I *D sky130_fd_sc_hd__inv_2
*I *3340:A I *D sky130_fd_sc_hd__nor2_2
*I *3339:A I *D sky130_fd_sc_hd__and2_2
*I *3910:Q O *D sky130_fd_sc_hd__dfrtp_2
*CAP
1 *3356:A 0.000108528
2 *3357:A 0.000292204
3 *3353:A 0
4 *3354:A 0
5 *3405:A 0.000476798
6 *3340:A 9.51259e-05
7 *3339:A 0
8 *3910:Q 0.000737851
9 *895:24 0.000227058
10 *895:22 0.000888261
11 *895:20 0.00044069
12 *895:16 0.00120737
13 *895:10 0.00196774
14 *3357:A *3357:B 0
15 *895:10 *3357:B 0
16 *895:16 *3343:A_N 3.32631e-05
17 *895:16 *3346:A 0.000142856
18 *895:16 *3346:B 4.33174e-05
19 *3339:B *3340:A 5.38444e-06
20 *3340:B *3340:A 8.58255e-05
21 *3354:B *895:20 0.0001399
22 *3356:B *3356:A 6.00376e-05
23 *3910:D *895:10 5.39166e-06
24 *4041:A *3357:A 0
25 *4041:A *895:10 0
26 *176:14 *3340:A 0.000271026
27 *176:14 *895:22 2.89114e-05
28 *176:14 *895:24 0.000139522
29 *181:23 *3405:A 0
30 *275:10 *895:16 2.15396e-05
31 *561:13 *3405:A 0
32 *642:10 *895:10 0
33 *709:47 *895:16 4.88637e-05
34 *709:47 *895:20 4.27935e-05
35 *709:58 *895:16 9.77274e-05
36 *712:14 *895:10 0.000312154
37 *712:24 *3405:A 7.86973e-05
38 *730:16 *895:10 0
39 *894:25 *3340:A 2.8078e-05
40 *894:25 *895:24 6.05161e-06
*RES
1 *3910:Q *895:10 25.5321 
2 *895:10 *895:16 17.7857 
3 *895:16 *895:20 3.01786 
4 *895:20 *895:22 4.64286 
5 *895:22 *895:24 2.58929 
6 *895:24 *3339:A 9.3 
7 *895:24 *3340:A 12.7464 
8 *895:22 *3405:A 26.7643 
9 *895:20 *3354:A 9.3 
10 *895:16 *3353:A 9.3 
11 *895:10 *3357:A 17.2643 
12 *3357:A *3356:A 20.7964 
*END

*D_NET *896 0.00541785
*CONN
*I *3357:B I *D sky130_fd_sc_hd__and2_2
*I *4038:A I *D sky130_fd_sc_hd__clkdlybuf4s25_1
*I *3911:Q O *D sky130_fd_sc_hd__dfrtp_2
*CAP
1 *3357:B 0.000742958
2 *4038:A 0.000565409
3 *3911:Q 0.000406272
4 *896:10 0.00171464
5 *3357:B *898:10 0
6 *3357:B *898:25 0
7 *3357:B *898:47 0
8 empty *896:10 0
9 *3356:B *3357:B 0.000271904
10 *3357:A *3357:B 0
11 *3395:B *3357:B 0.000367382
12 *3910:RESET_B *3357:B 0
13 *3911:CLK *896:10 7.22772e-05
14 *3937:RESET_B *896:10 0.000267237
15 *3943:RESET_B *3357:B 0.00017309
16 *3947:A *4038:A 5.39579e-05
17 *4039:A *4038:A 5.33005e-05
18 *15:30 *3357:B 1.33462e-05
19 *278:8 *3357:B 7.50719e-05
20 *710:14 *3357:B 0
21 *710:14 *896:10 0
22 *711:12 *3357:B 0.000173804
23 *711:14 *3357:B 0.000189448
24 *711:14 *896:10 3.17148e-05
25 *711:16 *896:10 0.000246038
26 *712:14 *3357:B 0
27 *895:10 *3357:B 0
*RES
1 *3911:Q *896:10 21.9607 
2 *896:10 *4038:A 23.3982 
3 *896:10 *3357:B 31.0857 
*END

*D_NET *897 0.00434388
*CONN
*I *3345:B I *D sky130_fd_sc_hd__or2_4
*I *3342:B I *D sky130_fd_sc_hd__nand2b_2
*I *3346:B I *D sky130_fd_sc_hd__nand2_2
*I *3343:A_N I *D sky130_fd_sc_hd__nand2b_2
*I *3404:A I *D sky130_fd_sc_hd__xnor2_2
*I *3912:Q O *D sky130_fd_sc_hd__dfrtp_2
*CAP
1 *3345:B 0.000124825
2 *3342:B 2.52941e-05
3 *3346:B 9.62737e-05
4 *3343:A_N 6.43309e-05
5 *3404:A 0
6 *3912:Q 0.000309759
7 *897:43 0.000219638
8 *897:21 0.000160605
9 *897:19 0.000589999
10 *897:10 0.000830239
11 *3343:A_N *3346:A 0
12 *3345:B *3342:A_N 5.49995e-05
13 *3345:B *3345:A 6.20245e-05
14 *3346:B *3346:A 4.51007e-05
15 *897:19 *898:10 0.000151638
16 *897:19 *898:25 4.97918e-05
17 *897:19 *898:47 7.79781e-06
18 *897:43 *898:47 6.19385e-05
19 *3261:B *897:10 9.36295e-05
20 *3261:B *897:19 0.000393182
21 *3912:RESET_B *897:10 3.67968e-05
22 *3918:D *897:10 2.5383e-05
23 *3937:D *897:10 4.79282e-05
24 *180:42 *897:19 0.000232226
25 *180:42 *897:43 8.69051e-05
26 *274:8 *3342:B 5.49995e-05
27 *274:8 *3345:B 1.24368e-05
28 *275:10 *3343:A_N 2.89114e-05
29 *730:31 *897:10 6.57675e-05
30 *730:31 *897:19 0.00033488
31 *895:16 *3343:A_N 3.32631e-05
32 *895:16 *3346:B 4.33174e-05
*RES
1 *3912:Q *897:10 20.05 
2 *897:10 *3404:A 13.8 
3 *897:10 *897:19 15 
4 *897:19 *897:21 4.5 
5 *897:21 *3343:A_N 10.675 
6 *897:21 *3346:B 11.4964 
7 *897:19 *897:43 6.75 
8 *897:43 *3342:B 9.83571 
9 *897:43 *3345:B 11.9071 
*END

*D_NET *898 0.00342035
*CONN
*I *3345:A I *D sky130_fd_sc_hd__or2_4
*I *3342:A_N I *D sky130_fd_sc_hd__nand2b_2
*I *3343:B I *D sky130_fd_sc_hd__nand2b_2
*I *3346:A I *D sky130_fd_sc_hd__nand2_2
*I *3395:A I *D sky130_fd_sc_hd__xor2_2
*I *3913:Q O *D sky130_fd_sc_hd__dfrtp_2
*CAP
1 *3345:A 7.84344e-05
2 *3342:A_N 2.09681e-05
3 *3343:B 0
4 *3346:A 6.8809e-05
5 *3395:A 0.000304763
6 *3913:Q 0.000320279
7 *898:47 0.000255317
8 *898:27 6.8809e-05
9 *898:25 0.000273519
10 *898:10 0.000742645
11 *3343:A_N *3346:A 0
12 *3345:B *3342:A_N 5.49995e-05
13 *3345:B *3345:A 6.20245e-05
14 *3346:B *3346:A 4.51007e-05
15 *3356:B *3345:A 0.000140216
16 *3357:B *898:10 0
17 *3357:B *898:25 0
18 *3357:B *898:47 0
19 *3395:B *3395:A 0.000184739
20 *3395:B *898:10 0
21 *3913:RESET_B *898:10 5.52302e-05
22 *3943:CLK *898:10 4.52937e-05
23 *3943:D *898:10 0.000103285
24 *15:30 *3395:A 3.846e-05
25 *15:30 *898:10 5.6393e-05
26 *274:8 *3345:A 1.19813e-05
27 *278:8 *898:47 0
28 *730:31 *898:10 7.50601e-05
29 *895:16 *3346:A 0.000142856
30 *897:19 *898:10 0.000151638
31 *897:19 *898:25 4.97918e-05
32 *897:19 *898:47 7.79781e-06
33 *897:43 *898:47 6.19385e-05
*RES
1 *3913:Q *898:10 21.4429 
2 *898:10 *3395:A 19.7107 
3 *898:10 *898:25 1.94643 
4 *898:25 *898:27 4.5 
5 *898:27 *3346:A 11.5143 
6 *898:27 *3343:B 9.3 
7 *898:25 *898:47 7.35714 
8 *898:47 *3342:A_N 9.83571 
9 *898:47 *3345:A 12.05 
*END

*D_NET *899 0.00270721
*CONN
*I *3904:D I *D sky130_fd_sc_hd__dfrtp_2
*I *3924:Q O *D sky130_fd_sc_hd__dfrtp_2
*CAP
1 *3904:D 0.000885793
2 *3924:Q 0.000885793
3 *3914:D *3904:D 0
4 *3914:RESET_B *3904:D 0
5 *3915:D *3904:D 0.000511886
6 *3919:D *3904:D 5.16489e-05
7 *3935:D *3904:D 0
8 *3935:RESET_B *3904:D 0.000125717
9 *4031:A *3904:D 0.00010462
10 *681:22 *3904:D 0.000141753
11 *714:77 *3904:D 0
12 *726:25 *3904:D 0
*RES
1 *3924:Q *3904:D 46.1536 
*END

*D_NET *900 0.00222211
*CONN
*I *3905:D I *D sky130_fd_sc_hd__dfrtp_2
*I *3925:Q O *D sky130_fd_sc_hd__dfrtp_2
*CAP
1 *3905:D 0.000539017
2 *3925:Q 0.000539017
3 *3905:D *3926:D 0
4 *3916:D *3905:D 0
5 *3917:CLK *3905:D 1.58163e-05
6 *3918:D *3905:D 0.0010638
7 *886:10 *3905:D 6.44649e-05
*RES
1 *3925:Q *3905:D 41.6179 
*END

*D_NET *901 0.000792834
*CONN
*I *3906:D I *D sky130_fd_sc_hd__dfrtp_2
*I *3926:Q O *D sky130_fd_sc_hd__dfrtp_2
*CAP
1 *3906:D 0.000248852
2 *3926:Q 0.000248852
3 *3917:D *3906:D 0.00029513
*RES
1 *3926:Q *3906:D 32.725 
*END

*D_NET *902 0.000806409
*CONN
*I *3907:D I *D sky130_fd_sc_hd__dfrtp_2
*I *3927:Q O *D sky130_fd_sc_hd__dfrtp_2
*CAP
1 *3907:D 0.000282596
2 *3927:Q 0.000282596
3 *3907:D *3268:A2 4.57445e-05
4 *3907:D *3908:D 0.000195471
*RES
1 *3927:Q *3907:D 33.6357 
*END

*D_NET *903 0.00388427
*CONN
*I *3908:D I *D sky130_fd_sc_hd__dfrtp_2
*I *3247:A I *D sky130_fd_sc_hd__xor2_2
*I *3267:B I *D sky130_fd_sc_hd__and3_2
*I *3933:Q O *D sky130_fd_sc_hd__dfrtp_2
*CAP
1 *3908:D 0.000661287
2 *3247:A 0
3 *3267:B 0.000325577
4 *3933:Q 0.000295265
5 *903:21 0.000770692
6 *903:8 0.000730248
7 *3908:D *3268:A2 0
8 *903:8 *908:8 3.69047e-06
9 *903:21 *3268:A2 0
10 *3267:A *3267:B 2.69483e-05
11 *3267:C *3267:B 9.33978e-07
12 *3588:A *3908:D 0.000334674
13 *3588:A *903:21 3.51442e-05
14 *3907:D *3908:D 0.000195471
15 *3912:CLK *3908:D 6.4443e-05
16 *3933:RESET_B *3267:B 0
17 *3933:RESET_B *903:8 3.02581e-06
18 *3933:RESET_B *903:21 0
19 *4031:A *903:8 2.59355e-05
20 *188:43 *3267:B 0.000167489
21 *188:43 *903:21 9.95404e-05
22 *563:30 *3908:D 6.22069e-05
23 *563:36 *3908:D 0
24 *702:14 *3267:B 8.16995e-05
*RES
1 *3933:Q *903:8 18.4429 
2 *903:8 *3267:B 20.3357 
3 *903:8 *903:21 2.85714 
4 *903:21 *3247:A 13.8 
5 *903:21 *3908:D 26.5679 
*END

*D_NET *904 0.00082143
*CONN
*I *3928:D I *D sky130_fd_sc_hd__dfrtp_2
*I *3415:X O *D sky130_fd_sc_hd__buf_6
*CAP
1 *3928:D 7.70382e-05
2 *3415:X 7.70382e-05
3 *3415:A *3928:D 9.83442e-05
4 *4093:A *3928:D 0.000448926
5 *604:25 *3928:D 3.97657e-05
6 *604:36 *3928:D 8.0318e-05
*RES
1 *3415:X *3928:D 22.8321 
*END

*D_NET *905 0.00415183
*CONN
*I *3929:D I *D sky130_fd_sc_hd__dfrtp_2
*I *3322:A1 I *D sky130_fd_sc_hd__o21ai_2
*I *3254:Y O *D sky130_fd_sc_hd__inv_2
*CAP
1 *3929:D 0.00052323
2 *3322:A1 0.000158974
3 *3254:Y 0.000306508
4 *905:8 0.000988712
5 *3320:A1_N *3929:D 0
6 *3322:A2 *3322:A1 0.000259772
7 *3322:A2 *3929:D 0.000198738
8 *3326:A1 *3929:D 0
9 *3979:A *905:8 2.22999e-05
10 *249:8 *3929:D 0
11 *632:25 *3322:A1 0.000423743
12 *632:25 *3929:D 0.00126985
*RES
1 *3254:Y *905:8 17.2107 
2 *905:8 *3322:A1 20.05 
3 *905:8 *3929:D 30.0143 
*END

*D_NET *906 0.00302399
*CONN
*I *3930:D I *D sky130_fd_sc_hd__dfrtp_2
*I *3263:B2 I *D sky130_fd_sc_hd__a22o_2
*I *3319:B1 I *D sky130_fd_sc_hd__o211a_2
*I *3239:Y O *D sky130_fd_sc_hd__a21oi_4
*CAP
1 *3930:D 0.000179748
2 *3263:B2 0.000204736
3 *3319:B1 0.000363351
4 *3239:Y 9.27009e-05
5 *906:10 0.000641667
6 *906:8 0.000346029
7 *3262:B1 *3930:D 0
8 *3319:C1 *3319:B1 5.54817e-06
9 *3929:CLK *3319:B1 0
10 *3929:CLK *3930:D 2.51343e-06
11 *3930:CLK *3930:D 5.21641e-05
12 *3931:CLK *3930:D 4.35048e-05
13 *4034:A *3263:B2 0.000216852
14 *185:31 *3930:D 0.000140933
15 *224:14 *3319:B1 1.00887e-05
16 *228:10 *3319:B1 3.11713e-05
17 *603:10 *3930:D 3.98131e-05
18 *643:16 *3930:D 8.07951e-05
19 *676:10 *3319:B1 0.000218888
20 *676:10 *906:10 6.8646e-06
21 *708:24 *3263:B2 5.52238e-05
22 *708:24 *3930:D 2.84494e-05
23 *708:24 *906:10 3.69697e-05
24 *708:39 *3930:D 8.31314e-05
25 *714:34 *3930:D 0
26 *714:34 *906:8 0.00014285
27 *868:8 *3319:B1 0
28 *868:17 *3319:B1 0
29 *868:17 *906:10 0
*RES
1 *3239:Y *906:8 15.1571 
2 *906:8 *906:10 1.33929 
3 *906:10 *3319:B1 21.8179 
4 *906:10 *3263:B2 18.05 
5 *906:8 *3930:D 18.925 
*END

*D_NET *907 0.00752574
*CONN
*I *3931:D I *D sky130_fd_sc_hd__dfrtp_2
*I *3282:B1 I *D sky130_fd_sc_hd__a21oi_2
*I *3312:A I *D sky130_fd_sc_hd__and3_2
*I *3305:B1 I *D sky130_fd_sc_hd__a21oi_2
*I *3304:A I *D sky130_fd_sc_hd__and3_4
*I *3242:Y O *D sky130_fd_sc_hd__a21oi_4
*CAP
1 *3931:D 0.000107804
2 *3282:B1 3.48931e-05
3 *3312:A 9.54467e-05
4 *3305:B1 0.000172106
5 *3304:A 0.000242562
6 *3242:Y 0.000179371
7 *907:14 0.000536722
8 *907:12 0.000303526
9 *907:10 0.0012545
10 *907:8 0.00142076
11 *3284:A *3304:A 4.78405e-05
12 *3284:C *3304:A 1.83053e-05
13 *3297:A2 *3312:A 6.05161e-06
14 *3304:C *3304:A 1.83136e-05
15 *3305:A1 *3305:B1 5.49489e-05
16 *3305:A2 *3305:B1 0.000141734
17 *3413:A *3931:D 0
18 *4034:A *907:8 2.12087e-05
19 *205:40 *3305:B1 0.000142856
20 *205:68 *3304:A 7.6997e-05
21 *209:12 *907:10 0.000212585
22 *209:14 *907:10 0.000387357
23 *209:16 *3304:A 3.27526e-05
24 *209:16 *907:10 0.000589031
25 *209:16 *907:12 0.000139202
26 *209:16 *907:14 0.00021006
27 *209:20 *3304:A 0.000124083
28 *209:35 *3304:A 0.0001927
29 *214:37 *3282:B1 0.000228514
30 *216:10 *907:10 0
31 *216:20 *3304:A 1.21309e-05
32 *230:8 *3312:A 6.24351e-05
33 *596:42 *3282:B1 0.000228514
34 *706:14 *907:8 0.000230432
*RES
1 *3242:Y *907:8 16.3893 
2 *907:8 *907:10 22.8929 
3 *907:10 *907:12 1.94643 
4 *907:12 *907:14 2.85714 
5 *907:14 *3304:A 19.1214 
6 *907:14 *3305:B1 17.6214 
7 *907:12 *3312:A 15.5679 
8 *907:10 *3282:B1 15.9786 
9 *907:8 *3931:D 15.1393 
*END

*D_NET *908 0.00174852
*CONN
*I *3268:A1 I *D sky130_fd_sc_hd__o21ba_2
*I *3932:D I *D sky130_fd_sc_hd__dfrtp_2
*I *3246:X O *D sky130_fd_sc_hd__buf_1
*CAP
1 *3268:A1 0.000389426
2 *3932:D 0.000288281
3 *3246:X 8.18584e-05
4 *908:8 0.000759565
5 *3268:A1 *3927:D 4.16857e-05
6 *3246:A *3932:D 0
7 *3932:CLK *3932:D 6.05161e-06
8 *4031:A *3932:D 0.000170438
9 *4031:A *908:8 7.52002e-06
10 *573:14 *3268:A1 0
11 *573:14 *3932:D 0
12 *903:8 *908:8 3.69047e-06
*RES
1 *3246:X *908:8 14.7464 
2 *908:8 *3932:D 18.925 
3 *908:8 *3268:A1 20.6036 
*END

*D_NET *909 0.00211656
*CONN
*I *3933:D I *D sky130_fd_sc_hd__dfrtp_2
*I *3268:A2 I *D sky130_fd_sc_hd__o21ba_2
*I *3248:Y O *D sky130_fd_sc_hd__inv_2
*CAP
1 *3933:D 0
2 *3268:A2 0.00056807
3 *3248:Y 0.000126198
4 *909:6 0.000694268
5 *3268:B1_N *3268:A2 5.49489e-05
6 *3588:A *3268:A2 0.000357004
7 *3907:D *3268:A2 4.57445e-05
8 *3908:D *3268:A2 0
9 *3933:CLK *909:6 5.62995e-05
10 *3933:RESET_B *3268:A2 9.25014e-06
11 *191:10 *3268:A2 0
12 *374:10 *3268:A2 0.000204773
13 *903:21 *3268:A2 0
*RES
1 *3248:Y *909:6 11.4786 
2 *909:6 *3268:A2 30.9786 
3 *909:6 *3933:D 9.3 
*END

*D_NET *910 0.00170466
*CONN
*I *3924:D I *D sky130_fd_sc_hd__dfrtp_2
*I *3411:B I *D sky130_fd_sc_hd__xor2_2
*I *3264:X O *D sky130_fd_sc_hd__buf_6
*CAP
1 *3924:D 0.000414231
2 *3411:B 0.000492266
3 *3264:X 7.80344e-05
4 *3920:D *3924:D 0.000480886
5 *4031:A *3924:D 7.77751e-05
6 *202:54 *3411:B 9.30929e-05
7 *606:10 *3924:D 0
8 *606:14 *3924:D 0
9 *714:52 *3924:D 6.83697e-05
*RES
1 *3264:X *3411:B 11.0054 
2 *3411:B *3924:D 27.675 
*END

*D_NET *911 0.00242909
*CONN
*I *3925:D I *D sky130_fd_sc_hd__dfrtp_2
*I *3413:B I *D sky130_fd_sc_hd__xor2_2
*I *3265:Y O *D sky130_fd_sc_hd__xnor2_2
*CAP
1 *3925:D 0.000326544
2 *3413:B 6.57433e-05
3 *3265:Y 0.000136707
4 *911:8 0.000528995
5 *3925:D *3410:B 0
6 *3925:D *3926:D 0
7 *3330:B *3413:B 0.000197984
8 *3330:B *3925:D 4.95514e-05
9 *3414:B *3925:D 6.26884e-05
10 *4043:A *911:8 5.33005e-05
11 *643:16 *911:8 0.00040086
12 *717:14 *3413:B 0.000106533
13 *717:14 *3925:D 1.52978e-05
14 *717:29 *3925:D 0.000484889
*RES
1 *3265:Y *911:8 17.6214 
2 *911:8 *3413:B 7.05357 
3 *911:8 *3925:D 21.5679 
*END

*D_NET *912 0.00195492
*CONN
*I *3926:D I *D sky130_fd_sc_hd__dfrtp_2
*I *3410:B I *D sky130_fd_sc_hd__xor2_2
*I *3266:Y O *D sky130_fd_sc_hd__xnor2_2
*CAP
1 *3926:D 0.000404739
2 *3410:B 0.000190513
3 *3266:Y 0.000229831
4 *912:8 0.000825083
5 *3905:D *3926:D 0
6 *3921:CLK *3926:D 0
7 *3925:D *3410:B 0
8 *3925:D *3926:D 0
9 *3987:A *912:8 5.71472e-05
10 *637:10 *912:8 0.000247602
11 *886:10 *3410:B 0
12 *886:10 *3926:D 0
13 *886:16 *3410:B 0
*RES
1 *3266:Y *912:8 18.8536 
2 *912:8 *3410:B 7.83036 
3 *912:8 *3926:D 20.6036 
*END

*D_NET *913 0.00114667
*CONN
*I *3927:D I *D sky130_fd_sc_hd__dfrtp_2
*I *3268:X O *D sky130_fd_sc_hd__o21ba_2
*CAP
1 *3927:D 0.000375067
2 *3268:X 0.000375067
3 *3268:A1 *3927:D 4.16857e-05
4 *3588:A *3927:D 0.000354851
*RES
1 *3268:X *3927:D 32.9571 
*END

*D_NET *914 0.00161478
*CONN
*I *3900:D I *D sky130_fd_sc_hd__dfrtp_2
*I *3898:Q O *D sky130_fd_sc_hd__dfrtp_2
*CAP
1 *3900:D 0.00047458
2 *3898:Q 0.00047458
3 *3897:RESET_B *3900:D 0.000345303
4 *3900:RESET_B *3900:D 0.000320316
*RES
1 *3898:Q *3900:D 38.2607 
*END

*D_NET *915 0.00110224
*CONN
*I *4046:A I *D sky130_fd_sc_hd__clkdlybuf4s25_1
*I *3900:Q O *D sky130_fd_sc_hd__dfrtp_2
*CAP
1 *4046:A 0.000326673
2 *3900:Q 0.000326673
3 afull *4046:A 0
4 *3897:RESET_B *4046:A 0.000295844
5 *4091:A *4046:A 0.000153047
*RES
1 *3900:Q *4046:A 34.9393 
*END
